#=======================================================
# FHI-aims file: 1400_geometry.in.primitive.supercell_1500.0010K
# Created using the Atomic Simulation Environment (ASE)
# Thu Jan  5 12:11:57 2023

# Additional information:
#  created from MB distrubtion
#  T = 10.0 K
#  quantum:             False
#  deterministic:       False
#  plus_minus:          False
#  gauge_eigenvectors:  False
#  Random seed:         544492227
#  Sample number:       1
#=======================================================
lattice_vector 25.7458791208791240 0.0000000000000000 0.0000000000000000 
lattice_vector 0.0000000000000000 25.7458791208791240 0.0000000000000000 
lattice_vector 0.0000000000000000 0.0000000000000000 26.3887362637362664 
atom 2.5745879120879125 0.0000000000000000 0.0000000000000000 Zr
    velocity 0.6095440028548692 -0.0081926437480163 0.5567330097683334
atom 7.7237637362637370 0.0000000000000000 0.0000000000000000 Zr
    velocity 0.2534316139169058 0.1923781194182235 0.2346815838277599
atom 12.8729395604395620 0.0000000000000000 0.0000000000000000 Zr
    velocity -0.1643357868442520 0.3573269965144428 0.2114687975323133
atom 18.0221153846153896 0.0000000000000000 0.0000000000000000 Zr
    velocity -0.2449793172950203 -0.0460772222912505 0.1267073785998558
atom 23.1712912087912137 0.0000000000000000 0.0000000000000000 Zr
    velocity -0.7876665913188587 0.1766663030178319 -0.0125336421151203
atom 2.5745879120879125 5.1491758241758250 0.0000000000000000 Zr
    velocity 0.1524432063682895 0.1031561158905909 -0.1964848659963398
atom 7.7237637362637370 5.1491758241758250 0.0000000000000000 Zr
    velocity -0.1972099612519828 -0.0445046661806399 0.1216882047895820
atom 12.8729395604395620 5.1491758241758250 0.0000000000000000 Zr
    velocity 0.3230755903122018 0.0637440552757697 -0.0311094392730474
atom 18.0221153846153896 5.1491758241758250 0.0000000000000000 Zr
    velocity -0.1354174005461941 -0.7758505406424174 -0.6354160700159581
atom 23.1712912087912137 5.1491758241758250 0.0000000000000000 Zr
    velocity 0.2005261634633265 0.0969592081915493 0.1267047280788423
atom 2.5745879120879125 10.2983516483516500 0.0000000000000000 Zr
    velocity -0.2414044288299267 0.9213853452814541 -0.3930751425594640
atom 7.7237637362637370 10.2983516483516500 0.0000000000000000 Zr
    velocity 0.0015080321570251 0.9683159980555982 0.1677743470022656
atom 12.8729395604395620 10.2983516483516500 0.0000000000000000 Zr
    velocity 0.1392634313032851 0.1571827401313620 -0.3200326228242554
atom 18.0221153846153896 10.2983516483516500 0.0000000000000000 Zr
    velocity -0.3157912475891220 -0.0597980295689059 -0.5034129362700870
atom 23.1712912087912137 10.2983516483516500 0.0000000000000000 Zr
    velocity 0.1246350574405824 0.2473656957836777 -0.2952569362471270
atom 2.5745879120879125 15.4475274725274740 0.0000000000000000 Zr
    velocity -0.2935571757509059 -0.4459185943107056 -0.2953035820690339
atom 7.7237637362637370 15.4475274725274740 0.0000000000000000 Zr
    velocity 0.3352647467668190 0.1659137720706003 -0.0551974919398153
atom 12.8729395604395620 15.4475274725274740 0.0000000000000000 Zr
    velocity 0.2354048796919138 0.2082458309024900 0.2822408229928801
atom 18.0221153846153896 15.4475274725274740 0.0000000000000000 Zr
    velocity -0.1437698590700467 0.2491136316147708 -0.0181439343297236
atom 23.1712912087912137 15.4475274725274740 0.0000000000000000 Zr
    velocity 0.2001264604028652 0.3303425703355871 -0.0710146819990186
atom 2.5745879120879125 20.5967032967032964 0.0000000000000000 Zr
    velocity 0.0894849317499813 0.2026841237315893 -0.0254775120581441
atom 7.7237637362637370 20.5967032967032964 0.0000000000000000 Zr
    velocity -0.0239346934841150 0.2621635878437527 -0.2287821730647633
atom 12.8729395604395620 20.5967032967032964 0.0000000000000000 Zr
    velocity 0.1962476694486824 -0.1225269788803297 0.1117486226761894
atom 18.0221153846153896 20.5967032967032964 0.0000000000000000 Zr
    velocity 0.0308962115874354 0.2835935606518603 0.0423020591352679
atom 23.1712912087912137 20.5967032967032964 0.0000000000000000 Zr
    velocity 0.3827257040035399 -0.2852600382794848 0.3420023631224962
atom 2.5745879120879125 0.0000000000000000 5.2777472527472540 Zr
    velocity 0.4294703303885029 -0.0229184328472857 0.6141379870382577
atom 7.7237637362637370 0.0000000000000000 5.2777472527472540 Zr
    velocity -0.5961593192799780 0.3659681943842445 -0.1684211059686269
atom 12.8729395604395620 0.0000000000000000 5.2777472527472540 Zr
    velocity 0.1087888805006719 -0.1472187321405794 -0.4254061330784303
atom 18.0221153846153896 0.0000000000000000 5.2777472527472540 Zr
    velocity 0.5579393992969836 -0.2846805806047323 0.0509413286276902
atom 23.1712912087912137 0.0000000000000000 5.2777472527472540 Zr
    velocity -0.0461291044537158 -0.0810684154607862 0.2275507534853361
atom 2.5745879120879125 5.1491758241758250 5.2777472527472540 Zr
    velocity 0.1304928519491919 0.1168093926289657 -0.0363752012211795
atom 7.7237637362637370 5.1491758241758250 5.2777472527472540 Zr
    velocity 0.0507847213815734 -0.2707864111531999 -0.1095258586229662
atom 12.8729395604395620 5.1491758241758250 5.2777472527472540 Zr
    velocity -0.1324209518571732 0.4696089125193587 0.0409219872201345
atom 18.0221153846153896 5.1491758241758250 5.2777472527472540 Zr
    velocity 0.2889295600426185 0.1747733139024202 -0.2519029314048835
atom 23.1712912087912137 5.1491758241758250 5.2777472527472540 Zr
    velocity 0.1502847906104212 -0.3180946621498287 -0.2843008919830475
atom 2.5745879120879125 10.2983516483516500 5.2777472527472540 Zr
    velocity -0.3000404115097224 -0.1943067838399623 -0.3099062859608310
atom 7.7237637362637370 10.2983516483516500 5.2777472527472540 Zr
    velocity -0.1194480808224841 0.0449800957761804 0.3605030688894160
atom 12.8729395604395620 10.2983516483516500 5.2777472527472540 Zr
    velocity 0.0172746346333775 -0.3747189753927682 0.0182309874604307
atom 18.0221153846153896 10.2983516483516500 5.2777472527472540 Zr
    velocity -0.2699823396916061 -0.2785219628113464 -0.0544850687029700
atom 23.1712912087912137 10.2983516483516500 5.2777472527472540 Zr
    velocity -0.0346120053146395 -0.2167437167187425 0.2559080506099076
atom 2.5745879120879125 15.4475274725274740 5.2777472527472540 Zr
    velocity 0.1030698932752896 -0.1949959187741367 -0.0660784497587400
atom 7.7237637362637370 15.4475274725274740 5.2777472527472540 Zr
    velocity 0.1489154337540205 0.0245236836822884 -0.4890677692736997
atom 12.8729395604395620 15.4475274725274740 5.2777472527472540 Zr
    velocity -0.0738445606635772 0.1045667340757774 -0.1483706463232458
atom 18.0221153846153896 15.4475274725274740 5.2777472527472540 Zr
    velocity -0.4201409863422720 0.3700253748447306 -0.0419872527888656
atom 23.1712912087912137 15.4475274725274740 5.2777472527472540 Zr
    velocity -0.4557622941973846 -0.0522418563451346 -0.2028929066015662
atom 2.5745879120879125 20.5967032967032964 5.2777472527472540 Zr
    velocity -0.5661821022838067 -0.3838785166560520 -0.2121356890099562
atom 7.7237637362637370 20.5967032967032964 5.2777472527472540 Zr
    velocity 0.1705039238794196 0.0568925648620505 0.0430047716281550
atom 12.8729395604395620 20.5967032967032964 5.2777472527472540 Zr
    velocity 0.1046199644164806 0.1315052474066434 -0.1832528730308860
atom 18.0221153846153896 20.5967032967032964 5.2777472527472540 Zr
    velocity 0.1024500703085166 0.4971016577573964 -0.2217917612984646
atom 23.1712912087912137 20.5967032967032964 5.2777472527472540 Zr
    velocity 0.4842062860135939 0.3078866463486704 0.3918431749075630
atom 2.5745879120879125 0.0000000000000000 10.5554945054945080 Zr
    velocity -0.0507885046638661 0.6004444181278733 -0.4041981862108679
atom 7.7237637362637370 0.0000000000000000 10.5554945054945080 Zr
    velocity -0.4396843085789652 -0.6992890512022645 0.4436657348547655
atom 12.8729395604395620 0.0000000000000000 10.5554945054945080 Zr
    velocity -0.3308651557617360 0.2330265454835103 -0.2513006326880406
atom 18.0221153846153896 0.0000000000000000 10.5554945054945080 Zr
    velocity 0.4350425740449689 -0.0165209606938160 0.2472429903502956
atom 23.1712912087912137 0.0000000000000000 10.5554945054945080 Zr
    velocity -0.2075656551261293 0.1226537057105414 -0.7501384366820599
atom 2.5745879120879125 5.1491758241758250 10.5554945054945080 Zr
    velocity -0.0205541550213656 -0.3902825733690907 0.4369586694772392
atom 7.7237637362637370 5.1491758241758250 10.5554945054945080 Zr
    velocity 0.1540350023968640 0.3850993751690451 -0.5937445560193982
atom 12.8729395604395620 5.1491758241758250 10.5554945054945080 Zr
    velocity -0.1017190079962621 -0.0439630694598134 0.1270848724064227
atom 18.0221153846153896 5.1491758241758250 10.5554945054945080 Zr
    velocity 0.2716248397383756 -0.0610121762508249 -0.0005217628854110
atom 23.1712912087912137 5.1491758241758250 10.5554945054945080 Zr
    velocity -0.0554086565385860 -0.0422928727939542 0.4928900586148054
atom 2.5745879120879125 10.2983516483516500 10.5554945054945080 Zr
    velocity -0.5538325842056088 0.0264027107429532 -0.2315710372810975
atom 7.7237637362637370 10.2983516483516500 10.5554945054945080 Zr
    velocity -0.5661543800719385 0.2768333224833126 -0.4115547103849384
atom 12.8729395604395620 10.2983516483516500 10.5554945054945080 Zr
    velocity -0.1653792338062437 0.1460600233155159 -0.3938403976762962
atom 18.0221153846153896 10.2983516483516500 10.5554945054945080 Zr
    velocity 0.1217320620783270 -0.0142926232001926 0.3376275984506129
atom 23.1712912087912137 10.2983516483516500 10.5554945054945080 Zr
    velocity -0.0734690085736897 0.1406337765439521 0.1664485366625750
atom 2.5745879120879125 15.4475274725274740 10.5554945054945080 Zr
    velocity -0.0871969163824299 0.4513973728818564 0.2669215052338360
atom 7.7237637362637370 15.4475274725274740 10.5554945054945080 Zr
    velocity -0.0263746913875691 -0.0351837090831465 0.0280785030461693
atom 12.8729395604395620 15.4475274725274740 10.5554945054945080 Zr
    velocity -0.5033481393307019 -0.4337005305970904 -0.0440816739437061
atom 18.0221153846153896 15.4475274725274740 10.5554945054945080 Zr
    velocity -0.2872978964639386 -0.2507776487428803 0.4454356008041426
atom 23.1712912087912137 15.4475274725274740 10.5554945054945080 Zr
    velocity -0.0711975997706225 0.1180735705939864 -0.3898160177319917
atom 2.5745879120879125 20.5967032967032964 10.5554945054945080 Zr
    velocity 0.2753004132589984 0.4527089954796515 0.4236140255316834
atom 7.7237637362637370 20.5967032967032964 10.5554945054945080 Zr
    velocity -0.0991442103669710 -0.1452272092467928 0.1619918196957582
atom 12.8729395604395620 20.5967032967032964 10.5554945054945080 Zr
    velocity -0.1972838362058809 -0.5054883484428156 0.1007153410721559
atom 18.0221153846153896 20.5967032967032964 10.5554945054945080 Zr
    velocity -0.1104887340664037 -0.1831295356041929 0.2160642508436489
atom 23.1712912087912137 20.5967032967032964 10.5554945054945080 Zr
    velocity -0.3046982255996155 0.2613858225515267 0.3806232281817085
atom 2.5745879120879125 0.0000000000000000 15.8332417582417619 Zr
    velocity 0.3643434593361339 0.0497180619869311 -0.4240513786590151
atom 7.7237637362637370 0.0000000000000000 15.8332417582417619 Zr
    velocity -0.2450989021474310 -0.1097058172463417 0.0900610628523366
atom 12.8729395604395620 0.0000000000000000 15.8332417582417619 Zr
    velocity 0.3178379626860456 0.5009204907544701 -0.1270397280995922
atom 18.0221153846153896 0.0000000000000000 15.8332417582417619 Zr
    velocity -0.2854213057878002 -0.1051569135209062 -0.5432287176286819
atom 23.1712912087912137 0.0000000000000000 15.8332417582417619 Zr
    velocity 0.0889986381345629 -0.0241810537416922 0.4063119448072967
atom 2.5745879120879125 5.1491758241758250 15.8332417582417619 Zr
    velocity -0.0130740621611184 -0.1897116963916543 -0.0635242157360771
atom 7.7237637362637370 5.1491758241758250 15.8332417582417619 Zr
    velocity 0.1209501929882674 -0.0599464311508235 -0.0412439572827839
atom 12.8729395604395620 5.1491758241758250 15.8332417582417619 Zr
    velocity 0.3627826883505893 -0.1955295410150766 0.4121895214041112
atom 18.0221153846153896 5.1491758241758250 15.8332417582417619 Zr
    velocity -0.0608657976497576 0.2137348230531954 -0.1643997197765734
atom 23.1712912087912137 5.1491758241758250 15.8332417582417619 Zr
    velocity -0.4423627838763307 0.0756455976590600 0.3285940603402527
atom 2.5745879120879125 10.2983516483516500 15.8332417582417619 Zr
    velocity -0.2227665871986224 -0.0076118195493232 -0.1239991750685006
atom 7.7237637362637370 10.2983516483516500 15.8332417582417619 Zr
    velocity 0.0484514947309345 -0.4802914211656602 -0.0751397373598180
atom 12.8729395604395620 10.2983516483516500 15.8332417582417619 Zr
    velocity -0.0111078450459953 -0.1066076475899193 -0.0834158761356354
atom 18.0221153846153896 10.2983516483516500 15.8332417582417619 Zr
    velocity 0.3279365405374778 0.0651669438555816 -0.0727827455250727
atom 23.1712912087912137 10.2983516483516500 15.8332417582417619 Zr
    velocity 0.1434140503803522 -0.2649881185522067 0.3348438770266112
atom 2.5745879120879125 15.4475274725274740 15.8332417582417619 Zr
    velocity 0.2747059893222188 -0.2661708783876445 0.2260889568835523
atom 7.7237637362637370 15.4475274725274740 15.8332417582417619 Zr
    velocity -0.1880702615068664 -0.2691942334427585 -0.1776501963572498
atom 12.8729395604395620 15.4475274725274740 15.8332417582417619 Zr
    velocity 0.5131391378823100 0.1452451197623714 -0.2908072102967275
atom 18.0221153846153896 15.4475274725274740 15.8332417582417619 Zr
    velocity -0.5067587905054639 0.6973709698785271 0.5289504869074249
atom 23.1712912087912137 15.4475274725274740 15.8332417582417619 Zr
    velocity 0.2879974618885117 -0.1966489684082686 -0.2661183939308461
atom 2.5745879120879125 20.5967032967032964 15.8332417582417619 Zr
    velocity 0.3130446983207298 0.3710281867253286 -0.1617153465690875
atom 7.7237637362637370 20.5967032967032964 15.8332417582417619 Zr
    velocity -0.1962301612661141 -0.0991256996223760 -0.0810562367928617
atom 12.8729395604395620 20.5967032967032964 15.8332417582417619 Zr
    velocity 0.0382666425187395 -0.5263366570197560 -0.2482514197086517
atom 18.0221153846153896 20.5967032967032964 15.8332417582417619 Zr
    velocity -0.1424928716223104 0.4301804480610317 -0.4438951175725913
atom 23.1712912087912137 20.5967032967032964 15.8332417582417619 Zr
    velocity 0.7212682577632077 -0.1149660179563881 0.0199169558802592
atom 2.5745879120879125 0.0000000000000000 21.1109890109890159 Zr
    velocity 0.2253612959568661 -0.1339329743355842 -0.9458837977567679
atom 7.7237637362637370 0.0000000000000000 21.1109890109890159 Zr
    velocity -0.2900568412734805 0.1577966009859128 -0.0465184193933417
atom 12.8729395604395620 0.0000000000000000 21.1109890109890159 Zr
    velocity 0.2103413774424164 -0.1263272996374860 0.2109767221380531
atom 18.0221153846153896 0.0000000000000000 21.1109890109890159 Zr
    velocity -0.0671484988838414 0.0335202591291508 0.1909126504713743
atom 23.1712912087912137 0.0000000000000000 21.1109890109890159 Zr
    velocity 0.0594769895730839 0.0927742764473394 0.0665605316278084
atom 2.5745879120879125 5.1491758241758250 21.1109890109890159 Zr
    velocity 0.4044294908635209 -0.4162689711441063 0.2256968657355889
atom 7.7237637362637370 5.1491758241758250 21.1109890109890159 Zr
    velocity -0.0909267662096169 -0.0313010882118599 0.0781826676920925
atom 12.8729395604395620 5.1491758241758250 21.1109890109890159 Zr
    velocity 0.0059078066620826 0.4331968866323542 -0.0910273450170543
atom 18.0221153846153896 5.1491758241758250 21.1109890109890159 Zr
    velocity -0.0084814395023842 0.1930422550525145 -0.2297096824272691
atom 23.1712912087912137 5.1491758241758250 21.1109890109890159 Zr
    velocity -0.3826441486272986 -0.4313668521831060 0.4427219448173452
atom 2.5745879120879125 10.2983516483516500 21.1109890109890159 Zr
    velocity -0.1823286743386859 -0.0828662420125502 -0.1998527658335564
atom 7.7237637362637370 10.2983516483516500 21.1109890109890159 Zr
    velocity 0.0662325769857463 -0.0478418605632563 -0.0422233659380232
atom 12.8729395604395620 10.2983516483516500 21.1109890109890159 Zr
    velocity -0.1081036157291349 -0.1249201236299608 0.3395428925767273
atom 18.0221153846153896 10.2983516483516500 21.1109890109890159 Zr
    velocity -0.0597786852704925 -0.4673877725071983 -0.0486202402618378
atom 23.1712912087912137 10.2983516483516500 21.1109890109890159 Zr
    velocity 0.4358194942953938 -0.0286236083288297 0.0076973613953724
atom 2.5745879120879125 15.4475274725274740 21.1109890109890159 Zr
    velocity -0.0843545805471379 -0.2555353240044558 0.0774146831225156
atom 7.7237637362637370 15.4475274725274740 21.1109890109890159 Zr
    velocity 0.0245987012191430 -0.0716225993215004 0.0718294142163571
atom 12.8729395604395620 15.4475274725274740 21.1109890109890159 Zr
    velocity 0.3133412952499895 0.1148963491949715 -0.1276836590296132
atom 18.0221153846153896 15.4475274725274740 21.1109890109890159 Zr
    velocity 0.5739664672001696 -0.2272425077526145 0.4341659513779926
atom 23.1712912087912137 15.4475274725274740 21.1109890109890159 Zr
    velocity -0.3167926660140078 0.2282319465244859 0.1558549260243563
atom 2.5745879120879125 20.5967032967032964 21.1109890109890159 Zr
    velocity 0.1994429814095663 -0.2132725003002977 0.0397780234422601
atom 7.7237637362637370 20.5967032967032964 21.1109890109890159 Zr
    velocity 0.4133378198999671 0.2992585462114123 -0.4616830404266469
atom 12.8729395604395620 20.5967032967032964 21.1109890109890159 Zr
    velocity 0.0568340988883808 0.0433217927474180 0.1371931077499238
atom 18.0221153846153896 20.5967032967032964 21.1109890109890159 Zr
    velocity 0.3126426373443021 -0.4287122710276001 0.3447730995571360
atom 23.1712912087912137 20.5967032967032964 21.1109890109890159 Zr
    velocity 0.1997109141452617 -0.0889224564019038 -0.1941601258420694
atom 0.0000000000000000 2.5745879120879125 0.0000000000000000 Zr
    velocity 0.5120979852585974 0.1382185098732631 -0.6274401163118479
atom 5.1491758241758250 2.5745879120879125 0.0000000000000000 Zr
    velocity -0.1959054228361594 0.1932110751661729 0.1775327226317860
atom 10.2983516483516500 2.5745879120879125 0.0000000000000000 Zr
    velocity 0.3808146937460417 -0.3869008837429194 0.3841080771308463
atom 15.4475274725274740 2.5745879120879125 0.0000000000000000 Zr
    velocity 0.3314430351318807 -0.0128448828140944 0.3624065182104766
atom 20.5967032967032964 2.5745879120879125 0.0000000000000000 Zr
    velocity 0.1071395592460168 0.0603290397902741 -0.4116516345443954
atom 0.0000000000000000 7.7237637362637370 0.0000000000000000 Zr
    velocity 0.4985771336004696 -0.1829306367988778 0.1266027280979482
atom 5.1491758241758250 7.7237637362637370 0.0000000000000000 Zr
    velocity -0.3215167555848571 -0.1494997986518362 0.1019506435613631
atom 10.2983516483516500 7.7237637362637370 0.0000000000000000 Zr
    velocity -0.0813393772918971 0.2150873964547943 0.1672607986754820
atom 15.4475274725274740 7.7237637362637370 0.0000000000000000 Zr
    velocity 0.1483935387159464 0.1539484374017269 -0.5206744051264551
atom 20.5967032967032964 7.7237637362637370 0.0000000000000000 Zr
    velocity -0.2909538776466020 0.1140705761279101 -0.0432741091791008
atom 0.0000000000000000 12.8729395604395620 0.0000000000000000 Zr
    velocity 0.1018089785377379 -0.6266798000220238 -0.6221705267365232
atom 5.1491758241758250 12.8729395604395620 0.0000000000000000 Zr
    velocity 0.2741887044263132 0.0122552700497661 0.2126112804759963
atom 10.2983516483516500 12.8729395604395620 0.0000000000000000 Zr
    velocity 0.5769165708466875 -0.3056389537346105 0.1120502301303107
atom 15.4475274725274740 12.8729395604395620 0.0000000000000000 Zr
    velocity 0.0592813213677789 0.3617145353775247 0.5358520284885420
atom 20.5967032967032964 12.8729395604395620 0.0000000000000000 Zr
    velocity -0.3973082847317902 0.2802989048589487 -0.1017447037273717
atom 0.0000000000000000 18.0221153846153896 0.0000000000000000 Zr
    velocity 0.2460536789129980 -0.2748342737378716 0.6522833915097719
atom 5.1491758241758250 18.0221153846153896 0.0000000000000000 Zr
    velocity -0.5960970169704733 0.3690609355744227 -0.4765953688547668
atom 10.2983516483516500 18.0221153846153896 0.0000000000000000 Zr
    velocity 0.0834268063014844 0.6585941845454504 -0.0714079558530859
atom 15.4475274725274740 18.0221153846153896 0.0000000000000000 Zr
    velocity -0.1689614800309169 0.5147942456191240 -0.4480924354589319
atom 20.5967032967032964 18.0221153846153896 0.0000000000000000 Zr
    velocity 0.4366278524946128 -0.1207790258225333 -0.0710040143807883
atom 0.0000000000000000 23.1712912087912137 0.0000000000000000 Zr
    velocity 0.0562352926120531 0.3019098250434468 -0.5076707415324421
atom 5.1491758241758250 23.1712912087912137 0.0000000000000000 Zr
    velocity -0.2000459379809421 -0.1992786852726901 -0.0311545875168158
atom 10.2983516483516500 23.1712912087912137 0.0000000000000000 Zr
    velocity -0.0204731469326439 0.5838662215040051 -0.0938246121401141
atom 15.4475274725274740 23.1712912087912137 0.0000000000000000 Zr
    velocity 0.4811772471114741 -0.1253846685079845 0.6705003361420997
atom 20.5967032967032964 23.1712912087912137 0.0000000000000000 Zr
    velocity 0.2548183734282815 -0.2953148988099952 0.0835114923852127
atom 0.0000000000000000 2.5745879120879125 5.2777472527472540 Zr
    velocity 0.1413422092207152 0.0559747901043837 -0.0499790289494757
atom 5.1491758241758250 2.5745879120879125 5.2777472527472540 Zr
    velocity -0.1039277871803376 0.0553559206556152 0.1589577888431168
atom 10.2983516483516500 2.5745879120879125 5.2777472527472540 Zr
    velocity 0.4761566846191647 -0.3745149959576964 0.5169229339609777
atom 15.4475274725274740 2.5745879120879125 5.2777472527472540 Zr
    velocity 0.1273983842442423 0.0645927188722567 -0.2696151733332739
atom 20.5967032967032964 2.5745879120879125 5.2777472527472540 Zr
    velocity 0.4984993703251853 -0.1928943046553316 -0.0665083104788566
atom 0.0000000000000000 7.7237637362637370 5.2777472527472540 Zr
    velocity 0.1878928975175305 -0.0486076922430942 0.4196920280132813
atom 5.1491758241758250 7.7237637362637370 5.2777472527472540 Zr
    velocity -0.3884210639184831 0.3547601742757913 0.2292777660661187
atom 10.2983516483516500 7.7237637362637370 5.2777472527472540 Zr
    velocity -0.0212596908976475 -0.3677757230664787 -0.2235484564744136
atom 15.4475274725274740 7.7237637362637370 5.2777472527472540 Zr
    velocity -0.2999941621741882 -0.2989473156918918 -0.4218942511000877
atom 20.5967032967032964 7.7237637362637370 5.2777472527472540 Zr
    velocity 0.2817335996332817 0.4358410480371739 0.1576950452418517
atom 0.0000000000000000 12.8729395604395620 5.2777472527472540 Zr
    velocity 0.3328982428419310 -0.4801973989491732 -0.8727037088173393
atom 5.1491758241758250 12.8729395604395620 5.2777472527472540 Zr
    velocity -0.0265699343141990 0.0523052767231656 0.3855514463059148
atom 10.2983516483516500 12.8729395604395620 5.2777472527472540 Zr
    velocity -0.1449012956603114 0.2234179505847864 -0.2223054055650945
atom 15.4475274725274740 12.8729395604395620 5.2777472527472540 Zr
    velocity -0.2175628185412116 0.3997015709194707 0.1859782348793921
atom 20.5967032967032964 12.8729395604395620 5.2777472527472540 Zr
    velocity 0.1969522122297905 0.0507376389349861 0.2703370825030098
atom 0.0000000000000000 18.0221153846153896 5.2777472527472540 Zr
    velocity 0.1746051073669921 0.0211829607645201 -0.1594098451392884
atom 5.1491758241758250 18.0221153846153896 5.2777472527472540 Zr
    velocity 0.3117449934130705 0.1704664823445700 0.3794334620163360
atom 10.2983516483516500 18.0221153846153896 5.2777472527472540 Zr
    velocity 0.1782454632949491 0.2192878280250284 -0.1157511895471085
atom 15.4475274725274740 18.0221153846153896 5.2777472527472540 Zr
    velocity -0.2959192800430802 0.1531146673494944 -0.0107658254955105
atom 20.5967032967032964 18.0221153846153896 5.2777472527472540 Zr
    velocity 0.0022821679125296 0.2074642020550717 0.0220485565941949
atom 0.0000000000000000 23.1712912087912137 5.2777472527472540 Zr
    velocity -0.6002743642144028 -0.3213480098080302 0.0323503637997343
atom 5.1491758241758250 23.1712912087912137 5.2777472527472540 Zr
    velocity -0.0766774203763959 -0.6801860990404126 -0.1391656840321413
atom 10.2983516483516500 23.1712912087912137 5.2777472527472540 Zr
    velocity 0.3711514565645606 0.0795838442232228 -0.2970409980968949
atom 15.4475274725274740 23.1712912087912137 5.2777472527472540 Zr
    velocity 0.2189462104843503 0.3624971032020298 -0.2728188703259412
atom 20.5967032967032964 23.1712912087912137 5.2777472527472540 Zr
    velocity -0.0125597214045062 -0.5492948965306373 0.0300869003304039
atom 0.0000000000000000 2.5745879120879125 10.5554945054945080 Zr
    velocity -0.0850924687965528 0.1348275327449520 -0.5439420790964735
atom 5.1491758241758250 2.5745879120879125 10.5554945054945080 Zr
    velocity -0.1269736577136496 -0.4676920211220462 -0.2431556596860514
atom 10.2983516483516500 2.5745879120879125 10.5554945054945080 Zr
    velocity 0.5231148539848991 0.2986997103348636 -0.2835746894324158
atom 15.4475274725274740 2.5745879120879125 10.5554945054945080 Zr
    velocity 0.2241926808348292 0.3641497734920299 -0.4176254273925849
atom 20.5967032967032964 2.5745879120879125 10.5554945054945080 Zr
    velocity 0.4558913406624816 0.2170752256992443 0.1884926135253532
atom 0.0000000000000000 7.7237637362637370 10.5554945054945080 Zr
    velocity -0.1818947949231904 0.0078678502288583 -0.1973819869057719
atom 5.1491758241758250 7.7237637362637370 10.5554945054945080 Zr
    velocity 0.6187581743197674 0.6573461832990641 -0.2964463569753285
atom 10.2983516483516500 7.7237637362637370 10.5554945054945080 Zr
    velocity -0.0331746406663213 0.1954430256622186 0.2611044281402294
atom 15.4475274725274740 7.7237637362637370 10.5554945054945080 Zr
    velocity -0.6581226467297853 -0.0132630319199645 -0.4905380497494295
atom 20.5967032967032964 7.7237637362637370 10.5554945054945080 Zr
    velocity -0.2202072899903531 0.3085471909761482 -0.2325643754365973
atom 0.0000000000000000 12.8729395604395620 10.5554945054945080 Zr
    velocity -0.1190765076957732 0.0305496871348334 0.3062080728683160
atom 5.1491758241758250 12.8729395604395620 10.5554945054945080 Zr
    velocity -0.1362675184933421 -0.0451199476125920 0.0560643234330883
atom 10.2983516483516500 12.8729395604395620 10.5554945054945080 Zr
    velocity 0.0877292607564807 0.3110873328173863 -0.2337769903370217
atom 15.4475274725274740 12.8729395604395620 10.5554945054945080 Zr
    velocity -0.3518754031024456 -0.1728167435761098 0.2563690979875122
atom 20.5967032967032964 12.8729395604395620 10.5554945054945080 Zr
    velocity -0.2930024330276303 0.3005097482998926 0.4643446618009249
atom 0.0000000000000000 18.0221153846153896 10.5554945054945080 Zr
    velocity -0.1426992414834938 -0.2892068416596622 0.0870200861977457
atom 5.1491758241758250 18.0221153846153896 10.5554945054945080 Zr
    velocity 0.0729774433805177 -0.2267170919820683 0.1320579158040210
atom 10.2983516483516500 18.0221153846153896 10.5554945054945080 Zr
    velocity 0.0846000985138153 -0.3783958713867351 -0.2297980675905780
atom 15.4475274725274740 18.0221153846153896 10.5554945054945080 Zr
    velocity 0.0471234582229927 0.1800986033911008 -0.3582265931789574
atom 20.5967032967032964 18.0221153846153896 10.5554945054945080 Zr
    velocity 0.1378884554005752 0.3354882470852150 -0.1960193786019450
atom 0.0000000000000000 23.1712912087912137 10.5554945054945080 Zr
    velocity 0.2302054053969295 0.2527915501531376 0.4702390756185139
atom 5.1491758241758250 23.1712912087912137 10.5554945054945080 Zr
    velocity -0.2083204832352986 -0.3988284822751954 0.0552243780770472
atom 10.2983516483516500 23.1712912087912137 10.5554945054945080 Zr
    velocity 0.3899943028800480 0.3884355402395668 -0.3636707496429554
atom 15.4475274725274740 23.1712912087912137 10.5554945054945080 Zr
    velocity -0.0615768020241578 0.5283210368623112 -0.6540522581156315
atom 20.5967032967032964 23.1712912087912137 10.5554945054945080 Zr
    velocity -0.5255381546402749 -0.2747492979033848 0.0042523346360269
atom 0.0000000000000000 2.5745879120879125 15.8332417582417619 Zr
    velocity 0.1825117512276644 0.2764760590728220 -0.2167796263339855
atom 5.1491758241758250 2.5745879120879125 15.8332417582417619 Zr
    velocity 0.2179307780064443 0.6160624821076239 0.3691356350542799
atom 10.2983516483516500 2.5745879120879125 15.8332417582417619 Zr
    velocity -0.4930319017030416 0.1726140782142166 -0.0730244924376103
atom 15.4475274725274740 2.5745879120879125 15.8332417582417619 Zr
    velocity -0.3226765610448696 -0.1775225323625353 0.4437653729213293
atom 20.5967032967032964 2.5745879120879125 15.8332417582417619 Zr
    velocity 0.2049665133100056 0.3002810236036831 -0.0101313814130961
atom 0.0000000000000000 7.7237637362637370 15.8332417582417619 Zr
    velocity 0.0943514569666532 -0.0778133988574589 0.4191816698390980
atom 5.1491758241758250 7.7237637362637370 15.8332417582417619 Zr
    velocity -0.2950882852558347 0.0400160198476429 0.1162322103356996
atom 10.2983516483516500 7.7237637362637370 15.8332417582417619 Zr
    velocity 0.2717354681629044 -0.2840234527000327 -0.0192946489480304
atom 15.4475274725274740 7.7237637362637370 15.8332417582417619 Zr
    velocity 0.0242489784003037 -0.0811990009956431 0.4253423421551862
atom 20.5967032967032964 7.7237637362637370 15.8332417582417619 Zr
    velocity -0.1283849342418972 0.3635334119220228 0.3115963466324353
atom 0.0000000000000000 12.8729395604395620 15.8332417582417619 Zr
    velocity -0.4510946377410969 0.1477538152740173 -0.2972295698831426
atom 5.1491758241758250 12.8729395604395620 15.8332417582417619 Zr