#=======================================================
# FHI-aims file: 1400_geometry.in.primitive.supercell_4116
# Created using the Atomic Simulation Environment (ASE)
# Wed Jan 11 12:37:50 2023

# Additional information:
#  Number of atoms:     4116
#  Spacegroup:          137
#  supercell:           True
#  supercell_matrix:    [7, 0, 0, 0, 7, 0, 0, 0, 7]
#  Supercell matrix:    [7 0 0 0 7 0 0 0 7]
#=======================================================
lattice_vector 36.0442307692307722 0.0000000000000000 0.0000000000000000 
lattice_vector 0.0000000000000000 36.0442307692307722 0.0000000000000000 
lattice_vector 0.0000000000000000 0.0000000000000000 36.9442307692307708 
atom_frac 0.0714285714285714 0.0000000000000000 0.0000000000000000 Zr
atom_frac 0.2142857142857143 0.0000000000000000 0.0000000000000000 Zr
atom_frac 0.3571428571428572 0.0000000000000000 0.0000000000000000 Zr
atom_frac 0.5000000000000000 0.0000000000000000 0.0000000000000000 Zr
atom_frac 0.6428571428571428 0.0000000000000000 0.0000000000000000 Zr
atom_frac 0.7857142857142857 0.0000000000000000 0.0000000000000000 Zr
atom_frac 0.9285714285714286 0.0000000000000000 0.0000000000000000 Zr
atom_frac 0.0714285714285714 0.1428571428571428 0.0000000000000000 Zr
atom_frac 0.2142857142857143 0.1428571428571428 0.0000000000000000 Zr
atom_frac 0.3571428571428572 0.1428571428571428 0.0000000000000000 Zr
atom_frac 0.5000000000000000 0.1428571428571428 0.0000000000000000 Zr
atom_frac 0.6428571428571428 0.1428571428571428 0.0000000000000000 Zr
atom_frac 0.7857142857142857 0.1428571428571428 0.0000000000000000 Zr
atom_frac 0.9285714285714286 0.1428571428571428 0.0000000000000000 Zr
atom_frac 0.0714285714285714 0.2857142857142857 0.0000000000000000 Zr
atom_frac 0.2142857142857143 0.2857142857142857 0.0000000000000000 Zr
atom_frac 0.3571428571428572 0.2857142857142857 0.0000000000000000 Zr
atom_frac 0.5000000000000000 0.2857142857142857 0.0000000000000000 Zr
atom_frac 0.6428571428571428 0.2857142857142857 0.0000000000000000 Zr
atom_frac 0.7857142857142857 0.2857142857142857 0.0000000000000000 Zr
atom_frac 0.9285714285714286 0.2857142857142857 0.0000000000000000 Zr
atom_frac 0.0714285714285714 0.4285714285714285 0.0000000000000000 Zr
atom_frac 0.2142857142857143 0.4285714285714285 0.0000000000000000 Zr
atom_frac 0.3571428571428572 0.4285714285714285 0.0000000000000000 Zr
atom_frac 0.5000000000000000 0.4285714285714285 0.0000000000000000 Zr
atom_frac 0.6428571428571428 0.4285714285714285 0.0000000000000000 Zr
atom_frac 0.7857142857142857 0.4285714285714285 0.0000000000000000 Zr
atom_frac 0.9285714285714286 0.4285714285714285 0.0000000000000000 Zr
atom_frac 0.0714285714285714 0.5714285714285714 0.0000000000000000 Zr
atom_frac 0.2142857142857143 0.5714285714285714 0.0000000000000000 Zr
atom_frac 0.3571428571428572 0.5714285714285714 0.0000000000000000 Zr
atom_frac 0.5000000000000000 0.5714285714285714 0.0000000000000000 Zr
atom_frac 0.6428571428571428 0.5714285714285714 0.0000000000000000 Zr
atom_frac 0.7857142857142857 0.5714285714285714 0.0000000000000000 Zr
atom_frac 0.9285714285714286 0.5714285714285714 0.0000000000000000 Zr
atom_frac 0.0714285714285714 0.7142857142857143 0.0000000000000000 Zr
atom_frac 0.2142857142857143 0.7142857142857143 0.0000000000000000 Zr
atom_frac 0.3571428571428572 0.7142857142857143 0.0000000000000000 Zr
atom_frac 0.5000000000000000 0.7142857142857143 0.0000000000000000 Zr
atom_frac 0.6428571428571428 0.7142857142857143 0.0000000000000000 Zr
atom_frac 0.7857142857142857 0.7142857142857143 0.0000000000000000 Zr
atom_frac 0.9285714285714286 0.7142857142857143 0.0000000000000000 Zr
atom_frac 0.0714285714285714 0.8571428571428571 0.0000000000000000 Zr
atom_frac 0.2142857142857143 0.8571428571428571 0.0000000000000000 Zr
atom_frac 0.3571428571428572 0.8571428571428571 0.0000000000000000 Zr
atom_frac 0.5000000000000000 0.8571428571428571 0.0000000000000000 Zr
atom_frac 0.6428571428571428 0.8571428571428571 0.0000000000000000 Zr
atom_frac 0.7857142857142857 0.8571428571428571 0.0000000000000000 Zr
atom_frac 0.9285714285714286 0.8571428571428571 0.0000000000000000 Zr
atom_frac 0.0714285714285714 0.0000000000000000 0.1428571428571428 Zr
atom_frac 0.2142857142857143 0.0000000000000000 0.1428571428571428 Zr
atom_frac 0.3571428571428572 0.0000000000000000 0.1428571428571428 Zr
atom_frac 0.5000000000000000 0.0000000000000000 0.1428571428571428 Zr
atom_frac 0.6428571428571428 0.0000000000000000 0.1428571428571428 Zr
atom_frac 0.7857142857142857 0.0000000000000000 0.1428571428571428 Zr
atom_frac 0.9285714285714286 0.0000000000000000 0.1428571428571428 Zr
atom_frac 0.0714285714285714 0.1428571428571428 0.1428571428571428 Zr
atom_frac 0.2142857142857143 0.1428571428571428 0.1428571428571428 Zr
atom_frac 0.3571428571428572 0.1428571428571428 0.1428571428571428 Zr
atom_frac 0.5000000000000000 0.1428571428571428 0.1428571428571428 Zr
atom_frac 0.6428571428571428 0.1428571428571428 0.1428571428571428 Zr
atom_frac 0.7857142857142857 0.1428571428571428 0.1428571428571428 Zr
atom_frac 0.9285714285714286 0.1428571428571428 0.1428571428571428 Zr
atom_frac 0.0714285714285714 0.2857142857142857 0.1428571428571428 Zr
atom_frac 0.2142857142857143 0.2857142857142857 0.1428571428571428 Zr
atom_frac 0.3571428571428572 0.2857142857142857 0.1428571428571428 Zr
atom_frac 0.5000000000000000 0.2857142857142857 0.1428571428571428 Zr
atom_frac 0.6428571428571428 0.2857142857142857 0.1428571428571428 Zr
atom_frac 0.7857142857142857 0.2857142857142857 0.1428571428571428 Zr
atom_frac 0.9285714285714286 0.2857142857142857 0.1428571428571428 Zr
atom_frac 0.0714285714285714 0.4285714285714285 0.1428571428571428 Zr
atom_frac 0.2142857142857143 0.4285714285714285 0.1428571428571428 Zr
atom_frac 0.3571428571428572 0.4285714285714285 0.1428571428571428 Zr
atom_frac 0.5000000000000000 0.4285714285714285 0.1428571428571428 Zr
atom_frac 0.6428571428571428 0.4285714285714285 0.1428571428571428 Zr
atom_frac 0.7857142857142857 0.4285714285714285 0.1428571428571428 Zr
atom_frac 0.9285714285714286 0.4285714285714285 0.1428571428571428 Zr
atom_frac 0.0714285714285714 0.5714285714285714 0.1428571428571428 Zr
atom_frac 0.2142857142857143 0.5714285714285714 0.1428571428571428 Zr
atom_frac 0.3571428571428572 0.5714285714285714 0.1428571428571428 Zr
atom_frac 0.5000000000000000 0.5714285714285714 0.1428571428571428 Zr
atom_frac 0.6428571428571428 0.5714285714285714 0.1428571428571428 Zr
atom_frac 0.7857142857142857 0.5714285714285714 0.1428571428571428 Zr
atom_frac 0.9285714285714286 0.5714285714285714 0.1428571428571428 Zr
atom_frac 0.0714285714285714 0.7142857142857143 0.1428571428571428 Zr
atom_frac 0.2142857142857143 0.7142857142857143 0.1428571428571428 Zr
atom_frac 0.3571428571428572 0.7142857142857143 0.1428571428571428 Zr
atom_frac 0.5000000000000000 0.7142857142857143 0.1428571428571428 Zr
atom_frac 0.6428571428571428 0.7142857142857143 0.1428571428571428 Zr
atom_frac 0.7857142857142857 0.7142857142857143 0.1428571428571428 Zr
atom_frac 0.9285714285714286 0.7142857142857143 0.1428571428571428 Zr
atom_frac 0.0714285714285714 0.8571428571428571 0.1428571428571428 Zr
atom_frac 0.2142857142857143 0.8571428571428571 0.1428571428571428 Zr
atom_frac 0.3571428571428572 0.8571428571428571 0.1428571428571428 Zr
atom_frac 0.5000000000000000 0.8571428571428571 0.1428571428571428 Zr
atom_frac 0.6428571428571428 0.8571428571428571 0.1428571428571428 Zr
atom_frac 0.7857142857142857 0.8571428571428571 0.1428571428571428 Zr
atom_frac 0.9285714285714286 0.8571428571428571 0.1428571428571428 Zr
atom_frac 0.0714285714285714 0.0000000000000000 0.2857142857142857 Zr
atom_frac 0.2142857142857143 0.0000000000000000 0.2857142857142857 Zr
atom_frac 0.3571428571428572 0.0000000000000000 0.2857142857142857 Zr
atom_frac 0.5000000000000000 0.0000000000000000 0.2857142857142857 Zr
atom_frac 0.6428571428571428 0.0000000000000000 0.2857142857142857 Zr
atom_frac 0.7857142857142857 0.0000000000000000 0.2857142857142857 Zr
atom_frac 0.9285714285714286 0.0000000000000000 0.2857142857142857 Zr
atom_frac 0.0714285714285714 0.1428571428571428 0.2857142857142857 Zr
atom_frac 0.2142857142857143 0.1428571428571428 0.2857142857142857 Zr
atom_frac 0.3571428571428572 0.1428571428571428 0.2857142857142857 Zr
atom_frac 0.5000000000000000 0.1428571428571428 0.2857142857142857 Zr
atom_frac 0.6428571428571428 0.1428571428571428 0.2857142857142857 Zr
atom_frac 0.7857142857142857 0.1428571428571428 0.2857142857142857 Zr
atom_frac 0.9285714285714286 0.1428571428571428 0.2857142857142857 Zr
atom_frac 0.0714285714285714 0.2857142857142857 0.2857142857142857 Zr
atom_frac 0.2142857142857143 0.2857142857142857 0.2857142857142857 Zr
atom_frac 0.3571428571428572 0.2857142857142857 0.2857142857142857 Zr
atom_frac 0.5000000000000000 0.2857142857142857 0.2857142857142857 Zr
atom_frac 0.6428571428571428 0.2857142857142857 0.2857142857142857 Zr
atom_frac 0.7857142857142857 0.2857142857142857 0.2857142857142857 Zr
atom_frac 0.9285714285714286 0.2857142857142857 0.2857142857142857 Zr
atom_frac 0.0714285714285714 0.4285714285714285 0.2857142857142857 Zr
atom_frac 0.2142857142857143 0.4285714285714285 0.2857142857142857 Zr
atom_frac 0.3571428571428572 0.4285714285714285 0.2857142857142857 Zr
atom_frac 0.5000000000000000 0.4285714285714285 0.2857142857142857 Zr
atom_frac 0.6428571428571428 0.4285714285714285 0.2857142857142857 Zr
atom_frac 0.7857142857142857 0.4285714285714285 0.2857142857142857 Zr
atom_frac 0.9285714285714286 0.4285714285714285 0.2857142857142857 Zr
atom_frac 0.0714285714285714 0.5714285714285714 0.2857142857142857 Zr
atom_frac 0.2142857142857143 0.5714285714285714 0.2857142857142857 Zr
atom_frac 0.3571428571428572 0.5714285714285714 0.2857142857142857 Zr
atom_frac 0.5000000000000000 0.5714285714285714 0.2857142857142857 Zr
atom_frac 0.6428571428571428 0.5714285714285714 0.2857142857142857 Zr
atom_frac 0.7857142857142857 0.5714285714285714 0.2857142857142857 Zr
atom_frac 0.9285714285714286 0.5714285714285714 0.2857142857142857 Zr
atom_frac 0.0714285714285714 0.7142857142857143 0.2857142857142857 Zr
atom_frac 0.2142857142857143 0.7142857142857143 0.2857142857142857 Zr
atom_frac 0.3571428571428572 0.7142857142857143 0.2857142857142857 Zr
atom_frac 0.5000000000000000 0.7142857142857143 0.2857142857142857 Zr
atom_frac 0.6428571428571428 0.7142857142857143 0.2857142857142857 Zr
atom_frac 0.7857142857142857 0.7142857142857143 0.2857142857142857 Zr
atom_frac 0.9285714285714286 0.7142857142857143 0.2857142857142857 Zr
atom_frac 0.0714285714285714 0.8571428571428571 0.2857142857142857 Zr
atom_frac 0.2142857142857143 0.8571428571428571 0.2857142857142857 Zr
atom_frac 0.3571428571428572 0.8571428571428571 0.2857142857142857 Zr
atom_frac 0.5000000000000000 0.8571428571428571 0.2857142857142857 Zr
atom_frac 0.6428571428571428 0.8571428571428571 0.2857142857142857 Zr
atom_frac 0.7857142857142857 0.8571428571428571 0.2857142857142857 Zr
atom_frac 0.9285714285714286 0.8571428571428571 0.2857142857142857 Zr
atom_frac 0.0714285714285714 0.0000000000000000 0.4285714285714285 Zr
atom_frac 0.2142857142857143 0.0000000000000000 0.4285714285714285 Zr
atom_frac 0.3571428571428572 0.0000000000000000 0.4285714285714285 Zr
atom_frac 0.5000000000000000 0.0000000000000000 0.4285714285714285 Zr
atom_frac 0.6428571428571428 0.0000000000000000 0.4285714285714285 Zr
atom_frac 0.7857142857142857 0.0000000000000000 0.4285714285714285 Zr
atom_frac 0.9285714285714286 0.0000000000000000 0.4285714285714285 Zr
atom_frac 0.0714285714285714 0.1428571428571428 0.4285714285714285 Zr
atom_frac 0.2142857142857143 0.1428571428571428 0.4285714285714285 Zr
atom_frac 0.3571428571428572 0.1428571428571428 0.4285714285714285 Zr
atom_frac 0.5000000000000000 0.1428571428571428 0.4285714285714285 Zr
atom_frac 0.6428571428571428 0.1428571428571428 0.4285714285714285 Zr
atom_frac 0.7857142857142857 0.1428571428571428 0.4285714285714285 Zr
atom_frac 0.9285714285714286 0.1428571428571428 0.4285714285714285 Zr
atom_frac 0.0714285714285714 0.2857142857142857 0.4285714285714285 Zr
atom_frac 0.2142857142857143 0.2857142857142857 0.4285714285714285 Zr
atom_frac 0.3571428571428572 0.2857142857142857 0.4285714285714285 Zr
atom_frac 0.5000000000000000 0.2857142857142857 0.4285714285714285 Zr
atom_frac 0.6428571428571428 0.2857142857142857 0.4285714285714285 Zr
atom_frac 0.7857142857142857 0.2857142857142857 0.4285714285714285 Zr
atom_frac 0.9285714285714286 0.2857142857142857 0.4285714285714285 Zr
atom_frac 0.0714285714285714 0.4285714285714285 0.4285714285714285 Zr
atom_frac 0.2142857142857143 0.4285714285714285 0.4285714285714285 Zr
atom_frac 0.3571428571428572 0.4285714285714285 0.4285714285714285 Zr
atom_frac 0.5000000000000000 0.4285714285714285 0.4285714285714285 Zr
atom_frac 0.6428571428571428 0.4285714285714285 0.4285714285714285 Zr
atom_frac 0.7857142857142857 0.4285714285714285 0.4285714285714285 Zr
atom_frac 0.9285714285714286 0.4285714285714285 0.4285714285714285 Zr
atom_frac 0.0714285714285714 0.5714285714285714 0.4285714285714285 Zr
atom_frac 0.2142857142857143 0.5714285714285714 0.4285714285714285 Zr
atom_frac 0.3571428571428572 0.5714285714285714 0.4285714285714285 Zr
atom_frac 0.5000000000000000 0.5714285714285714 0.4285714285714285 Zr
atom_frac 0.6428571428571428 0.5714285714285714 0.4285714285714285 Zr
atom_frac 0.7857142857142857 0.5714285714285714 0.4285714285714285 Zr
atom_frac 0.9285714285714286 0.5714285714285714 0.4285714285714285 Zr
atom_frac 0.0714285714285714 0.7142857142857143 0.4285714285714285 Zr
atom_frac 0.2142857142857143 0.7142857142857143 0.4285714285714285 Zr
atom_frac 0.3571428571428572 0.7142857142857143 0.4285714285714285 Zr
atom_frac 0.5000000000000000 0.7142857142857143 0.4285714285714285 Zr
atom_frac 0.6428571428571428 0.7142857142857143 0.4285714285714285 Zr
atom_frac 0.7857142857142857 0.7142857142857143 0.4285714285714285 Zr
atom_frac 0.9285714285714286 0.7142857142857143 0.4285714285714285 Zr
atom_frac 0.0714285714285714 0.8571428571428571 0.4285714285714285 Zr
atom_frac 0.2142857142857143 0.8571428571428571 0.4285714285714285 Zr
atom_frac 0.3571428571428572 0.8571428571428571 0.4285714285714285 Zr
atom_frac 0.5000000000000000 0.8571428571428571 0.4285714285714285 Zr
atom_frac 0.6428571428571428 0.8571428571428571 0.4285714285714285 Zr
atom_frac 0.7857142857142857 0.8571428571428571 0.4285714285714285 Zr
atom_frac 0.9285714285714286 0.8571428571428571 0.4285714285714285 Zr
atom_frac 0.0714285714285714 0.0000000000000000 0.5714285714285714 Zr
atom_frac 0.2142857142857143 0.0000000000000000 0.5714285714285714 Zr
atom_frac 0.3571428571428572 0.0000000000000000 0.5714285714285714 Zr
atom_frac 0.5000000000000000 0.0000000000000000 0.5714285714285714 Zr
atom_frac 0.6428571428571428 0.0000000000000000 0.5714285714285714 Zr
atom_frac 0.7857142857142857 0.0000000000000000 0.5714285714285714 Zr
atom_frac 0.9285714285714286 0.0000000000000000 0.5714285714285714 Zr
atom_frac 0.0714285714285714 0.1428571428571428 0.5714285714285714 Zr
atom_frac 0.2142857142857143 0.1428571428571428 0.5714285714285714 Zr
atom_frac 0.3571428571428572 0.1428571428571428 0.5714285714285714 Zr
atom_frac 0.5000000000000000 0.1428571428571428 0.5714285714285714 Zr
atom_frac 0.6428571428571428 0.1428571428571428 0.5714285714285714 Zr
atom_frac 0.7857142857142857 0.1428571428571428 0.5714285714285714 Zr
atom_frac 0.9285714285714286 0.1428571428571428 0.5714285714285714 Zr
atom_frac 0.0714285714285714 0.2857142857142857 0.5714285714285714 Zr
atom_frac 0.2142857142857143 0.2857142857142857 0.5714285714285714 Zr
atom_frac 0.3571428571428572 0.2857142857142857 0.5714285714285714 Zr
atom_frac 0.5000000000000000 0.2857142857142857 0.5714285714285714 Zr
atom_frac 0.6428571428571428 0.2857142857142857 0.5714285714285714 Zr
atom_frac 0.7857142857142857 0.2857142857142857 0.5714285714285714 Zr
atom_frac 0.9285714285714286 0.2857142857142857 0.5714285714285714 Zr
atom_frac 0.0714285714285714 0.4285714285714285 0.5714285714285714 Zr
atom_frac 0.2142857142857143 0.4285714285714285 0.5714285714285714 Zr
atom_frac 0.3571428571428572 0.4285714285714285 0.5714285714285714 Zr
atom_frac 0.5000000000000000 0.4285714285714285 0.5714285714285714 Zr
atom_frac 0.6428571428571428 0.4285714285714285 0.5714285714285714 Zr
atom_frac 0.7857142857142857 0.4285714285714285 0.5714285714285714 Zr
atom_frac 0.9285714285714286 0.4285714285714285 0.5714285714285714 Zr
atom_frac 0.0714285714285714 0.5714285714285714 0.5714285714285714 Zr
atom_frac 0.2142857142857143 0.5714285714285714 0.5714285714285714 Zr
atom_frac 0.3571428571428572 0.5714285714285714 0.5714285714285714 Zr
atom_frac 0.5000000000000000 0.5714285714285714 0.5714285714285714 Zr
atom_frac 0.6428571428571428 0.5714285714285714 0.5714285714285714 Zr
atom_frac 0.7857142857142857 0.5714285714285714 0.5714285714285714 Zr
atom_frac 0.9285714285714286 0.5714285714285714 0.5714285714285714 Zr
atom_frac 0.0714285714285714 0.7142857142857143 0.5714285714285714 Zr
atom_frac 0.2142857142857143 0.7142857142857143 0.5714285714285714 Zr
atom_frac 0.3571428571428572 0.7142857142857143 0.5714285714285714 Zr
atom_frac 0.5000000000000000 0.7142857142857143 0.5714285714285714 Zr
atom_frac 0.6428571428571428 0.7142857142857143 0.5714285714285714 Zr
atom_frac 0.7857142857142857 0.7142857142857143 0.5714285714285714 Zr
atom_frac 0.9285714285714286 0.7142857142857143 0.5714285714285714 Zr
atom_frac 0.0714285714285714 0.8571428571428571 0.5714285714285714 Zr
atom_frac 0.2142857142857143 0.8571428571428571 0.5714285714285714 Zr
atom_frac 0.3571428571428572 0.8571428571428571 0.5714285714285714 Zr
atom_frac 0.5000000000000000 0.8571428571428571 0.5714285714285714 Zr
atom_frac 0.6428571428571428 0.8571428571428571 0.5714285714285714 Zr
atom_frac 0.7857142857142857 0.8571428571428571 0.5714285714285714 Zr
atom_frac 0.9285714285714286 0.8571428571428571 0.5714285714285714 Zr
atom_frac 0.0714285714285714 0.0000000000000000 0.7142857142857142 Zr
atom_frac 0.2142857142857143 0.0000000000000000 0.7142857142857142 Zr
atom_frac 0.3571428571428572 0.0000000000000000 0.7142857142857142 Zr
atom_frac 0.5000000000000000 0.0000000000000000 0.7142857142857142 Zr
atom_frac 0.6428571428571428 0.0000000000000000 0.7142857142857142 Zr
atom_frac 0.7857142857142857 0.0000000000000000 0.7142857142857142 Zr
atom_frac 0.9285714285714286 0.0000000000000000 0.7142857142857142 Zr
atom_frac 0.0714285714285714 0.1428571428571428 0.7142857142857142 Zr
atom_frac 0.2142857142857143 0.1428571428571428 0.7142857142857142 Zr
atom_frac 0.3571428571428572 0.1428571428571428 0.7142857142857142 Zr
atom_frac 0.5000000000000000 0.1428571428571428 0.7142857142857142 Zr
atom_frac 0.6428571428571428 0.1428571428571428 0.7142857142857142 Zr
atom_frac 0.7857142857142857 0.1428571428571428 0.7142857142857142 Zr
atom_frac 0.9285714285714286 0.1428571428571428 0.7142857142857142 Zr
atom_frac 0.0714285714285714 0.2857142857142857 0.7142857142857142 Zr
atom_frac 0.2142857142857143 0.2857142857142857 0.7142857142857142 Zr
atom_frac 0.3571428571428572 0.2857142857142857 0.7142857142857142 Zr
atom_frac 0.5000000000000000 0.2857142857142857 0.7142857142857142 Zr
atom_frac 0.6428571428571428 0.2857142857142857 0.7142857142857142 Zr
atom_frac 0.7857142857142857 0.2857142857142857 0.7142857142857142 Zr
atom_frac 0.9285714285714286 0.2857142857142857 0.7142857142857142 Zr
atom_frac 0.0714285714285714 0.4285714285714285 0.7142857142857142 Zr
atom_frac 0.2142857142857143 0.4285714285714285 0.7142857142857142 Zr
atom_frac 0.3571428571428572 0.4285714285714285 0.7142857142857142 Zr
atom_frac 0.5000000000000000 0.4285714285714285 0.7142857142857142 Zr
atom_frac 0.6428571428571428 0.4285714285714285 0.7142857142857142 Zr
atom_frac 0.7857142857142857 0.4285714285714285 0.7142857142857142 Zr
atom_frac 0.9285714285714286 0.4285714285714285 0.7142857142857142 Zr
atom_frac 0.0714285714285714 0.5714285714285714 0.7142857142857142 Zr
atom_frac 0.2142857142857143 0.5714285714285714 0.7142857142857142 Zr
atom_frac 0.3571428571428572 0.5714285714285714 0.7142857142857142 Zr
atom_frac 0.5000000000000000 0.5714285714285714 0.7142857142857142 Zr
atom_frac 0.6428571428571428 0.5714285714285714 0.7142857142857142 Zr
atom_frac 0.7857142857142857 0.5714285714285714 0.7142857142857142 Zr
atom_frac 0.9285714285714286 0.5714285714285714 0.7142857142857142 Zr
atom_frac 0.0714285714285714 0.7142857142857143 0.7142857142857142 Zr
atom_frac 0.2142857142857143 0.7142857142857143 0.7142857142857142 Zr
atom_frac 0.3571428571428572 0.7142857142857143 0.7142857142857142 Zr
atom_frac 0.5000000000000000 0.7142857142857143 0.7142857142857142 Zr
atom_frac 0.6428571428571428 0.7142857142857143 0.7142857142857142 Zr
atom_frac 0.7857142857142857 0.7142857142857143 0.7142857142857142 Zr
atom_frac 0.9285714285714286 0.7142857142857143 0.7142857142857142 Zr
atom_frac 0.0714285714285714 0.8571428571428571 0.7142857142857142 Zr
atom_frac 0.2142857142857143 0.8571428571428571 0.7142857142857142 Zr
atom_frac 0.3571428571428572 0.8571428571428571 0.7142857142857142 Zr
atom_frac 0.5000000000000000 0.8571428571428571 0.7142857142857142 Zr
atom_frac 0.6428571428571428 0.8571428571428571 0.7142857142857142 Zr
atom_frac 0.7857142857142857 0.8571428571428571 0.7142857142857142 Zr
atom_frac 0.9285714285714286 0.8571428571428571 0.7142857142857142 Zr
atom_frac 0.0714285714285714 0.0000000000000000 0.8571428571428571 Zr
atom_frac 0.2142857142857143 0.0000000000000000 0.8571428571428571 Zr
atom_frac 0.3571428571428572 0.0000000000000000 0.8571428571428571 Zr
atom_frac 0.5000000000000000 0.0000000000000000 0.8571428571428571 Zr
atom_frac 0.6428571428571428 0.0000000000000000 0.8571428571428571 Zr
atom_frac 0.7857142857142857 0.0000000000000000 0.8571428571428571 Zr
atom_frac 0.9285714285714286 0.0000000000000000 0.8571428571428571 Zr
atom_frac 0.0714285714285714 0.1428571428571428 0.8571428571428571 Zr
atom_frac 0.2142857142857143 0.1428571428571428 0.8571428571428571 Zr
atom_frac 0.3571428571428572 0.1428571428571428 0.8571428571428571 Zr
atom_frac 0.5000000000000000 0.1428571428571428 0.8571428571428571 Zr
atom_frac 0.6428571428571428 0.1428571428571428 0.8571428571428571 Zr
atom_frac 0.7857142857142857 0.1428571428571428 0.8571428571428571 Zr
atom_frac 0.9285714285714286 0.1428571428571428 0.8571428571428571 Zr
atom_frac 0.0714285714285714 0.2857142857142857 0.8571428571428571 Zr
atom_frac 0.2142857142857143 0.2857142857142857 0.8571428571428571 Zr
atom_frac 0.3571428571428572 0.2857142857142857 0.8571428571428571 Zr
atom_frac 0.5000000000000000 0.2857142857142857 0.8571428571428571 Zr
atom_frac 0.6428571428571428 0.2857142857142857 0.8571428571428571 Zr
atom_frac 0.7857142857142857 0.2857142857142857 0.8571428571428571 Zr
atom_frac 0.9285714285714286 0.2857142857142857 0.8571428571428571 Zr
atom_frac 0.0714285714285714 0.4285714285714285 0.8571428571428571 Zr
atom_frac 0.2142857142857143 0.4285714285714285 0.8571428571428571 Zr
atom_frac 0.3571428571428572 0.4285714285714285 0.8571428571428571 Zr
atom_frac 0.5000000000000000 0.4285714285714285 0.8571428571428571 Zr
atom_frac 0.6428571428571428 0.4285714285714285 0.8571428571428571 Zr
atom_frac 0.7857142857142857 0.4285714285714285 0.8571428571428571 Zr
atom_frac 0.9285714285714286 0.4285714285714285 0.8571428571428571 Zr
atom_frac 0.0714285714285714 0.5714285714285714 0.8571428571428571 Zr
atom_frac 0.2142857142857143 0.5714285714285714 0.8571428571428571 Zr
atom_frac 0.3571428571428572 0.5714285714285714 0.8571428571428571 Zr
atom_frac 0.5000000000000000 0.5714285714285714 0.8571428571428571 Zr
atom_frac 0.6428571428571428 0.5714285714285714 0.8571428571428571 Zr
atom_frac 0.7857142857142857 0.5714285714285714 0.8571428571428571 Zr
atom_frac 0.9285714285714286 0.5714285714285714 0.8571428571428571 Zr
atom_frac 0.0714285714285714 0.7142857142857143 0.8571428571428571 Zr
atom_frac 0.2142857142857143 0.7142857142857143 0.8571428571428571 Zr
atom_frac 0.3571428571428572 0.7142857142857143 0.8571428571428571 Zr
atom_frac 0.5000000000000000 0.7142857142857143 0.8571428571428571 Zr
atom_frac 0.6428571428571428 0.7142857142857143 0.8571428571428571 Zr
atom_frac 0.7857142857142857 0.7142857142857143 0.8571428571428571 Zr
atom_frac 0.9285714285714286 0.7142857142857143 0.8571428571428571 Zr
atom_frac 0.0714285714285714 0.8571428571428571 0.8571428571428571 Zr
atom_frac 0.2142857142857143 0.8571428571428571 0.8571428571428571 Zr
atom_frac 0.3571428571428572 0.8571428571428571 0.8571428571428571 Zr
atom_frac 0.5000000000000000 0.8571428571428571 0.8571428571428571 Zr
atom_frac 0.6428571428571428 0.8571428571428571 0.8571428571428571 Zr
atom_frac 0.7857142857142857 0.8571428571428571 0.8571428571428571 Zr
atom_frac 0.9285714285714286 0.8571428571428571 0.8571428571428571 Zr
atom_frac 0.0000000000000000 0.0714285714285714 0.0000000000000000 Zr
atom_frac 0.1428571428571428 0.0714285714285714 0.0000000000000000 Zr
atom_frac 0.2857142857142857 0.0714285714285714 0.0000000000000000 Zr
atom_frac 0.4285714285714285 0.0714285714285714 0.0000000000000000 Zr
atom_frac 0.5714285714285714 0.0714285714285714 0.0000000000000000 Zr
atom_frac 0.7142857142857143 0.0714285714285714 0.0000000000000000 Zr
atom_frac 0.8571428571428571 0.0714285714285714 0.0000000000000000 Zr
atom_frac 0.0000000000000000 0.2142857142857143 0.0000000000000000 Zr
atom_frac 0.1428571428571428 0.2142857142857143 0.0000000000000000 Zr
atom_frac 0.2857142857142857 0.2142857142857143 0.0000000000000000 Zr
atom_frac 0.4285714285714285 0.2142857142857143 0.0000000000000000 Zr
atom_frac 0.5714285714285714 0.2142857142857143 0.0000000000000000 Zr
atom_frac 0.7142857142857143 0.2142857142857143 0.0000000000000000 Zr
atom_frac 0.8571428571428571 0.2142857142857143 0.0000000000000000 Zr
atom_frac 0.0000000000000000 0.3571428571428572 0.0000000000000000 Zr
atom_frac 0.1428571428571428 0.3571428571428572 0.0000000000000000 Zr
atom_frac 0.2857142857142857 0.3571428571428572 0.0000000000000000 Zr
atom_frac 0.4285714285714285 0.3571428571428572 0.0000000000000000 Zr
atom_frac 0.5714285714285714 0.3571428571428572 0.0000000000000000 Zr
atom_frac 0.7142857142857143 0.3571428571428572 0.0000000000000000 Zr
atom_frac 0.8571428571428571 0.3571428571428572 0.0000000000000000 Zr
atom_frac 0.0000000000000000 0.5000000000000000 0.0000000000000000 Zr
atom_frac 0.1428571428571428 0.5000000000000000 0.0000000000000000 Zr
atom_frac 0.2857142857142857 0.5000000000000000 0.0000000000000000 Zr
atom_frac 0.4285714285714285 0.5000000000000000 0.0000000000000000 Zr
atom_frac 0.5714285714285714 0.5000000000000000 0.0000000000000000 Zr
atom_frac 0.7142857142857143 0.5000000000000000 0.0000000000000000 Zr
atom_frac 0.8571428571428571 0.5000000000000000 0.0000000000000000 Zr
atom_frac 0.0000000000000000 0.6428571428571428 0.0000000000000000 Zr
atom_frac 0.1428571428571428 0.6428571428571428 0.0000000000000000 Zr
atom_frac 0.2857142857142857 0.6428571428571428 0.0000000000000000 Zr
atom_frac 0.4285714285714285 0.6428571428571428 0.0000000000000000 Zr
atom_frac 0.5714285714285714 0.6428571428571428 0.0000000000000000 Zr
atom_frac 0.7142857142857143 0.6428571428571428 0.0000000000000000 Zr
atom_frac 0.8571428571428571 0.6428571428571428 0.0000000000000000 Zr
atom_frac 0.0000000000000000 0.7857142857142857 0.0000000000000000 Zr
atom_frac 0.1428571428571428 0.7857142857142857 0.0000000000000000 Zr
atom_frac 0.2857142857142857 0.7857142857142857 0.0000000000000000 Zr
atom_frac 0.4285714285714285 0.7857142857142857 0.0000000000000000 Zr
atom_frac 0.5714285714285714 0.7857142857142857 0.0000000000000000 Zr
atom_frac 0.7142857142857143 0.7857142857142857 0.0000000000000000 Zr
atom_frac 0.8571428571428571 0.7857142857142857 0.0000000000000000 Zr
atom_frac 0.0000000000000000 0.9285714285714286 0.0000000000000000 Zr
atom_frac 0.1428571428571428 0.9285714285714286 0.0000000000000000 Zr
atom_frac 0.2857142857142857 0.9285714285714286 0.0000000000000000 Zr
atom_frac 0.4285714285714285 0.9285714285714286 0.0000000000000000 Zr
atom_frac 0.5714285714285714 0.9285714285714286 0.0000000000000000 Zr
atom_frac 0.7142857142857143 0.9285714285714286 0.0000000000000000 Zr
atom_frac 0.8571428571428571 0.9285714285714286 0.0000000000000000 Zr
atom_frac 0.0000000000000000 0.0714285714285714 0.1428571428571428 Zr
atom_frac 0.1428571428571428 0.0714285714285714 0.1428571428571428 Zr
atom_frac 0.2857142857142857 0.0714285714285714 0.1428571428571428 Zr
atom_frac 0.4285714285714285 0.0714285714285714 0.1428571428571428 Zr
atom_frac 0.5714285714285714 0.0714285714285714 0.1428571428571428 Zr
atom_frac 0.7142857142857143 0.0714285714285714 0.1428571428571428 Zr
atom_frac 0.8571428571428571 0.0714285714285714 0.1428571428571428 Zr
atom_frac 0.0000000000000000 0.2142857142857143 0.1428571428571428 Zr
atom_frac 0.1428571428571428 0.2142857142857143 0.1428571428571428 Zr
atom_frac 0.2857142857142857 0.2142857142857143 0.1428571428571428 Zr
atom_frac 0.4285714285714285 0.2142857142857143 0.1428571428571428 Zr
atom_frac 0.5714285714285714 0.2142857142857143 0.1428571428571428 Zr
atom_frac 0.7142857142857143 0.2142857142857143 0.1428571428571428 Zr
atom_frac 0.8571428571428571 0.2142857142857143 0.1428571428571428 Zr
atom_frac 0.0000000000000000 0.3571428571428572 0.1428571428571428 Zr
atom_frac 0.1428571428571428 0.3571428571428572 0.1428571428571428 Zr
atom_frac 0.2857142857142857 0.3571428571428572 0.1428571428571428 Zr
atom_frac 0.4285714285714285 0.3571428571428572 0.1428571428571428 Zr
atom_frac 0.5714285714285714 0.3571428571428572 0.1428571428571428 Zr
atom_frac 0.7142857142857143 0.3571428571428572 0.1428571428571428 Zr
atom_frac 0.8571428571428571 0.3571428571428572 0.1428571428571428 Zr
atom_frac 0.0000000000000000 0.5000000000000000 0.1428571428571428 Zr
atom_frac 0.1428571428571428 0.5000000000000000 0.1428571428571428 Zr
atom_frac 0.2857142857142857 0.5000000000000000 0.1428571428571428 Zr
atom_frac 0.4285714285714285 0.5000000000000000 0.1428571428571428 Zr
atom_frac 0.5714285714285714 0.5000000000000000 0.1428571428571428 Zr