#=======================================================
# FHI-aims file: 1400_geometry.in.primitive.supercell_96
# Created using the Atomic Simulation Environment (ASE)
# Wed Jan 11 12:38:05 2023

# Additional information:
#  Number of atoms:     96
#  Spacegroup:          137
#  supercell:           True
#  supercell_matrix:    [2, 0, 0, 0, 2, 0, 0, 0, 2]
#  Supercell matrix:    [2 0 0 0 2 0 0 0 2]
#=======================================================
lattice_vector 10.2983516483516500 0.0000000000000000 0.0000000000000000 
lattice_vector 0.0000000000000000 10.2983516483516500 0.0000000000000000 
lattice_vector 0.0000000000000000 0.0000000000000000 10.5554945054945062 
atom_frac 0.2500000000000000 0.0000000000000000 0.0000000000000000 Zr
atom_frac 0.7500000000000000 0.0000000000000000 0.0000000000000000 Zr
atom_frac 0.2500000000000000 0.5000000000000000 0.0000000000000000 Zr
atom_frac 0.7500000000000000 0.5000000000000000 0.0000000000000000 Zr
atom_frac 0.2500000000000000 0.0000000000000000 0.5000000000000000 Zr
atom_frac 0.7500000000000000 0.0000000000000000 0.5000000000000000 Zr
atom_frac 0.2500000000000000 0.5000000000000000 0.5000000000000000 Zr
atom_frac 0.7500000000000000 0.5000000000000000 0.5000000000000000 Zr
atom_frac 0.0000000000000000 0.2500000000000000 0.0000000000000000 Zr
atom_frac 0.5000000000000000 0.2500000000000000 0.0000000000000000 Zr
atom_frac 0.0000000000000000 0.7500000000000000 0.0000000000000000 Zr
atom_frac 0.5000000000000000 0.7500000000000000 0.0000000000000000 Zr
atom_frac 0.0000000000000000 0.2500000000000000 0.5000000000000000 Zr
atom_frac 0.5000000000000000 0.2500000000000000 0.5000000000000000 Zr
atom_frac 0.0000000000000000 0.7500000000000000 0.5000000000000000 Zr
atom_frac 0.5000000000000000 0.7500000000000000 0.5000000000000000 Zr
atom_frac 0.0000000000000000 0.0000000000000000 0.2500000000000000 Zr
atom_frac 0.5000000000000000 0.0000000000000000 0.2500000000000000 Zr
atom_frac 0.0000000000000000 0.5000000000000000 0.2500000000000000 Zr
atom_frac 0.5000000000000000 0.5000000000000000 0.2500000000000000 Zr
atom_frac 0.0000000000000000 0.0000000000000000 0.7499999999999999 Zr
atom_frac 0.5000000000000000 0.0000000000000000 0.7499999999999999 Zr
atom_frac 0.0000000000000000 0.5000000000000000 0.7499999999999999 Zr
atom_frac 0.5000000000000000 0.5000000000000000 0.7499999999999999 Zr
atom_frac 0.2500000000000000 0.2500000000000000 0.2500000000000000 Zr
atom_frac 0.7500000000000000 0.2500000000000000 0.2500000000000000 Zr
atom_frac 0.2500000000000000 0.7500000000000000 0.2500000000000000 Zr
atom_frac 0.7500000000000000 0.7500000000000000 0.2500000000000000 Zr
atom_frac 0.2500000000000000 0.2500000000000000 0.7499999999999999 Zr
atom_frac 0.7500000000000000 0.2500000000000000 0.7499999999999999 Zr
atom_frac 0.2500000000000000 0.7500000000000000 0.7499999999999999 Zr
atom_frac 0.7500000000000000 0.7500000000000000 0.7499999999999999 Zr
atom_frac 0.1250000000000000 0.3749999999999999 0.1004401994770000 O
atom_frac 0.6250000000000000 0.3749999999999999 0.1004401994770000 O
atom_frac 0.1250000000000000 0.8749999999999999 0.1004401994770000 O
atom_frac 0.6250000000000000 0.8749999999999999 0.1004401994770000 O
atom_frac 0.1250000000000000 0.3749999999999999 0.6004401994770000 O
atom_frac 0.6250000000000000 0.3749999999999999 0.6004401994770000 O
atom_frac 0.1250000000000000 0.8749999999999999 0.6004401994770000 O
atom_frac 0.6250000000000000 0.8749999999999999 0.6004401994770000 O
atom_frac 0.3749999999999999 0.1250000000000000 0.1004401994770000 O
atom_frac 0.8749999999999999 0.1250000000000000 0.1004401994770000 O
atom_frac 0.3749999999999999 0.6250000000000000 0.1004401994770000 O
atom_frac 0.8749999999999999 0.6250000000000000 0.1004401994770000 O
atom_frac 0.3749999999999999 0.1250000000000000 0.6004401994770000 O
atom_frac 0.8749999999999999 0.1250000000000000 0.6004401994770000 O
atom_frac 0.3749999999999999 0.6250000000000000 0.6004401994770000 O
atom_frac 0.8749999999999999 0.6250000000000000 0.6004401994770000 O
atom_frac 0.1250000000000000 0.3749999999999999 0.3504401994769999 O
atom_frac 0.6250000000000000 0.3749999999999999 0.3504401994769999 O
atom_frac 0.1250000000000000 0.8749999999999999 0.3504401994769999 O
atom_frac 0.6250000000000000 0.8749999999999999 0.3504401994769999 O
atom_frac 0.1250000000000000 0.3749999999999999 0.8504401994769999 O
atom_frac 0.6250000000000000 0.3749999999999999 0.8504401994769999 O
atom_frac 0.1250000000000000 0.8749999999999999 0.8504401994769999 O
atom_frac 0.6250000000000000 0.8749999999999999 0.8504401994769999 O
atom_frac 0.3749999999999999 0.1250000000000000 0.3504401994769999 O
atom_frac 0.8749999999999999 0.1250000000000000 0.3504401994769999 O
atom_frac 0.3749999999999999 0.6250000000000000 0.3504401994769999 O
atom_frac 0.8749999999999999 0.6250000000000000 0.3504401994769999 O
atom_frac 0.3749999999999999 0.1250000000000000 0.8504401994769999 O
atom_frac 0.8749999999999999 0.1250000000000000 0.8504401994769999 O
atom_frac 0.3749999999999999 0.6250000000000000 0.8504401994769999 O
atom_frac 0.8749999999999999 0.6250000000000000 0.8504401994769999 O
atom_frac 0.1250000000000000 0.1250000000000000 0.3995598005229999 O
atom_frac 0.6250000000000000 0.1250000000000000 0.3995598005229999 O
atom_frac 0.1250000000000000 0.6250000000000000 0.3995598005229999 O
atom_frac 0.6250000000000000 0.6250000000000000 0.3995598005229999 O
atom_frac 0.1250000000000000 0.1250000000000000 0.8995598005229999 O
atom_frac 0.6250000000000000 0.1250000000000000 0.8995598005229999 O
atom_frac 0.1250000000000000 0.6250000000000000 0.8995598005229999 O
atom_frac 0.6250000000000000 0.6250000000000000 0.8995598005229999 O
atom_frac 0.3749999999999999 0.3749999999999999 0.3995598005229999 O
atom_frac 0.8749999999999999 0.3749999999999999 0.3995598005229999 O
atom_frac 0.3749999999999999 0.8749999999999999 0.3995598005229999 O
atom_frac 0.8749999999999999 0.8749999999999999 0.3995598005229999 O
atom_frac 0.3749999999999999 0.3749999999999999 0.8995598005229999 O
atom_frac 0.8749999999999999 0.3749999999999999 0.8995598005229999 O
atom_frac 0.3749999999999999 0.8749999999999999 0.8995598005229999 O
atom_frac 0.8749999999999999 0.8749999999999999 0.8995598005229999 O
atom_frac 0.1250000000000000 0.1250000000000000 0.1495598005230000 O
atom_frac 0.6250000000000000 0.1250000000000000 0.1495598005230000 O
atom_frac 0.1250000000000000 0.6250000000000000 0.1495598005230000 O
atom_frac 0.6250000000000000 0.6250000000000000 0.1495598005230000 O
atom_frac 0.1250000000000000 0.1250000000000000 0.6495598005230000 O
atom_frac 0.6250000000000000 0.1250000000000000 0.6495598005230000 O
atom_frac 0.1250000000000000 0.6250000000000000 0.6495598005230000 O
atom_frac 0.6250000000000000 0.6250000000000000 0.6495598005230000 O
atom_frac 0.3749999999999999 0.3749999999999999 0.1495598005230000 O
atom_frac 0.8749999999999999 0.3749999999999999 0.1495598005230000 O
atom_frac 0.3749999999999999 0.8749999999999999 0.1495598005230000 O
atom_frac 0.8749999999999999 0.8749999999999999 0.1495598005230000 O
atom_frac 0.3749999999999999 0.3749999999999999 0.6495598005230000 O
atom_frac 0.8749999999999999 0.3749999999999999 0.6495598005230000 O
atom_frac 0.3749999999999999 0.8749999999999999 0.6495598005230000 O
atom_frac 0.8749999999999999 0.8749999999999999 0.6495598005230000 O
