#=======================================================
# FHI-aims file: 1400_geometry.in.primitive.supercell_324.0010K
# Created using the Atomic Simulation Environment (ASE)
# Wed Jan 11 12:38:33 2023

# Additional information:
#  created from MB distrubtion
#  T = 10.0 K
#  quantum:             False
#  deterministic:       False
#  plus_minus:          False
#  gauge_eigenvectors:  False
#  Random seed:         1002897634
#  Sample number:       1
#=======================================================
lattice_vector 15.4475274725274758 0.0000000000000000 0.0000000000000000 
lattice_vector 0.0000000000000000 15.4475274725274758 0.0000000000000000 
lattice_vector 0.0000000000000000 0.0000000000000000 15.8332417582417584 
atom 2.5745879120879134 0.0000000000000000 0.0000000000000000 Zr
    velocity -0.1460544903797744 -0.1763056084751829 -0.1405880876922365
atom 7.7237637362637361 0.0000000000000000 0.0000000000000000 Zr
    velocity 0.4906796209067546 0.2771000080265164 0.1512819447674431
atom 12.8729395604395602 0.0000000000000000 0.0000000000000000 Zr
    velocity 0.4258398096293919 0.5610898660488174 -0.0500530630067790
atom 2.5745879120879134 5.1491758241758250 0.0000000000000000 Zr
    velocity 0.5140880415399842 0.1505923656185509 0.1485641969381749
atom 7.7237637362637361 5.1491758241758250 0.0000000000000000 Zr
    velocity 0.3034935054187610 0.1468043227562211 -0.0560931737353461
atom 12.8729395604395602 5.1491758241758250 0.0000000000000000 Zr
    velocity -0.2563668660716510 0.3545682678609085 -0.0697230647280620
atom 2.5745879120879134 10.2983516483516500 0.0000000000000000 Zr
    velocity -0.2207708628514727 0.4757490536865599 0.1513473786537250
atom 7.7237637362637361 10.2983516483516500 0.0000000000000000 Zr
    velocity -0.4277804072049732 -0.1766415472843676 -0.0769913140112019
atom 12.8729395604395602 10.2983516483516500 0.0000000000000000 Zr
    velocity 0.1653731084027280 -0.1088260325619981 -0.2430278553210896
atom 2.5745879120879134 0.0000000000000000 5.2777472527472522 Zr
    velocity 0.4302332761279484 -0.2980478050285887 0.0194645851214654
atom 7.7237637362637361 0.0000000000000000 5.2777472527472522 Zr
    velocity 0.0808315599427517 0.0479593509456202 0.2450619987936407
atom 12.8729395604395602 0.0000000000000000 5.2777472527472522 Zr
    velocity -0.0638725561610456 0.3195617060683242 -0.2328960044693942
atom 2.5745879120879134 5.1491758241758250 5.2777472527472522 Zr
    velocity -0.0167871122719072 -0.0163064661530908 -0.2734830664811423
atom 7.7237637362637361 5.1491758241758250 5.2777472527472522 Zr
    velocity 0.2695995069280680 -0.2673435189027314 0.4598229308539830
atom 12.8729395604395602 5.1491758241758250 5.2777472527472522 Zr
    velocity 0.3090901649037283 -0.3712625352187273 -0.1516388935738299
atom 2.5745879120879134 10.2983516483516500 5.2777472527472522 Zr
    velocity 0.1169208826672260 -0.1033491643394774 -0.2723227684205193
atom 7.7237637362637361 10.2983516483516500 5.2777472527472522 Zr
    velocity -0.2321661852627942 -0.1356889817542305 0.3655991630719374
atom 12.8729395604395602 10.2983516483516500 5.2777472527472522 Zr
    velocity 0.1948414540065038 -0.0471617477927419 -0.1009055871149423
atom 2.5745879120879134 0.0000000000000000 10.5554945054945044 Zr
    velocity -0.0147821099534371 -0.1583270915374586 -0.1321947358030180
atom 7.7237637362637361 0.0000000000000000 10.5554945054945044 Zr
    velocity 0.3194786277683042 0.1459983664054192 0.0085077200765561
atom 12.8729395604395602 0.0000000000000000 10.5554945054945044 Zr
    velocity -0.0872519999137590 -0.4868316072509318 -0.0121425416880362
atom 2.5745879120879134 5.1491758241758250 10.5554945054945044 Zr
    velocity -0.3731250755757097 -0.3632098564716265 0.4194173181117474
atom 7.7237637362637361 5.1491758241758250 10.5554945054945044 Zr
    velocity 0.3523019283047883 0.2044037650969477 -0.1381798513403766
atom 12.8729395604395602 5.1491758241758250 10.5554945054945044 Zr
    velocity 0.0140206701382668 -0.0024220578076259 0.2305559462941006
atom 2.5745879120879134 10.2983516483516500 10.5554945054945044 Zr
    velocity -0.0091345267212687 0.2252066134251694 -0.5612098587402757
atom 7.7237637362637361 10.2983516483516500 10.5554945054945044 Zr
    velocity 0.0308428643509762 0.0241986832867473 0.3123945178337781
atom 12.8729395604395602 10.2983516483516500 10.5554945054945044 Zr
    velocity 0.3003978563506463 -0.3465074932911142 0.4709493238446589
atom 0.0000000000000000 2.5745879120879134 0.0000000000000000 Zr
    velocity -0.2415594471897627 0.1669219687226916 -0.1940317250038317
atom 5.1491758241758250 2.5745879120879134 0.0000000000000000 Zr
    velocity 0.0373401508967097 0.2632539756882645 -0.2031090106266845
atom 10.2983516483516500 2.5745879120879134 0.0000000000000000 Zr
    velocity 0.0345455826085646 0.0746336010499189 0.6024148872606023
atom 0.0000000000000000 7.7237637362637361 0.0000000000000000 Zr
    velocity 0.2281342381939523 0.4086974042777163 -0.5520650042752815
atom 5.1491758241758250 7.7237637362637361 0.0000000000000000 Zr
    velocity -0.3299992003185340 -0.0686165886786507 0.1788206030186340
atom 10.2983516483516500 7.7237637362637361 0.0000000000000000 Zr
    velocity 0.3030312365340970 0.0361257501971083 -0.2305000743791405
atom 0.0000000000000000 12.8729395604395602 0.0000000000000000 Zr
    velocity 0.0736261826959228 -0.3222578218352047 0.2997070056262518
atom 5.1491758241758250 12.8729395604395602 0.0000000000000000 Zr
    velocity 0.5727493895845748 0.3505035486869892 0.0265214542319667
atom 10.2983516483516500 12.8729395604395602 0.0000000000000000 Zr
    velocity -0.1552562303289258 -0.1050569629453154 -0.1931740293673833
atom 0.0000000000000000 2.5745879120879134 5.2777472527472522 Zr
    velocity -0.2714563405993796 0.3542327392828391 -0.2812785513169651
atom 5.1491758241758250 2.5745879120879134 5.2777472527472522 Zr
    velocity 0.3157193852774994 -0.2462800691481364 -0.4164150235210564
atom 10.2983516483516500 2.5745879120879134 5.2777472527472522 Zr
    velocity 0.0627198525826792 0.1540540375948200 -0.2275018397389581
atom 0.0000000000000000 7.7237637362637361 5.2777472527472522 Zr
    velocity -0.2041922369960639 -0.3234276550337344 0.2289405044449969
atom 5.1491758241758250 7.7237637362637361 5.2777472527472522 Zr
    velocity 0.4937262199775704 -0.0621831170322025 -0.1194599606600407
atom 10.2983516483516500 7.7237637362637361 5.2777472527472522 Zr
    velocity 0.1444201032157047 0.0138396808780922 0.6878876076226571
atom 0.0000000000000000 12.8729395604395602 5.2777472527472522 Zr
    velocity -0.0097864073916402 -0.1603461154613731 -0.2289858526721552
atom 5.1491758241758250 12.8729395604395602 5.2777472527472522 Zr
    velocity -0.2000693330619807 0.3242070845844101 -0.0810347671132232
atom 10.2983516483516500 12.8729395604395602 5.2777472527472522 Zr
    velocity 0.2786347749685063 -0.0533683830167811 0.0442375521431182
atom 0.0000000000000000 2.5745879120879134 10.5554945054945044 Zr
    velocity -0.0669518849661089 -0.2559763632350089 -0.1697784783864889
atom 5.1491758241758250 2.5745879120879134 10.5554945054945044 Zr
    velocity -0.2871931307726920 0.0742525266344807 -0.0432598407025151
atom 10.2983516483516500 2.5745879120879134 10.5554945054945044 Zr
    velocity -0.3743123839270464 0.0009560776348043 0.4143689581758938
atom 0.0000000000000000 7.7237637362637361 10.5554945054945044 Zr
    velocity -0.3230128469965894 -0.1939937325149099 0.3216721207055563
atom 5.1491758241758250 7.7237637362637361 10.5554945054945044 Zr
    velocity 0.0020473717244943 -0.6079006205279921 -0.1434370522230215
atom 10.2983516483516500 7.7237637362637361 10.5554945054945044 Zr
    velocity 0.3344157197112585 0.2053984874665975 0.1276887147358504
atom 0.0000000000000000 12.8729395604395602 10.5554945054945044 Zr
    velocity 0.4546315661342708 -0.1600325012413028 -0.3252442553205088
atom 5.1491758241758250 12.8729395604395602 10.5554945054945044 Zr
    velocity -0.4200988749910782 -0.2304055770122017 -0.0971645563211398
atom 10.2983516483516500 12.8729395604395602 10.5554945054945044 Zr
    velocity 0.2975146578417601 -0.0755872116146647 -0.0779642562439522
atom 0.0000000000000000 0.0000000000000000 2.6388736263736270 Zr
    velocity -0.5869597932050845 0.4456868479996645 0.6163277397568978
atom 5.1491758241758250 0.0000000000000000 2.6388736263736270 Zr
    velocity -0.3892077415910958 0.4324282752211961 -0.0173804869324249
atom 10.2983516483516500 0.0000000000000000 2.6388736263736270 Zr
    velocity 0.0463249480867689 -0.3145584188715785 -0.1632728837223792
atom 0.0000000000000000 5.1491758241758250 2.6388736263736270 Zr
    velocity 0.1805764703215383 0.2339848184795996 -0.4369955420260373
atom 5.1491758241758250 5.1491758241758250 2.6388736263736270 Zr
    velocity -0.2584219787398581 -0.0227141108996215 -0.5059292885613619
atom 10.2983516483516500 5.1491758241758250 2.6388736263736270 Zr
    velocity 0.1916268673807034 -0.2164170166052135 -0.3150770881610274
atom 0.0000000000000000 10.2983516483516500 2.6388736263736270 Zr
    velocity 0.1107547786105538 -0.1230748151548503 -0.0265139278863416
atom 5.1491758241758250 10.2983516483516500 2.6388736263736270 Zr
    velocity -0.5573297688103102 0.0204381174347424 0.0067208710905601
atom 10.2983516483516500 10.2983516483516500 2.6388736263736270 Zr
    velocity -0.0633486601306458 -0.1996400112901688 -0.1614077616717214
atom 0.0000000000000000 0.0000000000000000 7.9166208791208792 Zr
    velocity -0.0771202780452727 -0.2606138478303267 -0.0905678315574115
atom 5.1491758241758250 0.0000000000000000 7.9166208791208792 Zr
    velocity -0.4569820704263626 0.1720281208347395 -0.3237402903881195
atom 10.2983516483516500 0.0000000000000000 7.9166208791208792 Zr
    velocity -0.4066168025155422 0.4573072822728844 0.2649091859962152
atom 0.0000000000000000 5.1491758241758250 7.9166208791208792 Zr
    velocity -0.1219280460767450 -0.0876896073730623 0.1624408753953284
atom 5.1491758241758250 5.1491758241758250 7.9166208791208792 Zr
    velocity -0.1062720922547560 0.6402114379493493 -0.1775711202043122
atom 10.2983516483516500 5.1491758241758250 7.9166208791208792 Zr
    velocity 0.4673480148763848 0.1754649751333104 -0.3975387408640322
atom 0.0000000000000000 10.2983516483516500 7.9166208791208792 Zr
    velocity -0.1411810589973711 -0.3700716975716426 -0.3171206613844719
atom 5.1491758241758250 10.2983516483516500 7.9166208791208792 Zr
    velocity -0.1944712897662669 0.2958619131552838 -0.1074881379822966
atom 10.2983516483516500 10.2983516483516500 7.9166208791208792 Zr
    velocity -0.6977294554954283 0.1609456383756592 -1.1603552916309932
atom 0.0000000000000000 0.0000000000000000 13.1943681318681314 Zr
    velocity -0.4721211332977776 0.5633013814150701 -0.5030400467424492
atom 5.1491758241758250 0.0000000000000000 13.1943681318681314 Zr
    velocity 0.1001565410312471 0.3570376012516138 0.3309182017963664
atom 10.2983516483516500 0.0000000000000000 13.1943681318681314 Zr
    velocity -0.2119660472405236 0.4572588841033793 -0.3522338619014023
atom 0.0000000000000000 5.1491758241758250 13.1943681318681314 Zr
    velocity -0.1961869025432826 0.6238732595180940 0.0117818379925778
atom 5.1491758241758250 5.1491758241758250 13.1943681318681314 Zr
    velocity 0.1584780324624130 0.1115939248198355 0.6638840508983509
atom 10.2983516483516500 5.1491758241758250 13.1943681318681314 Zr
    velocity -0.1159020794201356 0.0225945018193549 -0.1007590747035308
atom 0.0000000000000000 10.2983516483516500 13.1943681318681314 Zr
    velocity -0.1658561772712309 -0.1810064316824123 -0.0462541280100383
atom 5.1491758241758250 10.2983516483516500 13.1943681318681314 Zr
    velocity -0.2693724810547906 0.1125284664049061 0.2741026993124547
atom 10.2983516483516500 10.2983516483516500 13.1943681318681314 Zr
    velocity -0.1434508660039316 -0.5050538458786991 0.1669439226105139
atom 2.5745879120879134 2.5745879120879134 2.6388736263736270 Zr
    velocity 0.0859162389472610 0.5096592761099299 0.2274921257408087
atom 7.7237637362637361 2.5745879120879134 2.6388736263736270 Zr
    velocity 0.3854245284737767 -0.0056664516965103 -0.6251143855397793
atom 12.8729395604395602 2.5745879120879134 2.6388736263736270 Zr
    velocity 0.2651144948989241 0.2719751595497057 -0.0477814468078738
atom 2.5745879120879134 7.7237637362637361 2.6388736263736270 Zr
    velocity 0.3812616086503672 -0.1781129662257599 0.1511339859928457
atom 7.7237637362637361 7.7237637362637361 2.6388736263736270 Zr
    velocity -0.2645270011541979 0.1147683994407451 0.4177417155973298
atom 12.8729395604395602 7.7237637362637361 2.6388736263736270 Zr
    velocity -0.1123354814496343 0.1893678462114823 -0.0226940324571361
atom 2.5745879120879134 12.8729395604395602 2.6388736263736270 Zr
    velocity -0.3167796206062767 0.3920883337689830 0.2202912073924670
atom 7.7237637362637361 12.8729395604395602 2.6388736263736270 Zr
    velocity 0.2739657347923447 0.4909140533334737 -0.3376984285922431
atom 12.8729395604395602 12.8729395604395602 2.6388736263736270 Zr
    velocity -0.1252812797153635 -0.0903418716395964 0.3794368277962686
atom 2.5745879120879134 2.5745879120879134 7.9166208791208792 Zr
    velocity -0.1535514583922382 -0.1027225549538701 -0.0826487290013741
atom 7.7237637362637361 2.5745879120879134 7.9166208791208792 Zr
    velocity -0.2492682443034473 0.1671209540276826 0.2754545930306899
atom 12.8729395604395602 2.5745879120879134 7.9166208791208792 Zr
    velocity -0.1415389685580593 -0.1362352011549926 -0.0093635800309046
atom 2.5745879120879134 7.7237637362637361 7.9166208791208792 Zr
    velocity -0.1054109472093809 -0.2925339923179142 -0.0493605054698525
atom 7.7237637362637361 7.7237637362637361 7.9166208791208792 Zr
    velocity -0.0822074970431374 -0.3576672588501126 0.2483949747386906
atom 12.8729395604395602 7.7237637362637361 7.9166208791208792 Zr
    velocity -0.1489201404720607 -0.7044514387901343 -0.1170978166893319
atom 2.5745879120879134 12.8729395604395602 7.9166208791208792 Zr
    velocity 0.0438520499031627 0.1073545379405389 0.3750642369666150
atom 7.7237637362637361 12.8729395604395602 7.9166208791208792 Zr
    velocity -0.2813267668032622 0.4560593905848380 -0.2638380168616898
atom 12.8729395604395602 12.8729395604395602 7.9166208791208792 Zr
    velocity 0.2829112206278244 0.2385661852571626 0.0955289760755811
atom 2.5745879120879134 2.5745879120879134 13.1943681318681314 Zr
    velocity -0.3217967937751406 -0.3951187391289572 -0.1858334488151928
atom 7.7237637362637361 2.5745879120879134 13.1943681318681314 Zr
    velocity -0.3616607900182396 -0.3575979957854432 0.0900267861926720
atom 12.8729395604395602 2.5745879120879134 13.1943681318681314 Zr
    velocity -0.2928361146838160 -0.1947800739754767 0.5000002140946260
atom 2.5745879120879134 7.7237637362637361 13.1943681318681314 Zr
    velocity -0.6175860116188892 -0.1033715559856480 0.0305820244193191
atom 7.7237637362637361 7.7237637362637361 13.1943681318681314 Zr
    velocity 0.5250704423052269 -0.4596558387440755 -0.2679900770318692
atom 12.8729395604395602 7.7237637362637361 13.1943681318681314 Zr
    velocity 0.3813140734429769 0.2761279651724138 0.1650841535501239
atom 2.5745879120879134 12.8729395604395602 13.1943681318681314 Zr
    velocity 0.0460152955932437 -0.0612014150785614 0.1300966203432856
atom 7.7237637362637361 12.8729395604395602 13.1943681318681314 Zr
    velocity -0.0047090477714251 -0.0527847006662627 -0.0944059625268725
atom 12.8729395604395602 12.8729395604395602 13.1943681318681314 Zr
    velocity -0.1893061669101847 -0.2131000226913392 0.3151256222187251
atom 1.2872939560439558 3.8618818681318672 1.0601959737102462 O
    velocity 0.7781527518814966 0.2353734864198170 -0.6570376031809756
atom 6.4364697802197801 3.8618818681318672 1.0601959737102462 O
    velocity -0.5362289527043842 -0.1264769126402500 -0.0300202268406208
atom 11.5856456043956069 3.8618818681318672 1.0601959737102462 O
    velocity 0.3487779024291735 -0.0233075113751709 -0.4571260763904295
atom 1.2872939560439558 9.0110576923076930 1.0601959737102462 O
    velocity 0.4078150475875604 -1.3722747512655715 -0.1972259617913568
atom 6.4364697802197801 9.0110576923076930 1.0601959737102462 O
    velocity 0.8768008801703241 0.6655173262760553 -0.0211329987555050
atom 11.5856456043956069 9.0110576923076930 1.0601959737102462 O
    velocity -1.1473746461969381 0.7508471478381437 -0.0616490464619548
atom 1.2872939560439558 14.1602335164835171 1.0601959737102462 O
    velocity 0.6233883179200813 -0.0863454099717082 1.4228009298779554
atom 6.4364697802197801 14.1602335164835171 1.0601959737102462 O
    velocity -0.6525089476750976 0.0090214505041915 -0.1538329219846572
atom 11.5856456043956069 14.1602335164835171 1.0601959737102462 O
    velocity -0.7962696085246518 1.1170762934952243 0.1364510529302177
atom 1.2872939560439558 3.8618818681318672 6.3379432264574982 O
    velocity 0.6760344443028715 0.2788394788016789 0.2546606822872494
atom 6.4364697802197801 3.8618818681318672 6.3379432264574982 O
    velocity 0.6848752831661128 -0.8351148444732125 0.0015724278804000
atom 11.5856456043956069 3.8618818681318672 6.3379432264574982 O
    velocity -0.5685541628378743 0.5899677541259924 -0.0815512168353437
atom 1.2872939560439558 9.0110576923076930 6.3379432264574982 O
    velocity 0.1597292799149523 -0.4944451140105954 0.5854069447636908
atom 6.4364697802197801 9.0110576923076930 6.3379432264574982 O
    velocity 0.2361312279835438 0.3484073455214803 1.2401933949112356
atom 11.5856456043956069 9.0110576923076930 6.3379432264574982 O
    velocity -0.8074630346098330 0.0084478467061095 0.1741231027369154
atom 1.2872939560439558 14.1602335164835171 6.3379432264574982 O
    velocity -0.9684223327232535 1.7959844269549357 -0.6042576893475307
atom 6.4364697802197801 14.1602335164835171 6.3379432264574982 O
    velocity -1.6641885981537403 -0.1853323862558717 -0.7840119465272021
atom 11.5856456043956069 14.1602335164835171 6.3379432264574982 O
    velocity 1.1695161429523495 0.7429925616485443 -0.5510134235396570
atom 1.2872939560439558 3.8618818681318672 11.6156904792047513 O
    velocity -0.6087711347100779 -0.1213736290977022 -0.0460011086580206
atom 6.4364697802197801 3.8618818681318672 11.6156904792047513 O
    velocity -0.4019402144992058 0.0179160576141284 -0.0187774122202274
atom 11.5856456043956069 3.8618818681318672 11.6156904792047513 O
    velocity -0.4067127507238383 -0.4317475726301416 -0.6537601937371790
atom 1.2872939560439558 9.0110576923076930 11.6156904792047513 O
    velocity -0.3602118884845217 -0.0662193094823635 -0.8910934119664724
atom 6.4364697802197801 9.0110576923076930 11.6156904792047513 O
    velocity -0.2262716248161737 -0.4945605072325229 0.2782518745201560
atom 11.5856456043956069 9.0110576923076930 11.6156904792047513 O
    velocity 0.5081538836966448 0.0704663194045389 0.4640366041996387
atom 1.2872939560439558 14.1602335164835171 11.6156904792047513 O
    velocity 0.2120165010990628 -0.3658265411662940 0.8636964920510032
atom 6.4364697802197801 14.1602335164835171 11.6156904792047513 O
    velocity 1.3421099101004479 -1.2359936865223040 0.2940383339169526
atom 11.5856456043956069 14.1602335164835171 11.6156904792047513 O
    velocity 0.5411293324188244 -0.6352533675370058 0.7564191563672836
atom 3.8618818681318672 1.2872939560439558 1.0601959737102462 O
    velocity -0.1556863405032541 -1.0640428814756357 -0.5722181790422621
atom 9.0110576923076930 1.2872939560439558 1.0601959737102462 O
    velocity 0.6496754801239297 -0.8602067735664649 2.0442306507181236
atom 14.1602335164835171 1.2872939560439558 1.0601959737102462 O
    velocity 0.2361855869595358 -0.0947036517490559 -1.3110869800574017
atom 3.8618818681318672 6.4364697802197801 1.0601959737102462 O
    velocity -0.1558510027603773 -0.7614942137748678 0.4472024667326529
atom 9.0110576923076930 6.4364697802197801 1.0601959737102462 O
    velocity 0.3841553296818335 0.0740700435976107 0.1930695174470079
atom 14.1602335164835171 6.4364697802197801 1.0601959737102462 O
    velocity 1.1657967226135104 1.3268687029970068 0.8428405423728551
atom 3.8618818681318672 11.5856456043956069 1.0601959737102462 O
    velocity 0.5385735548704788 -0.0335540674607899 1.0816406779336001
atom 9.0110576923076930 11.5856456043956069 1.0601959737102462 O
    velocity -0.2530794244723412 -0.2143486203693299 0.2494382904530127
atom 14.1602335164835171 11.5856456043956069 1.0601959737102462 O
    velocity -0.3223463805191911 -0.5690490697495051 -0.2146340579657872
atom 3.8618818681318672 1.2872939560439558 6.3379432264574982 O
    velocity -0.1617319426629909 0.3548795187700666 0.9473843329375232
atom 9.0110576923076930 1.2872939560439558 6.3379432264574982 O
    velocity 0.2471479103569192 0.5088434420659543 -0.7552991967215416
atom 14.1602335164835171 1.2872939560439558 6.3379432264574982 O
    velocity -0.0909929682237226 -0.4286520705445471 -0.6326599889573095
atom 3.8618818681318672 6.4364697802197801 6.3379432264574982 O
    velocity -0.3371584481255092 -1.5015143380765390 0.2101181027678114
atom 9.0110576923076930 6.4364697802197801 6.3379432264574982 O
    velocity -0.8811261897656932 0.4797914516604906 -0.4059486170298084
atom 14.1602335164835171 6.4364697802197801 6.3379432264574982 O
    velocity -0.6364625817721811 -0.6074575497611825 0.7212401965918629
atom 3.8618818681318672 11.5856456043956069 6.3379432264574982 O
    velocity -0.7507883015442189 -0.5769165623788237 0.1258856483026867
atom 9.0110576923076930 11.5856456043956069 6.3379432264574982 O
    velocity 1.5346886949210288 0.2855320229571668 -1.1186941109479431
atom 14.1602335164835171 11.5856456043956069 6.3379432264574982 O
    velocity -0.4075226691667344 0.6477883870738063 0.3554915762053301
atom 3.8618818681318672 1.2872939560439558 11.6156904792047513 O
    velocity 1.1888376938465584 -1.2796870731604566 0.3855968496992829
atom 9.0110576923076930 1.2872939560439558 11.6156904792047513 O
    velocity -0.5173752797143135 -1.0266013117077384 0.8346973950245663
atom 14.1602335164835171 1.2872939560439558 11.6156904792047513 O
    velocity 0.1768844161543499 -1.0419654769697109 0.2525417948458183
atom 3.8618818681318672 6.4364697802197801 11.6156904792047513 O
    velocity 0.4429146408958746 -0.9845235354332860 0.8353577542305873
atom 9.0110576923076930 6.4364697802197801 11.6156904792047513 O
    velocity 0.5379376486988374 -0.8758364228800869 -0.6052415249396059
atom 14.1602335164835171 6.4364697802197801 11.6156904792047513 O
    velocity 1.0084985997364770 0.8301342127214629 -1.2719614932236467
atom 3.8618818681318672 11.5856456043956069 11.6156904792047513 O
    velocity -0.5742159227407078 -0.0116113345034323 1.4727651942571360
atom 9.0110576923076930 11.5856456043956069 11.6156904792047513 O
    velocity 0.2597787569884068 -0.3721193483598572 0.6163863994733320
atom 14.1602335164835171 11.5856456043956069 11.6156904792047513 O
    velocity 0.0985823590028585 -0.3778165497076593 1.5973701386237513
atom 1.2872939560439558 3.8618818681318672 3.6990696000838712 O
    velocity 0.4023302996360831 0.6277433165192450 -0.1677585315583027
atom 6.4364697802197801 3.8618818681318672 3.6990696000838712 O
    velocity 0.5633415556963439 -0.2445922113289414 -0.5857992764222734
atom 11.5856456043956069 3.8618818681318672 3.6990696000838712 O
    velocity 0.2076209575509395 -1.9663707261500467 1.0285482483461721
atom 1.2872939560439558 9.0110576923076930 3.6990696000838712 O
    velocity 0.3789397238629169 -1.1718975377523886 0.1898006687301744
atom 6.4364697802197801 9.0110576923076930 3.6990696000838712 O
    velocity 0.8113325507111840 -0.4610717433443215 0.1866467070746264
atom 11.5856456043956069 9.0110576923076930 3.6990696000838712 O
    velocity -0.6023791613263755 -0.2227784570922642 0.2660902671398450
atom 1.2872939560439558 14.1602335164835171 3.6990696000838712 O
    velocity 0.8387254662889255 0.3116249788744720 -0.4824377050624809
atom 6.4364697802197801 14.1602335164835171 3.6990696000838712 O
    velocity 0.1004512523707012 -0.8573455161595703 -1.2888832582285947
atom 11.5856456043956069 14.1602335164835171 3.6990696000838712 O
    velocity 0.1634109283200968 -0.8636401313883731 -0.8562687331576948
atom 1.2872939560439558 3.8618818681318672 8.9768168528311225 O
    velocity 0.3746208087503246 -0.3619210594884557 1.5730572137263090
atom 6.4364697802197801 3.8618818681318672 8.9768168528311225 O
    velocity -1.3358093585668556 -0.3075050738599867 -0.2495924840177266
atom 11.5856456043956069 3.8618818681318672 8.9768168528311225 O
    velocity -1.4410629136443678 -0.8410219950593323 -0.4394732734790864
atom 1.2872939560439558 9.0110576923076930 8.9768168528311225 O
    velocity -0.5057963288736340 -0.6569548661002954 -1.4618330983526742
atom 6.4364697802197801 9.0110576923076930 8.9768168528311225 O
    velocity -0.2538281994887656 -0.5309501660165381 0.0180362497513150
atom 11.5856456043956069 9.0110576923076930 8.9768168528311225 O
    velocity 0.1024277449421659 0.0649559045854178 -0.0288590305149444
atom 1.2872939560439558 14.1602335164835171 8.9768168528311225 O
    velocity 0.9367565495348475 -2.0976452465112869 0.8240137637053613
atom 6.4364697802197801 14.1602335164835171 8.9768168528311225 O
    velocity 0.0084684577494289 0.6292983443773482 -0.4862362987617946
atom 11.5856456043956069 14.1602335164835171 8.9768168528311225 O
    velocity 0.7203002340429677 0.5702540744482183 1.4694882079692444
atom 1.2872939560439558 3.8618818681318672 14.2545641055783765 O
    velocity -0.3021051864995041 0.0073173203054974 0.4575606979076918
atom 6.4364697802197801 3.8618818681318672 14.2545641055783765 O
    velocity 1.2708000188678732 1.3053934324522514 0.1892174900736865
atom 11.5856456043956069 3.8618818681318672 14.2545641055783765 O
    velocity -0.7038802465614435 -0.0066351664879412 -0.8100503448678370
atom 1.2872939560439558 9.0110576923076930 14.2545641055783765 O
    velocity -0.3926994977128393 0.1042190840904630 -0.1078608012556929
atom 6.4364697802197801 9.0110576923076930 14.2545641055783765 O
    velocity -1.2725270035926997 -0.6085272159647096 0.4485373790020564
atom 11.5856456043956069 9.0110576923076930 14.2545641055783765 O
    velocity 0.2080048265927006 -0.3209628609941874 -1.0452746105159447
atom 1.2872939560439558 14.1602335164835171 14.2545641055783765 O
    velocity -0.4937460207890114 -0.7269823533427997 0.7175161617718725
atom 6.4364697802197801 14.1602335164835171 14.2545641055783765 O
    velocity -0.8581094546937955 -0.2539427990996618 1.1974806147190591
atom 11.5856456043956069 14.1602335164835171 14.2545641055783765 O
    velocity -1.0705035247222345 -1.0087288356869739 -0.1848791725539742
atom 3.8618818681318672 1.2872939560439558 3.6990696000838712 O
    velocity 0.7292290214700269 0.5980167012706583 0.7538772263991143
atom 9.0110576923076930 1.2872939560439558 3.6990696000838712 O
    velocity 0.5300761382730976 0.2600235555050645 0.1921473764464655
atom 14.1602335164835171 1.2872939560439558 3.6990696000838712 O
    velocity -0.2078191850991090 0.9270258703681851 0.0833027123942231
atom 3.8618818681318672 6.4364697802197801 3.6990696000838712 O
    velocity 0.1323244795685934 -0.5776600552522780 -0.3567117566781937
atom 9.0110576923076930 6.4364697802197801 3.6990696000838712 O
    velocity -0.2114449575595916 0.4104306844047739 0.1246643957519058
atom 14.1602335164835171 6.4364697802197801 3.6990696000838712 O
    velocity -0.0924152445986331 -0.1571853653563518 -0.2892962261565586
atom 3.8618818681318672 11.5856456043956069 3.6990696000838712 O
    velocity -0.4049422467211801 -0.3193299303400958 -0.6973393298147739
atom 9.0110576923076930 11.5856456043956069 3.6990696000838712 O
    velocity -0.3789099604228588 -0.4744016526794447 -0.1285759441680162
atom 14.1602335164835171 11.5856456043956069 3.6990696000838712 O
    velocity 0.8841220821988648 -0.4031374633203789 1.6863596167624724
atom 3.8618818681318672 1.2872939560439558 8.9768168528311225 O
    velocity -0.1539336031018509 0.2830005172836587 0.1976415480154861
atom 9.0110576923076930 1.2872939560439558 8.9768168528311225 O
    velocity -0.3836698227585169 -0.3749184810637599 0.0902922167037088
atom 14.1602335164835171 1.2872939560439558 8.9768168528311225 O
    velocity 0.5760407979379014 0.6431650425688090 -0.4243269401144232
atom 3.8618818681318672 6.4364697802197801 8.9768168528311225 O
    velocity 0.6202293062473814 -0.1207046013293927 -0.1381701465230462
atom 9.0110576923076930 6.4364697802197801 8.9768168528311225 O
    velocity 0.6040518886802572 -0.1140366985429279 1.0579408005366557
atom 14.1602335164835171 6.4364697802197801 8.9768168528311225 O
    velocity -1.3729328375820531 0.5489973532523019 -0.1775206763412366
atom 3.8618818681318672 11.5856456043956069 8.9768168528311225 O
    velocity -0.1751678143751059 0.1663846923155847 -1.2411602240345334
atom 9.0110576923076930 11.5856456043956069 8.9768168528311225 O
    velocity -0.3650672152737185 0.3385324169576602 0.4919371373297660
atom 14.1602335164835171 11.5856456043956069 8.9768168528311225 O
    velocity 0.1891937594709217 -1.0222972086464535 0.8178797045630328
atom 3.8618818681318672 1.2872939560439558 14.2545641055783765 O
    velocity -0.5410865192850969 0.9927930349627357 1.1440604348373851
atom 9.0110576923076930 1.2872939560439558 14.2545641055783765 O
    velocity 0.3286534615925495 0.3438330162028267 -1.5285725069283151
atom 14.1602335164835171 1.2872939560439558 14.2545641055783765 O
    velocity 1.0024535444303451 0.9030558759651571 0.4441414028075027
atom 3.8618818681318672 6.4364697802197801 14.2545641055783765 O
    velocity 0.4302084906014616 -0.7061373404373741 -1.2536647349332188
atom 9.0110576923076930 6.4364697802197801 14.2545641055783765 O
    velocity 0.7492545899882852 0.1312171056149778 0.6618684899527688
atom 14.1602335164835171 6.4364697802197801 14.2545641055783765 O
    velocity -0.1121316692423969 -0.5881519125808925 -0.2104412868643761
atom 3.8618818681318672 11.5856456043956069 14.2545641055783765 O