#=======================================================
# FHI-aims file: 1400_geometry.in.primitive.supercell_2592.0010K
# Created using the Atomic Simulation Environment (ASE)
# Mon Oct 31 16:17:59 2022

# Additional information:
#  created from MB distrubtion
#  T = 10.0 K
#  quantum:             False
#  deterministic:       False
#  plus_minus:          False
#  gauge_eigenvectors:  False
#  Random seed:         1799472764
#  Sample number:       1
#=======================================================
lattice_vector 30.8950549450549516 0.0000000000000000 0.0000000000000000 
lattice_vector 0.0000000000000000 30.8950549450549516 0.0000000000000000 
lattice_vector 0.0000000000000000 0.0000000000000000 31.6664835164835168 
atom 2.5745879120879116 0.0000000000000000 0.0000000000000000 Zr
    velocity 0.1029716664510913 -0.5493655271210968 -0.1026990136389061
atom 7.7237637362637379 0.0000000000000000 0.0000000000000000 Zr
    velocity -0.2228230802811278 -0.2683121203918916 -0.5090718514827393
atom 12.8729395604395602 0.0000000000000000 0.0000000000000000 Zr
    velocity 0.8673519965604418 -0.5228845418465983 -0.3250250957678950
atom 18.0221153846153861 0.0000000000000000 0.0000000000000000 Zr
    velocity -0.2188735642766661 -0.3211441335083028 -0.2133192532465064
atom 23.1712912087912137 0.0000000000000000 0.0000000000000000 Zr
    velocity 0.0966415087637327 -0.3925507428949014 0.1175174414424951
atom 28.3204670329670343 0.0000000000000000 0.0000000000000000 Zr
    velocity -0.2319971063724005 -0.0372541975887877 -0.0086379892817212
atom 2.5745879120879116 5.1491758241758268 0.0000000000000000 Zr
    velocity -0.1180572278505158 -0.3136854353040520 -0.1438513884998313
atom 7.7237637362637379 5.1491758241758268 0.0000000000000000 Zr
    velocity 0.3050945634022401 0.3857729434073832 -0.2981091506309741
atom 12.8729395604395602 5.1491758241758268 0.0000000000000000 Zr
    velocity -0.2302796958712702 0.0534576792041452 0.4933358596904097
atom 18.0221153846153861 5.1491758241758268 0.0000000000000000 Zr
    velocity -0.4667768584453656 -0.0083064661655469 0.1730454596211511
atom 23.1712912087912137 5.1491758241758268 0.0000000000000000 Zr
    velocity -0.5185609602372591 -0.2002426322904228 -0.5701598374161047
atom 28.3204670329670343 5.1491758241758268 0.0000000000000000 Zr
    velocity 0.1267785425344223 0.1262203300409618 0.2533164536158943
atom 2.5745879120879116 10.2983516483516500 0.0000000000000000 Zr
    velocity 0.0883499340247119 0.0237883060309270 0.1292970659380602
atom 7.7237637362637379 10.2983516483516500 0.0000000000000000 Zr
    velocity 0.0747121448757894 -0.0365729983272517 0.6415029414952784
atom 12.8729395604395602 10.2983516483516500 0.0000000000000000 Zr
    velocity 0.5093964936014456 -0.0861300652322894 0.2468285267640952
atom 18.0221153846153861 10.2983516483516500 0.0000000000000000 Zr
    velocity -0.1814952546168106 0.8741540068470045 0.0734055021219661
atom 23.1712912087912137 10.2983516483516500 0.0000000000000000 Zr
    velocity 0.1803297762512358 -0.1852397160324149 -0.4528632512562738
atom 28.3204670329670343 10.2983516483516500 0.0000000000000000 Zr
    velocity 0.4705848748523898 0.3826154517024124 0.1807332143335562
atom 2.5745879120879116 15.4475274725274723 0.0000000000000000 Zr
    velocity 0.0252847398851791 -0.1486165854044787 0.3743656153993308
atom 7.7237637362637379 15.4475274725274723 0.0000000000000000 Zr
    velocity -0.0474704888950937 0.2562874173974761 -0.0151272494253297
atom 12.8729395604395602 15.4475274725274723 0.0000000000000000 Zr
    velocity -0.1819905245298079 -0.4898139818867735 -0.3322512533944870
atom 18.0221153846153861 15.4475274725274723 0.0000000000000000 Zr
    velocity -0.2467033069257993 -0.1744587214787240 -0.1660836849253840
atom 23.1712912087912137 15.4475274725274723 0.0000000000000000 Zr
    velocity 0.0674025782337505 0.2031022534801540 0.1557870940121234
atom 28.3204670329670343 15.4475274725274723 0.0000000000000000 Zr
    velocity -0.2644854266642812 0.0038502306655724 0.1399207273790306
atom 2.5745879120879116 20.5967032967032999 0.0000000000000000 Zr
    velocity 0.4455546941609965 -0.0690958359362516 -0.0927096930267338
atom 7.7237637362637379 20.5967032967032999 0.0000000000000000 Zr
    velocity 0.0303454172225199 -0.1395477085656849 0.1935724575741109
atom 12.8729395604395602 20.5967032967032999 0.0000000000000000 Zr
    velocity -0.4366954076242949 0.0615353222447330 -0.0259509619155658
atom 18.0221153846153861 20.5967032967032999 0.0000000000000000 Zr
    velocity 0.0113975330660092 0.0207443350082672 -0.0793481650009632
atom 23.1712912087912137 20.5967032967032999 0.0000000000000000 Zr
    velocity -0.2203997073121197 -0.1136862100063012 0.0365702497605939
atom 28.3204670329670343 20.5967032967032999 0.0000000000000000 Zr
    velocity 0.0266326751349793 0.1687318298395589 -0.1125470487653651
atom 2.5745879120879116 25.7458791208791204 0.0000000000000000 Zr
    velocity -0.1436801491871796 0.0148472523252787 -0.0295348281287363
atom 7.7237637362637379 25.7458791208791204 0.0000000000000000 Zr
    velocity 0.0202872137495006 0.1428301299432996 -0.4419673642761222
atom 12.8729395604395602 25.7458791208791204 0.0000000000000000 Zr
    velocity 0.3337051830723050 0.2170783293212394 0.0736613914610356
atom 18.0221153846153861 25.7458791208791204 0.0000000000000000 Zr
    velocity 0.0805491916395671 0.2726258777223735 0.3008068903455247
atom 23.1712912087912137 25.7458791208791204 0.0000000000000000 Zr
    velocity 0.6409446119381583 0.2777198404175883 0.6221740201298189
atom 28.3204670329670343 25.7458791208791204 0.0000000000000000 Zr
    velocity 0.2808100675026679 0.2322726926751534 -0.3119804069716371
atom 2.5745879120879116 0.0000000000000000 5.2777472527472540 Zr
    velocity 0.6785325459038154 0.2630833599328493 -0.1465396097624370
atom 7.7237637362637379 0.0000000000000000 5.2777472527472540 Zr
    velocity -0.2209145490983168 -0.7534574389729104 0.3960347270268628
atom 12.8729395604395602 0.0000000000000000 5.2777472527472540 Zr
    velocity -0.0990974327319350 -0.4121889374356130 0.1522865278751692
atom 18.0221153846153861 0.0000000000000000 5.2777472527472540 Zr
    velocity -0.1246638682262772 0.1625930512093344 -0.2490816287724343
atom 23.1712912087912137 0.0000000000000000 5.2777472527472540 Zr
    velocity 0.1262881782977465 -0.4274543697483236 0.2999419424276236
atom 28.3204670329670343 0.0000000000000000 5.2777472527472540 Zr
    velocity 0.2077304739700432 -0.2856513943360293 0.0943980543891074
atom 2.5745879120879116 5.1491758241758268 5.2777472527472540 Zr
    velocity -0.1453596225570278 -0.1777194268678264 0.0734423962890073
atom 7.7237637362637379 5.1491758241758268 5.2777472527472540 Zr
    velocity 0.1299706681520873 -0.2850029090635640 -0.1238319667287820
atom 12.8729395604395602 5.1491758241758268 5.2777472527472540 Zr
    velocity -0.3094738769907044 -0.2450087532565325 0.1225982765487207
atom 18.0221153846153861 5.1491758241758268 5.2777472527472540 Zr
    velocity -0.5313602386801834 -0.1097570830055738 0.3652197984872382
atom 23.1712912087912137 5.1491758241758268 5.2777472527472540 Zr
    velocity 0.2759149337296389 -0.0509521093026139 -0.1896273440338879
atom 28.3204670329670343 5.1491758241758268 5.2777472527472540 Zr
    velocity 0.2614419650465559 0.3428477686407215 0.0252809883752080
atom 2.5745879120879116 10.2983516483516500 5.2777472527472540 Zr
    velocity -0.0200128078031038 0.0500017785872015 0.2035531933625462
atom 7.7237637362637379 10.2983516483516500 5.2777472527472540 Zr
    velocity 0.1104417437774259 -0.6115901198160048 0.5215435229788158
atom 12.8729395604395602 10.2983516483516500 5.2777472527472540 Zr
    velocity -0.5007278657436099 -0.2836719996380608 -0.1250887144859238
atom 18.0221153846153861 10.2983516483516500 5.2777472527472540 Zr
    velocity 0.1404200287616849 -0.3247325375184748 -0.2756742256297642
atom 23.1712912087912137 10.2983516483516500 5.2777472527472540 Zr
    velocity -0.0343834186142128 0.1148700211359638 0.0736561125386749
atom 28.3204670329670343 10.2983516483516500 5.2777472527472540 Zr
    velocity -0.2693509387885882 -0.1416164334000864 0.3946039043651028
atom 2.5745879120879116 15.4475274725274723 5.2777472527472540 Zr
    velocity -0.1580175857606399 0.4519769369846172 -0.1472924081682766
atom 7.7237637362637379 15.4475274725274723 5.2777472527472540 Zr
    velocity 0.2728721532837667 -0.1857064350024563 0.1927428352037785
atom 12.8729395604395602 15.4475274725274723 5.2777472527472540 Zr
    velocity 0.3012172422671283 -0.0226044904695251 0.3348953403418641
atom 18.0221153846153861 15.4475274725274723 5.2777472527472540 Zr
    velocity 0.5019699515407925 -0.1633807172671032 -0.1846331573927162
atom 23.1712912087912137 15.4475274725274723 5.2777472527472540 Zr
    velocity 0.2843465751609578 -0.3149867095834520 -0.1702449548511253
atom 28.3204670329670343 15.4475274725274723 5.2777472527472540 Zr
    velocity -0.1882147709364018 -0.1980110154413038 0.0128219137929735
atom 2.5745879120879116 20.5967032967032999 5.2777472527472540 Zr
    velocity -0.2775261036689581 -0.1973100961891867 0.4287252865142971
atom 7.7237637362637379 20.5967032967032999 5.2777472527472540 Zr
    velocity -0.1939988399080942 0.3142404745074376 -0.3325400530246621
atom 12.8729395604395602 20.5967032967032999 5.2777472527472540 Zr
    velocity -0.0265254771389750 0.1367075753783818 -0.4312195595133083
atom 18.0221153846153861 20.5967032967032999 5.2777472527472540 Zr
    velocity -0.4667881576882686 0.2586282565001027 0.1297815547902433
atom 23.1712912087912137 20.5967032967032999 5.2777472527472540 Zr
    velocity -0.4155630677713721 0.7257921257222769 -0.3586613063804580
atom 28.3204670329670343 20.5967032967032999 5.2777472527472540 Zr
    velocity 0.0670580125191062 -0.2227995948670119 0.1118802556121400
atom 2.5745879120879116 25.7458791208791204 5.2777472527472540 Zr
    velocity -0.1023330846637594 -0.2957211690502753 -0.1405359285519487
atom 7.7237637362637379 25.7458791208791204 5.2777472527472540 Zr
    velocity 0.3131740198051091 -0.4150619714695862 -0.1411823689797733
atom 12.8729395604395602 25.7458791208791204 5.2777472527472540 Zr
    velocity 0.3304526628828951 0.3211889130908469 0.0298439700110191
atom 18.0221153846153861 25.7458791208791204 5.2777472527472540 Zr
    velocity 0.2830592873024490 0.4025401412006423 -0.1527994370748104
atom 23.1712912087912137 25.7458791208791204 5.2777472527472540 Zr
    velocity 0.5626794373702354 -0.2715992770374423 0.5764302517516463
atom 28.3204670329670343 25.7458791208791204 5.2777472527472540 Zr
    velocity -0.1749371709986195 0.0051027883614688 0.3150653207894443
atom 2.5745879120879116 0.0000000000000000 10.5554945054945044 Zr
    velocity -0.3337888565134841 -0.2261913527691749 0.1009884586936495
atom 7.7237637362637379 0.0000000000000000 10.5554945054945044 Zr
    velocity -0.0454222032036022 -0.3083283437449511 0.2066815480310800
atom 12.8729395604395602 0.0000000000000000 10.5554945054945044 Zr
    velocity 0.1140983514783904 -0.0656825885169767 -0.2194541969739681
atom 18.0221153846153861 0.0000000000000000 10.5554945054945044 Zr
    velocity 0.3358639700102521 0.0304094710778299 0.0139485144740313
atom 23.1712912087912137 0.0000000000000000 10.5554945054945044 Zr
    velocity 0.6962795003022401 0.2162725328545626 0.0731089483460491
atom 28.3204670329670343 0.0000000000000000 10.5554945054945044 Zr
    velocity 0.6339084252597633 0.1800935258649524 0.3331029336650539
atom 2.5745879120879116 5.1491758241758268 10.5554945054945044 Zr
    velocity 0.3305889241913110 0.2218225114073177 -0.0517946961507923
atom 7.7237637362637379 5.1491758241758268 10.5554945054945044 Zr
    velocity -0.3006544655711584 -0.0800520478553840 0.0570753424825038
atom 12.8729395604395602 5.1491758241758268 10.5554945054945044 Zr
    velocity 0.0950977440194639 0.4731121212480729 -0.2695177047371646
atom 18.0221153846153861 5.1491758241758268 10.5554945054945044 Zr
    velocity -0.3465024069026943 0.3086436138127253 -0.0835064187722479
atom 23.1712912087912137 5.1491758241758268 10.5554945054945044 Zr
    velocity -0.5936547980259834 0.0542415190827216 -0.1588039669152480
atom 28.3204670329670343 5.1491758241758268 10.5554945054945044 Zr
    velocity -0.0184528158435622 0.1834257479029757 0.4365962680992302
atom 2.5745879120879116 10.2983516483516500 10.5554945054945044 Zr
    velocity 0.0879050221776010 0.2211168799286482 -0.2744088068828189
atom 7.7237637362637379 10.2983516483516500 10.5554945054945044 Zr
    velocity -0.0835765946944724 -0.0159555286138039 0.5155883418514416
atom 12.8729395604395602 10.2983516483516500 10.5554945054945044 Zr
    velocity -0.3842281535960519 0.2531465525250191 -0.3062274631320133
atom 18.0221153846153861 10.2983516483516500 10.5554945054945044 Zr
    velocity 0.2489621386430879 0.0407270181363793 -0.2699515449312536
atom 23.1712912087912137 10.2983516483516500 10.5554945054945044 Zr
    velocity -0.2411099641338141 -0.2304201133332897 -0.4067314352760129
atom 28.3204670329670343 10.2983516483516500 10.5554945054945044 Zr
    velocity -0.3756656802656020 -0.1093108891466109 0.1172977032761674
atom 2.5745879120879116 15.4475274725274723 10.5554945054945044 Zr
    velocity 0.3186767456629442 0.1457801354649954 0.4993038078619740
atom 7.7237637362637379 15.4475274725274723 10.5554945054945044 Zr
    velocity 0.3486338439896463 -0.2947094953643125 -0.0009836764190285
atom 12.8729395604395602 15.4475274725274723 10.5554945054945044 Zr
    velocity -0.0338469371800040 -0.2220921115815379 -0.0950901451488380
atom 18.0221153846153861 15.4475274725274723 10.5554945054945044 Zr
    velocity -0.0218424698658262 -0.2272450088900745 -0.0962193049240868
atom 23.1712912087912137 15.4475274725274723 10.5554945054945044 Zr
    velocity 0.1719807609402099 0.1231319957503296 0.1083008219942927
atom 28.3204670329670343 15.4475274725274723 10.5554945054945044 Zr
    velocity -0.0525827075403539 0.4431372079803308 -0.1293365583362751
atom 2.5745879120879116 20.5967032967032999 10.5554945054945044 Zr
    velocity -0.4081524442742872 -0.2834763712205174 0.2019703605237893
atom 7.7237637362637379 20.5967032967032999 10.5554945054945044 Zr
    velocity 0.5310986992753848 0.1118464287292601 0.0836851834151855
atom 12.8729395604395602 20.5967032967032999 10.5554945054945044 Zr
    velocity -0.1746220504058352 0.3412624789317408 -0.1746798532933996
atom 18.0221153846153861 20.5967032967032999 10.5554945054945044 Zr
    velocity 0.0538582112473551 -0.1933383042629706 0.1492969164619926
atom 23.1712912087912137 20.5967032967032999 10.5554945054945044 Zr
    velocity 0.0042335606217519 0.2880019956884982 0.2096759769467062
atom 28.3204670329670343 20.5967032967032999 10.5554945054945044 Zr
    velocity 0.1711634969865330 -0.0834399096074443 -0.2234542602876379
atom 2.5745879120879116 25.7458791208791204 10.5554945054945044 Zr
    velocity -0.0958247056622083 0.0640300148501907 0.3978116346499641
atom 7.7237637362637379 25.7458791208791204 10.5554945054945044 Zr
    velocity -0.6653615671179777 0.1582319889232962 0.0207934575763748
atom 12.8729395604395602 25.7458791208791204 10.5554945054945044 Zr
    velocity -0.1650086519968325 0.1985032187752532 0.0608439592983616
atom 18.0221153846153861 25.7458791208791204 10.5554945054945044 Zr
    velocity 0.3687148807838826 -0.3032876357940966 0.5558699071226145
atom 23.1712912087912137 25.7458791208791204 10.5554945054945044 Zr
    velocity -0.6082202447148781 -0.1412884948502592 -0.2463658711526097
atom 28.3204670329670343 25.7458791208791204 10.5554945054945044 Zr
    velocity 0.2811100032498398 0.1032761385039188 -0.1374364608115785
atom 2.5745879120879116 0.0000000000000000 15.8332417582417584 Zr
    velocity -0.1985590516846902 -0.2835574429365170 -0.1739431178883893
atom 7.7237637362637379 0.0000000000000000 15.8332417582417584 Zr
    velocity -0.0311879358267876 0.2789890148484211 0.0451312527842321
atom 12.8729395604395602 0.0000000000000000 15.8332417582417584 Zr
    velocity -0.1952138990483543 -0.1099166443418035 -0.3622422488644985
atom 18.0221153846153861 0.0000000000000000 15.8332417582417584 Zr
    velocity 0.0153975375135386 -0.3547509745399568 0.0298486563677123
atom 23.1712912087912137 0.0000000000000000 15.8332417582417584 Zr
    velocity 0.0225482322183226 -0.5103074818756543 0.1215128306060475
atom 28.3204670329670343 0.0000000000000000 15.8332417582417584 Zr
    velocity 0.3067381422166618 0.3312473038499118 -0.0007557371537169
atom 2.5745879120879116 5.1491758241758268 15.8332417582417584 Zr
    velocity -0.1142107728480777 -0.7573119012489837 -0.2653992130923235
atom 7.7237637362637379 5.1491758241758268 15.8332417582417584 Zr
    velocity -0.3817850245467960 0.5050442965893449 -0.4765801261604329
atom 12.8729395604395602 5.1491758241758268 15.8332417582417584 Zr
    velocity 0.0918707108671114 0.5070304610555242 0.0891953346964889
atom 18.0221153846153861 5.1491758241758268 15.8332417582417584 Zr
    velocity 0.0320152828301033 0.0350534911778812 0.0200932562784064
atom 23.1712912087912137 5.1491758241758268 15.8332417582417584 Zr
    velocity 0.3598010406845780 0.4380910674848191 -0.4131095921249300
atom 28.3204670329670343 5.1491758241758268 15.8332417582417584 Zr
    velocity 0.2003744142408929 0.0170630053966042 -0.0675380130404270
atom 2.5745879120879116 10.2983516483516500 15.8332417582417584 Zr
    velocity -0.4313881601070357 -0.4946155943867556 -0.7703668879085692
atom 7.7237637362637379 10.2983516483516500 15.8332417582417584 Zr
    velocity -0.3198799337194413 0.0057485133312561 0.2660857846687626
atom 12.8729395604395602 10.2983516483516500 15.8332417582417584 Zr
    velocity 0.1904590184566150 0.5414588645268841 -0.2059028727430367
atom 18.0221153846153861 10.2983516483516500 15.8332417582417584 Zr
    velocity -0.0247262931131221 -0.3244396570182951 -0.1031898874870391
atom 23.1712912087912137 10.2983516483516500 15.8332417582417584 Zr
    velocity 0.6618035386520472 -0.2435543442776567 0.0150681176541179
atom 28.3204670329670343 10.2983516483516500 15.8332417582417584 Zr
    velocity 0.0968274111683155 0.1079472726402836 -0.2792563822501111
atom 2.5745879120879116 15.4475274725274723 15.8332417582417584 Zr
    velocity -0.2321435935150865 0.0494603134945022 0.1356172976773552
atom 7.7237637362637379 15.4475274725274723 15.8332417582417584 Zr
    velocity 0.0346696718951824 0.2831644121513997 -0.1426830823786371
atom 12.8729395604395602 15.4475274725274723 15.8332417582417584 Zr
    velocity 0.1266917954760875 0.0181229098147635 0.4352499704386589
atom 18.0221153846153861 15.4475274725274723 15.8332417582417584 Zr
    velocity -0.4038007813807669 -0.7024278710423461 0.0212370084754441
atom 23.1712912087912137 15.4475274725274723 15.8332417582417584 Zr
    velocity 0.2139507132508137 0.4469954036274403 0.3178531378233469
atom 28.3204670329670343 15.4475274725274723 15.8332417582417584 Zr
    velocity -0.5409319036894998 -0.1892202161961268 0.0249962861678268
atom 2.5745879120879116 20.5967032967032999 15.8332417582417584 Zr
    velocity 0.1728616230366301 -0.4330710338330608 -0.0920808724053766
atom 7.7237637362637379 20.5967032967032999 15.8332417582417584 Zr
    velocity 0.3795044558878582 -0.2382749233652631 0.1528836458298428
atom 12.8729395604395602 20.5967032967032999 15.8332417582417584 Zr
    velocity 0.1054781296110053 0.0204434188019466 0.2024361129090005
atom 18.0221153846153861 20.5967032967032999 15.8332417582417584 Zr
    velocity -0.3953894637617428 -0.0866950392153967 -0.2401943706641986
atom 23.1712912087912137 20.5967032967032999 15.8332417582417584 Zr
    velocity -0.2703332424331467 -0.0268459155012337 -0.1713124586039238
atom 28.3204670329670343 20.5967032967032999 15.8332417582417584 Zr
    velocity 0.0224358200225604 0.3093748312786737 -0.3342633963919456
atom 2.5745879120879116 25.7458791208791204 15.8332417582417584 Zr
    velocity 0.0932133644182956 -0.0591888410253532 -0.1450501302020984
atom 7.7237637362637379 25.7458791208791204 15.8332417582417584 Zr
    velocity 0.1019410506642284 -0.1605152081589950 -0.1092020124834341
atom 12.8729395604395602 25.7458791208791204 15.8332417582417584 Zr
    velocity -0.0698848572366615 0.1577500889004286 0.6043043472936034
atom 18.0221153846153861 25.7458791208791204 15.8332417582417584 Zr
    velocity -0.2424956005652313 0.0986375550178244 0.1214599962435502
atom 23.1712912087912137 25.7458791208791204 15.8332417582417584 Zr
    velocity -0.3216412256940684 -0.4502005086284712 -0.4963936097465774
atom 28.3204670329670343 25.7458791208791204 15.8332417582417584 Zr
    velocity -0.3241513266683489 0.2397303228949954 0.0147176783979956
atom 2.5745879120879116 0.0000000000000000 21.1109890109890088 Zr
    velocity -0.1895675164592313 0.0075111747470536 0.1459799894018962
atom 7.7237637362637379 0.0000000000000000 21.1109890109890088 Zr
    velocity -0.2961252217593966 0.0350215139851011 -0.0779657814828048
atom 12.8729395604395602 0.0000000000000000 21.1109890109890088 Zr
    velocity 0.0957416511369321 0.0494923934695026 -0.3425125485805722
atom 18.0221153846153861 0.0000000000000000 21.1109890109890088 Zr
    velocity 0.5486045351066527 0.0456974907853113 -0.3109999183304198
atom 23.1712912087912137 0.0000000000000000 21.1109890109890088 Zr
    velocity 0.0266506088350377 -0.3252174648809832 -0.6117518767702430
atom 28.3204670329670343 0.0000000000000000 21.1109890109890088 Zr
    velocity -0.4549678159113521 0.6519977343083982 0.1802533133391735
atom 2.5745879120879116 5.1491758241758268 21.1109890109890088 Zr
    velocity -0.4379589664292791 -0.2561442273596111 -0.2209989927622851
atom 7.7237637362637379 5.1491758241758268 21.1109890109890088 Zr
    velocity 0.2919937184763761 0.1806507671718887 0.1184504201040292
atom 12.8729395604395602 5.1491758241758268 21.1109890109890088 Zr
    velocity 0.5484732641247891 0.0392375852089169 -0.1495087438988633
atom 18.0221153846153861 5.1491758241758268 21.1109890109890088 Zr
    velocity -0.0053180913674759 -0.2636935047610841 0.3130805528451087
atom 23.1712912087912137 5.1491758241758268 21.1109890109890088 Zr
    velocity -0.1233072028267862 0.1932863686476697 0.0912777117893937
atom 28.3204670329670343 5.1491758241758268 21.1109890109890088 Zr
    velocity 0.3320927065335222 0.5856962892030996 -0.1575922321205282
atom 2.5745879120879116 10.2983516483516500 21.1109890109890088 Zr
    velocity -0.3705779334888264 0.0729680098952329 0.2145515460236475
atom 7.7237637362637379 10.2983516483516500 21.1109890109890088 Zr
    velocity -0.3205648789613818 -0.0943568138092014 -0.2195175916224799
atom 12.8729395604395602 10.2983516483516500 21.1109890109890088 Zr
    velocity 0.4161533464807550 -0.3011390826368105 -0.0708244970981774
atom 18.0221153846153861 10.2983516483516500 21.1109890109890088 Zr
    velocity -0.2481974488739748 -0.3527181451088278 -0.1332391976250527
atom 23.1712912087912137 10.2983516483516500 21.1109890109890088 Zr
    velocity -0.4899707581287356 0.0800559883324189 -0.0695610321423482
atom 28.3204670329670343 10.2983516483516500 21.1109890109890088 Zr
    velocity 0.2296541730031569 -0.1087920765958875 -0.0019689160719722
atom 2.5745879120879116 15.4475274725274723 21.1109890109890088 Zr
    velocity 0.0950950918197328 -0.2338107190728760 -0.1898278697193303
atom 7.7237637362637379 15.4475274725274723 21.1109890109890088 Zr
    velocity -0.0522605937716440 -0.1092624395197150 0.0942386885180869
atom 12.8729395604395602 15.4475274725274723 21.1109890109890088 Zr
    velocity -0.1829661750325729 -0.4227093159561729 0.5138926686476298
atom 18.0221153846153861 15.4475274725274723 21.1109890109890088 Zr
    velocity 0.1337724321410504 0.2627424643805731 0.0078977456141039
atom 23.1712912087912137 15.4475274725274723 21.1109890109890088 Zr
    velocity -0.1617926143569839 0.2023452412222529 0.3759143733501704
atom 28.3204670329670343 15.4475274725274723 21.1109890109890088 Zr
    velocity -0.1037972439491184 -0.1072189627717247 -0.2060051458965707
atom 2.5745879120879116 20.5967032967032999 21.1109890109890088 Zr
    velocity -0.2039833662338530 0.4004126953777447 0.0502165161147583
atom 7.7237637362637379 20.5967032967032999 21.1109890109890088 Zr
    velocity -0.5587659085200029 0.3094192855276501 -0.4261492635717682
atom 12.8729395604395602 20.5967032967032999 21.1109890109890088 Zr
    velocity -0.1463238409022330 0.1696435026372701 0.4457331766423086
atom 18.0221153846153861 20.5967032967032999 21.1109890109890088 Zr
    velocity -0.1409673028302028 0.2221827560133001 0.2045719832405865
atom 23.1712912087912137 20.5967032967032999 21.1109890109890088 Zr
    velocity 0.0485109976221814 -0.3142299763961139 -0.0476822519435003
atom 28.3204670329670343 20.5967032967032999 21.1109890109890088 Zr
    velocity 0.0558827202114309 -0.2561392742651996 0.1719084193102949
atom 2.5745879120879116 25.7458791208791204 21.1109890109890088 Zr
    velocity 0.2707781833343563 0.0975101256347381 -0.0432720550149780
atom 7.7237637362637379 25.7458791208791204 21.1109890109890088 Zr
    velocity -0.3322543438598576 -0.7336238224974370 0.2596240752741717
atom 12.8729395604395602 25.7458791208791204 21.1109890109890088 Zr
    velocity 0.0785009576222306 -0.0267703078150796 0.3073470347423822
atom 18.0221153846153861 25.7458791208791204 21.1109890109890088 Zr
    velocity 0.5352177499849891 0.1833231893745491 0.3303746140580368
atom 23.1712912087912137 25.7458791208791204 21.1109890109890088 Zr
    velocity -0.1845232829416961 -0.3082229350076607 0.0762804495240671
atom 28.3204670329670343 25.7458791208791204 21.1109890109890088 Zr
    velocity 0.0869817187999309 -0.0791032099476224 -0.2009727077458967
atom 2.5745879120879116 0.0000000000000000 26.3887362637362628 Zr
    velocity -0.2042592597673926 -0.2864501222473232 -0.2157384454966292
atom 7.7237637362637379 0.0000000000000000 26.3887362637362628 Zr
    velocity -0.0044576578625808 -0.0013396458605919 -0.0925918696892891
atom 12.8729395604395602 0.0000000000000000 26.3887362637362628 Zr
    velocity 0.3065778767672990 0.4263038957790314 -0.1252766169829411
atom 18.0221153846153861 0.0000000000000000 26.3887362637362628 Zr
    velocity 0.0292606947124780 -0.4289856106555173 0.0186027924322170
atom 23.1712912087912137 0.0000000000000000 26.3887362637362628 Zr
    velocity -0.1796495610973270 0.0389840507857386 -0.4674271421438357
atom 28.3204670329670343 0.0000000000000000 26.3887362637362628 Zr
    velocity -0.1147346054044028 0.1586895290824150 0.2356726311043059
atom 2.5745879120879116 5.1491758241758268 26.3887362637362628 Zr
    velocity -0.3623186922754337 -0.6194748788455552 0.1812143555518464
atom 7.7237637362637379 5.1491758241758268 26.3887362637362628 Zr
    velocity 0.0005146614191623 -0.1386174972405541 -0.0794809311789204
atom 12.8729395604395602 5.1491758241758268 26.3887362637362628 Zr
    velocity -0.0484860878758978 0.1265235356566610 -0.0581320635560185
atom 18.0221153846153861 5.1491758241758268 26.3887362637362628 Zr
    velocity -0.2435903532020673 0.1843473434015526 0.1840974177298392
atom 23.1712912087912137 5.1491758241758268 26.3887362637362628 Zr
    velocity 0.6544418318191154 -0.0100969091023710 0.4528291598631792
atom 28.3204670329670343 5.1491758241758268 26.3887362637362628 Zr
    velocity -0.2165611892298528 0.0746798075732379 0.0008544140124226
atom 2.5745879120879116 10.2983516483516500 26.3887362637362628 Zr
    velocity -0.4265735717037378 -0.0609413715075972 0.2326400494938327
atom 7.7237637362637379 10.2983516483516500 26.3887362637362628 Zr
    velocity -0.4732041865559773 -0.0464183790356742 -0.0308021953256115
atom 12.8729395604395602 10.2983516483516500 26.3887362637362628 Zr
    velocity -0.7135566451664586 0.3131977471568866 -0.0780505093539626
atom 18.0221153846153861 10.2983516483516500 26.3887362637362628 Zr
    velocity 0.0745844981170262 -0.2409003884314446 -0.0824313615492512
atom 23.1712912087912137 10.2983516483516500 26.3887362637362628 Zr
    velocity 0.3234820778992252 0.4881617921818343 0.2648154516502164
atom 28.3204670329670343 10.2983516483516500 26.3887362637362628 Zr
    velocity 0.5432188102231484 -0.0754330709023711 -0.1405242423119452
atom 2.5745879120879116 15.4475274725274723 26.3887362637362628 Zr
    velocity 0.3841001404631497 0.1427826432241368 -0.3803000870390838
atom 7.7237637362637379 15.4475274725274723 26.3887362637362628 Zr
    velocity 0.2708866391183387 0.0071553560206097 0.1416542987592742
atom 12.8729395604395602 15.4475274725274723 26.3887362637362628 Zr
    velocity -0.0864067197397831 -0.1348714598684411 -0.4361081188714059
atom 18.0221153846153861 15.4475274725274723 26.3887362637362628 Zr
    velocity -0.4054505501373613 0.2316929464236939 -0.3339499772696686
atom 23.1712912087912137 15.4475274725274723 26.3887362637362628 Zr
    velocity -0.4218768592019428 0.2483917275686033 -0.1639758079176233
atom 28.3204670329670343 15.4475274725274723 26.3887362637362628 Zr
    velocity -0.6526392872463180 0.2383012286573676 -0.1358820751577400
atom 2.5745879120879116 20.5967032967032999 26.3887362637362628 Zr
    velocity -0.2417311043936023 0.1637502501163471 -0.5074225653918123
atom 7.7237637362637379 20.5967032967032999 26.3887362637362628 Zr
    velocity 0.3675425443133849 0.2334463066561979 0.2638314717575401
atom 12.8729395604395602 20.5967032967032999 26.3887362637362628 Zr
    velocity 0.2608343012540235 -0.0886180859972819 -0.1291468536864325
atom 18.0221153846153861 20.5967032967032999 26.3887362637362628 Zr
    velocity -0.0718661970433539 0.3260131030757263 0.2623115273089194
atom 23.1712912087912137 20.5967032967032999 26.3887362637362628 Zr
    velocity 0.0879364398938467 -0.2666956476707875 0.0865826643219787
atom 28.3204670329670343 20.5967032967032999 26.3887362637362628 Zr
    velocity 0.0407978803476154 -0.1351553601478733 -0.2436022742563908
atom 2.5745879120879116 25.7458791208791204 26.3887362637362628 Zr
    velocity 0.4863006785460384 0.2688431912385628 0.6986079083486261