#=======================================================
# FHI-aims file: 1400_geometry.in.primitive.supercell_768.0010K
# Created using the Atomic Simulation Environment (ASE)
# Wed Jan 11 12:38:39 2023

# Additional information:
#  created from MB distrubtion
#  T = 10.0 K
#  quantum:             False
#  deterministic:       False
#  plus_minus:          False
#  gauge_eigenvectors:  False
#  Random seed:         1214632082
#  Sample number:       1
#=======================================================
lattice_vector 20.5967032967032999 0.0000000000000000 0.0000000000000000 
lattice_vector 0.0000000000000000 20.5967032967032999 0.0000000000000000 
lattice_vector 0.0000000000000000 0.0000000000000000 21.1109890109890124 
atom 2.5745879120879125 0.0000000000000000 0.0000000000000000 Zr
    velocity 0.1717919133310822 0.2622070596142510 -0.3284961782698484
atom 7.7237637362637379 0.0000000000000000 0.0000000000000000 Zr
    velocity -0.2454312168554573 0.0949894576780374 0.7739905217330108
atom 12.8729395604395620 0.0000000000000000 0.0000000000000000 Zr
    velocity 0.2695538523578944 -0.2590059883417354 0.1521605226043059
atom 18.0221153846153861 0.0000000000000000 0.0000000000000000 Zr
    velocity -0.2404764359044297 -0.1156390729336568 0.0757896086336779
atom 2.5745879120879125 5.1491758241758250 0.0000000000000000 Zr
    velocity -0.1603274954572565 0.3362379018470414 0.0037037650101542
atom 7.7237637362637379 5.1491758241758250 0.0000000000000000 Zr
    velocity 0.0597320651911041 0.0366494628661248 0.2901411962439264
atom 12.8729395604395620 5.1491758241758250 0.0000000000000000 Zr
    velocity 0.1342869829901297 -0.3214103319985044 -0.1449434428082401
atom 18.0221153846153861 5.1491758241758250 0.0000000000000000 Zr
    velocity -0.0618339627945603 0.1251910369146925 0.3517870847654438
atom 2.5745879120879125 10.2983516483516500 0.0000000000000000 Zr
    velocity -0.2061513465022632 0.0415046625470406 0.1180884530428252
atom 7.7237637362637379 10.2983516483516500 0.0000000000000000 Zr
    velocity 0.1973487907340200 -0.4151787340319018 0.3032273144284619
atom 12.8729395604395620 10.2983516483516500 0.0000000000000000 Zr
    velocity -0.0357217327182835 -0.7922045485300054 0.1714224055186357
atom 18.0221153846153861 10.2983516483516500 0.0000000000000000 Zr
    velocity 0.1403809426244118 -0.1699541412285887 -0.2895435835840888
atom 2.5745879120879125 15.4475274725274758 0.0000000000000000 Zr
    velocity -0.0566026085839489 0.8115686101645402 -0.2079464910113670
atom 7.7237637362637379 15.4475274725274758 0.0000000000000000 Zr
    velocity 0.0979591207160457 0.0080514868028093 -0.2382695356242708
atom 12.8729395604395620 15.4475274725274758 0.0000000000000000 Zr
    velocity 0.0072864161674699 0.5357053205310829 -0.0497667987599222
atom 18.0221153846153861 15.4475274725274758 0.0000000000000000 Zr
    velocity -0.3797523976483465 -0.2327331948040826 0.5788735103390469
atom 2.5745879120879125 0.0000000000000000 5.2777472527472531 Zr
    velocity -0.1696928914326355 0.0896070930545526 0.3530873765156213
atom 7.7237637362637379 0.0000000000000000 5.2777472527472531 Zr
    velocity 0.3175508190845289 -0.0497821074303936 0.0575344486121334
atom 12.8729395604395620 0.0000000000000000 5.2777472527472531 Zr
    velocity 0.0420520391517178 -0.3155670123061635 -0.3426648562462142
atom 18.0221153846153861 0.0000000000000000 5.2777472527472531 Zr
    velocity 0.1100633039396665 -0.0489428587559918 -0.5928302484127094
atom 2.5745879120879125 5.1491758241758250 5.2777472527472531 Zr
    velocity 0.2492238285468786 0.3722281348438410 0.5739244205927555
atom 7.7237637362637379 5.1491758241758250 5.2777472527472531 Zr
    velocity -0.0757057654832411 -0.1283423284525497 0.6086187632566025
atom 12.8729395604395620 5.1491758241758250 5.2777472527472531 Zr
    velocity -0.0881058525157112 -0.1408156977099514 0.1036579040615306
atom 18.0221153846153861 5.1491758241758250 5.2777472527472531 Zr
    velocity 0.5364876834423788 0.3315731057710359 -0.0995657684529562
atom 2.5745879120879125 10.2983516483516500 5.2777472527472531 Zr
    velocity -0.1619305544860494 -0.0729856382141181 -0.0802650431852076
atom 7.7237637362637379 10.2983516483516500 5.2777472527472531 Zr
    velocity -0.0151186865372301 0.1530881551412175 -0.1810144936580205
atom 12.8729395604395620 10.2983516483516500 5.2777472527472531 Zr
    velocity 0.3086803401112019 0.2300163099675377 -0.3465244730514103
atom 18.0221153846153861 10.2983516483516500 5.2777472527472531 Zr
    velocity -0.4770043697804963 0.0054143068021602 -0.6776560358552408
atom 2.5745879120879125 15.4475274725274758 5.2777472527472531 Zr
    velocity -0.2677008370305120 0.1130001702752604 0.1151789866377218
atom 7.7237637362637379 15.4475274725274758 5.2777472527472531 Zr
    velocity 0.1191987840311796 0.0372230043024119 -0.2633791221444538
atom 12.8729395604395620 15.4475274725274758 5.2777472527472531 Zr
    velocity -0.2019108055402987 0.2681130918812708 0.2858992359322675
atom 18.0221153846153861 15.4475274725274758 5.2777472527472531 Zr
    velocity 0.1651091697271494 0.0220578711907198 -0.1455816055215211
atom 2.5745879120879125 0.0000000000000000 10.5554945054945062 Zr
    velocity -0.0294981399903569 -0.6623491994428833 0.0822528178598987
atom 7.7237637362637379 0.0000000000000000 10.5554945054945062 Zr
    velocity 0.6496228149778728 0.1069148772062930 -0.1542701161114075
atom 12.8729395604395620 0.0000000000000000 10.5554945054945062 Zr
    velocity 0.1041015029416975 -0.2232390254364293 0.5978862460433941
atom 18.0221153846153861 0.0000000000000000 10.5554945054945062 Zr
    velocity 0.3985422779092966 0.3903740080026386 -0.6799657610497375
atom 2.5745879120879125 5.1491758241758250 10.5554945054945062 Zr
    velocity 0.0875162986277605 -0.2403435083285117 -0.0659184168480474
atom 7.7237637362637379 5.1491758241758250 10.5554945054945062 Zr
    velocity 0.5356937596215577 -0.0560191547820083 -0.3278452061980204
atom 12.8729395604395620 5.1491758241758250 10.5554945054945062 Zr
    velocity -0.5792364457992600 -0.1480643406906382 0.4797800814034411
atom 18.0221153846153861 5.1491758241758250 10.5554945054945062 Zr
    velocity -0.3043113520998754 -0.0084770063034871 -0.1667375481192925
atom 2.5745879120879125 10.2983516483516500 10.5554945054945062 Zr
    velocity 0.9509815449813059 0.3689170822334339 -0.3520607158768028
atom 7.7237637362637379 10.2983516483516500 10.5554945054945062 Zr
    velocity -0.2182004094781712 -0.0052507908727740 0.3903279128559844
atom 12.8729395604395620 10.2983516483516500 10.5554945054945062 Zr
    velocity -0.1681539383190819 -0.0616554368879075 0.1086337307920532
atom 18.0221153846153861 10.2983516483516500 10.5554945054945062 Zr
    velocity -0.2093785095144733 -0.2896796625775654 -0.0781244269922287
atom 2.5745879120879125 15.4475274725274758 10.5554945054945062 Zr
    velocity -0.1717737092181251 0.3085246770616002 0.5640383335398930
atom 7.7237637362637379 15.4475274725274758 10.5554945054945062 Zr
    velocity 0.1338698109660043 -0.0473396689547814 0.1399161596023111
atom 12.8729395604395620 15.4475274725274758 10.5554945054945062 Zr
    velocity 0.2135285864936509 -0.0908842687536123 0.4724115291802402
atom 18.0221153846153861 15.4475274725274758 10.5554945054945062 Zr
    velocity 0.1603365647852370 -0.5822850642581952 0.2824539607924451
atom 2.5745879120879125 0.0000000000000000 15.8332417582417566 Zr
    velocity 0.2185878095742877 0.4106765492132819 -0.1796170895330108
atom 7.7237637362637379 0.0000000000000000 15.8332417582417566 Zr
    velocity 0.1032968004298215 -0.2388946717410500 -0.2236407928286928
atom 12.8729395604395620 0.0000000000000000 15.8332417582417566 Zr
    velocity -0.1761784548529177 0.2154661268636974 0.0533652547292323
atom 18.0221153846153861 0.0000000000000000 15.8332417582417566 Zr
    velocity 0.0696316049601610 0.3698752464845789 -0.3026256262894022
atom 2.5745879120879125 5.1491758241758250 15.8332417582417566 Zr
    velocity -0.4527984425805308 -0.1344489765870754 -0.1419743277825910
atom 7.7237637362637379 5.1491758241758250 15.8332417582417566 Zr
    velocity -0.1906333158574019 0.1688699509128814 -0.2016507876485157
atom 12.8729395604395620 5.1491758241758250 15.8332417582417566 Zr
    velocity -0.0730773574942207 0.1189528971863110 0.0306480943879819
atom 18.0221153846153861 5.1491758241758250 15.8332417582417566 Zr
    velocity -0.1255383892832320 0.0925034086066651 -0.2861627323991965
atom 2.5745879120879125 10.2983516483516500 15.8332417582417566 Zr
    velocity 0.3111092247857835 -0.1044539065737056 0.0059855501462665
atom 7.7237637362637379 10.2983516483516500 15.8332417582417566 Zr
    velocity 0.3416609207847051 -0.0167702700418946 -0.0444247700427512
atom 12.8729395604395620 10.2983516483516500 15.8332417582417566 Zr
    velocity -0.1736498590713971 0.0383463572749999 -0.0259648716790349
atom 18.0221153846153861 10.2983516483516500 15.8332417582417566 Zr
    velocity 0.0699567278573517 0.0401709858342981 0.6002211780217882
atom 2.5745879120879125 15.4475274725274758 15.8332417582417566 Zr
    velocity 0.0847075000683516 0.2320985481297658 -0.8974574519877243
atom 7.7237637362637379 15.4475274725274758 15.8332417582417566 Zr
    velocity -0.1917850063584239 0.0368492510208754 0.0962841386214492
atom 12.8729395604395620 15.4475274725274758 15.8332417582417566 Zr
    velocity -0.5018320077343769 0.8320062713597622 -0.3938067979998094
atom 18.0221153846153861 15.4475274725274758 15.8332417582417566 Zr
    velocity 0.3057341479742319 0.1705046901135709 0.2563315454265636
atom 0.0000000000000000 2.5745879120879125 0.0000000000000000 Zr
    velocity 0.0891633018012522 -0.5362458919245254 -0.0736038116179781
atom 5.1491758241758250 2.5745879120879125 0.0000000000000000 Zr
    velocity -0.6408140219448292 -0.2498973932915004 -0.2690553145097927
atom 10.2983516483516500 2.5745879120879125 0.0000000000000000 Zr
    velocity 0.1399575205797130 0.1423643094884600 0.0278283011268668
atom 15.4475274725274758 2.5745879120879125 0.0000000000000000 Zr
    velocity -0.4232321910398313 -0.4600409241960824 -0.0694348361197718
atom 0.0000000000000000 7.7237637362637379 0.0000000000000000 Zr
    velocity -0.2814984507955526 0.3669416824182608 0.5132825823220897
atom 5.1491758241758250 7.7237637362637379 0.0000000000000000 Zr
    velocity 0.1713368610880063 -0.1381527975101073 0.1406606594261803
atom 10.2983516483516500 7.7237637362637379 0.0000000000000000 Zr
    velocity 0.1990884531694505 -0.3115726530882413 -0.5484210403855571
atom 15.4475274725274758 7.7237637362637379 0.0000000000000000 Zr
    velocity -0.4595601669358161 -0.0258557946779603 -0.3369122309724090
atom 0.0000000000000000 12.8729395604395620 0.0000000000000000 Zr
    velocity -0.2335206517615475 -0.4540426537920740 -0.0595436641104231
atom 5.1491758241758250 12.8729395604395620 0.0000000000000000 Zr
    velocity 0.0302464029615954 -0.6895154010986169 0.5049626647329301
atom 10.2983516483516500 12.8729395604395620 0.0000000000000000 Zr
    velocity 0.4048621814959787 -0.0755827810361253 -0.0469442425264486
atom 15.4475274725274758 12.8729395604395620 0.0000000000000000 Zr
    velocity -0.2787267011693962 0.6659335505610529 -0.1102947044474640
atom 0.0000000000000000 18.0221153846153861 0.0000000000000000 Zr
    velocity -0.0237427486683818 0.4024236365220318 0.3838212446901693
atom 5.1491758241758250 18.0221153846153861 0.0000000000000000 Zr
    velocity 0.3424561461827295 -0.2145901854335972 0.0280226708076087
atom 10.2983516483516500 18.0221153846153861 0.0000000000000000 Zr
    velocity 0.2713104637660386 -0.4356110347887391 -0.0039729936637790
atom 15.4475274725274758 18.0221153846153861 0.0000000000000000 Zr
    velocity 0.0847236386158328 0.0381553393452039 -0.3258418335505619
atom 0.0000000000000000 2.5745879120879125 5.2777472527472531 Zr
    velocity -0.3388330394791575 0.0444877380755418 0.3308193477850566
atom 5.1491758241758250 2.5745879120879125 5.2777472527472531 Zr
    velocity 0.2796202111944981 -0.0740814651666942 0.2102139282850677
atom 10.2983516483516500 2.5745879120879125 5.2777472527472531 Zr
    velocity 0.2523297619784519 0.1938233231147559 0.1735479975437079
atom 15.4475274725274758 2.5745879120879125 5.2777472527472531 Zr
    velocity 0.3495552525683247 -0.2310971231905459 -0.1069250587446673
atom 0.0000000000000000 7.7237637362637379 5.2777472527472531 Zr
    velocity 0.0806136443113740 0.1386986899108476 -0.1539037116943087
atom 5.1491758241758250 7.7237637362637379 5.2777472527472531 Zr
    velocity 0.1684672127123134 -0.4353047563034627 0.0596776038527542
atom 10.2983516483516500 7.7237637362637379 5.2777472527472531 Zr
    velocity -0.0368564175574115 -0.1465537133630172 0.6447553627319814
atom 15.4475274725274758 7.7237637362637379 5.2777472527472531 Zr
    velocity -0.0004974569948850 0.0260006931984676 0.4559182965828156
atom 0.0000000000000000 12.8729395604395620 5.2777472527472531 Zr
    velocity 0.0343265877244860 -0.0657240185629545 -0.1374816524983301
atom 5.1491758241758250 12.8729395604395620 5.2777472527472531 Zr
    velocity -0.0572751408826302 0.4146726496299427 -0.4272419654129559
atom 10.2983516483516500 12.8729395604395620 5.2777472527472531 Zr
    velocity 0.2283263521210564 -0.1096540116235023 -0.4892343293978505
atom 15.4475274725274758 12.8729395604395620 5.2777472527472531 Zr
    velocity -0.5318629466435668 0.3407844367640393 0.0198943962032551
atom 0.0000000000000000 18.0221153846153861 5.2777472527472531 Zr
    velocity 0.6127730308159369 0.3732839103477923 0.3629486437798936
atom 5.1491758241758250 18.0221153846153861 5.2777472527472531 Zr
    velocity 0.3242276667505357 0.0677574108449879 -0.3060106599012021
atom 10.2983516483516500 18.0221153846153861 5.2777472527472531 Zr
    velocity -0.1469022389807790 0.1075578836919797 0.1443566609295763
atom 15.4475274725274758 18.0221153846153861 5.2777472527472531 Zr
    velocity 0.1810549916771572 -0.1069552971679344 0.1416499472390136
atom 0.0000000000000000 2.5745879120879125 10.5554945054945062 Zr
    velocity -0.1076771446344601 0.1087093096468492 0.2100471451883226
atom 5.1491758241758250 2.5745879120879125 10.5554945054945062 Zr
    velocity -0.1195056715690477 0.1847067590160101 0.3219902309495886
atom 10.2983516483516500 2.5745879120879125 10.5554945054945062 Zr
    velocity -0.0915989577605768 0.0852729057433973 0.6358835295665699
atom 15.4475274725274758 2.5745879120879125 10.5554945054945062 Zr
    velocity -0.0256295709903936 0.3647604499892739 0.3825871131355994
atom 0.0000000000000000 7.7237637362637379 10.5554945054945062 Zr
    velocity 0.1608201413655695 0.0865893651349355 -0.2268736389150666
atom 5.1491758241758250 7.7237637362637379 10.5554945054945062 Zr
    velocity -0.4495167531000722 0.0230753597798566 -0.4229741625705430
atom 10.2983516483516500 7.7237637362637379 10.5554945054945062 Zr
    velocity -0.0150907394261431 0.4561809691800734 0.6990628963408302
atom 15.4475274725274758 7.7237637362637379 10.5554945054945062 Zr
    velocity -0.2824135167293117 0.0296876231899453 0.0026787834574504
atom 0.0000000000000000 12.8729395604395620 10.5554945054945062 Zr
    velocity 0.1793325265391764 -0.0484167749256009 0.1229659613240003
atom 5.1491758241758250 12.8729395604395620 10.5554945054945062 Zr
    velocity 0.0917009153641671 -0.1854208230764549 0.2351774710913790
atom 10.2983516483516500 12.8729395604395620 10.5554945054945062 Zr
    velocity -0.5527192056952684 0.0819744017249878 -0.1612107431477950
atom 15.4475274725274758 12.8729395604395620 10.5554945054945062 Zr
    velocity -0.5617979706177967 0.1818421325801811 -0.3714956603950014
atom 0.0000000000000000 18.0221153846153861 10.5554945054945062 Zr
    velocity 0.5217266069364038 -0.1837229158316915 -0.2506244478698284
atom 5.1491758241758250 18.0221153846153861 10.5554945054945062 Zr
    velocity -0.0418364737445499 0.4123216595545114 0.0304818834283261
atom 10.2983516483516500 18.0221153846153861 10.5554945054945062 Zr
    velocity 0.0399588509817670 -0.0060365961770980 0.3403018982435016
atom 15.4475274725274758 18.0221153846153861 10.5554945054945062 Zr
    velocity -0.1806756861408224 0.0719224732875501 -0.1086683216621387
atom 0.0000000000000000 2.5745879120879125 15.8332417582417566 Zr
    velocity -0.0913801528109177 -0.6840422635018981 0.3316443453792043
atom 5.1491758241758250 2.5745879120879125 15.8332417582417566 Zr
    velocity 0.1048865855331086 -0.4469649308190096 -0.0943750694021137
atom 10.2983516483516500 2.5745879120879125 15.8332417582417566 Zr
    velocity -0.1884074447380403 -0.0240045716882514 -0.0196614215228961
atom 15.4475274725274758 2.5745879120879125 15.8332417582417566 Zr
    velocity -0.0352329501935634 0.0840077238119158 -0.0188244173325628
atom 0.0000000000000000 7.7237637362637379 15.8332417582417566 Zr
    velocity -0.2549317344242226 0.1560288803725215 -0.0761541448302705
atom 5.1491758241758250 7.7237637362637379 15.8332417582417566 Zr
    velocity 0.1772591056397535 0.6168016565979528 0.3321717839277671
atom 10.2983516483516500 7.7237637362637379 15.8332417582417566 Zr
    velocity -0.4506358470212897 -0.2524347556534851 -0.3414683292047487
atom 15.4475274725274758 7.7237637362637379 15.8332417582417566 Zr
    velocity 0.5265442769809084 -0.1268614444610645 -0.0267422049818524
atom 0.0000000000000000 12.8729395604395620 15.8332417582417566 Zr
    velocity -0.1790653777053856 0.2256758651598702 -0.0218680722035758
atom 5.1491758241758250 12.8729395604395620 15.8332417582417566 Zr
    velocity -0.1793508640489210 0.3163707562636328 -0.1793118536656342
atom 10.2983516483516500 12.8729395604395620 15.8332417582417566 Zr
    velocity 0.4055671797457565 -0.3897616958130867 -0.0855518826328755
atom 15.4475274725274758 12.8729395604395620 15.8332417582417566 Zr
    velocity 0.3386693983271813 -0.5368840803858118 0.2016813384891648
atom 0.0000000000000000 18.0221153846153861 15.8332417582417566 Zr
    velocity -0.4017157596661606 -0.0610071097686414 -0.1394704566804532
atom 5.1491758241758250 18.0221153846153861 15.8332417582417566 Zr
    velocity 0.1433746860176806 -0.2035156912692430 0.1903862319764748
atom 10.2983516483516500 18.0221153846153861 15.8332417582417566 Zr
    velocity 0.0116610405563693 -0.2194801737571113 -0.3532019278343826
atom 15.4475274725274758 18.0221153846153861 15.8332417582417566 Zr
    velocity 0.0200936514528369 0.5048348492054913 -0.4512379909597649
atom 0.0000000000000000 0.0000000000000000 2.6388736263736265 Zr
    velocity 0.0248706152522570 0.3239890801248017 0.2422146116456183
atom 5.1491758241758250 0.0000000000000000 2.6388736263736265 Zr
    velocity 0.2371603314316218 0.0342758726349347 0.2846382707579636
atom 10.2983516483516500 0.0000000000000000 2.6388736263736265 Zr
    velocity 0.2251822280310098 -0.2438160924122411 0.0825590322110047
atom 15.4475274725274758 0.0000000000000000 2.6388736263736265 Zr
    velocity -0.0740083046532247 0.0044628088682911 0.0879162144455331
atom 0.0000000000000000 5.1491758241758250 2.6388736263736265 Zr
    velocity 0.2206900512265716 -0.0441848947212061 0.0363126076201621
atom 5.1491758241758250 5.1491758241758250 2.6388736263736265 Zr
    velocity 0.1571025776665470 0.4833682546816611 0.0572143327793446
atom 10.2983516483516500 5.1491758241758250 2.6388736263736265 Zr
    velocity -0.2643844020503298 0.3453338089502417 0.1767129112790457
atom 15.4475274725274758 5.1491758241758250 2.6388736263736265 Zr
    velocity -0.0596384619206448 -0.1503077380311691 0.2218441094250989
atom 0.0000000000000000 10.2983516483516500 2.6388736263736265 Zr
    velocity 0.0873903906886804 0.3197881892263364 0.4516645065290647
atom 5.1491758241758250 10.2983516483516500 2.6388736263736265 Zr
    velocity 0.1265143235474723 0.0139467677582346 0.2129834163639330
atom 10.2983516483516500 10.2983516483516500 2.6388736263736265 Zr
    velocity 0.4790322133596931 0.4024806395446814 0.0607418960692494
atom 15.4475274725274758 10.2983516483516500 2.6388736263736265 Zr
    velocity 0.1450121531942644 -0.6571051867944044 -0.2573809659464800
atom 0.0000000000000000 15.4475274725274758 2.6388736263736265 Zr
    velocity -0.4873198751686687 -0.0897850049227971 0.0840788409445673
atom 5.1491758241758250 15.4475274725274758 2.6388736263736265 Zr
    velocity 0.3276988178868174 0.3799029311657564 -0.0344240580042827
atom 10.2983516483516500 15.4475274725274758 2.6388736263736265 Zr
    velocity 0.1247553678598738 0.0304135342965537 -0.1106849041439132
atom 15.4475274725274758 15.4475274725274758 2.6388736263736265 Zr
    velocity -0.0137053727414400 0.5764060371302524 0.0684953731131684
atom 0.0000000000000000 0.0000000000000000 7.9166208791208774 Zr
    velocity 0.0458301124215652 -0.3701529578266940 -0.2296894122020024
atom 5.1491758241758250 0.0000000000000000 7.9166208791208774 Zr
    velocity 0.2691947685844384 0.1617416276788523 0.2704414091124122
atom 10.2983516483516500 0.0000000000000000 7.9166208791208774 Zr
    velocity 0.3278176322107244 -0.1523044285803471 -0.1557835234256934
atom 15.4475274725274758 0.0000000000000000 7.9166208791208774 Zr
    velocity -0.0805670781176948 -0.5561160775531578 0.1778379687121050
atom 0.0000000000000000 5.1491758241758250 7.9166208791208774 Zr
    velocity 0.0270496939864490 0.1711467764764357 0.2611067232278317
atom 5.1491758241758250 5.1491758241758250 7.9166208791208774 Zr
    velocity -0.1162745350732363 0.0374392863954064 0.2031063795249117
atom 10.2983516483516500 5.1491758241758250 7.9166208791208774 Zr
    velocity -0.0265468762599678 -0.1060647241909225 0.1464304060963692
atom 15.4475274725274758 5.1491758241758250 7.9166208791208774 Zr
    velocity -0.2179395155391767 0.6812957009604452 -0.2834161901569929
atom 0.0000000000000000 10.2983516483516500 7.9166208791208774 Zr
    velocity 0.1313069397705734 -0.1012482266877680 -0.3824017378462051
atom 5.1491758241758250 10.2983516483516500 7.9166208791208774 Zr
    velocity -0.4609198923053447 0.1159667011384848 -0.6584827874229195
atom 10.2983516483516500 10.2983516483516500 7.9166208791208774 Zr
    velocity 0.1682126601040528 0.1577335434578273 0.0135661581307605
atom 15.4475274725274758 10.2983516483516500 7.9166208791208774 Zr
    velocity -0.5292242630136428 0.0726687243214189 -0.5882884602190059
atom 0.0000000000000000 15.4475274725274758 7.9166208791208774 Zr
    velocity 0.3487796767458823 0.0740750603355344 0.1735094349620126
atom 5.1491758241758250 15.4475274725274758 7.9166208791208774 Zr
    velocity -0.0012335274581078 -0.2335994646090779 -0.3671756994520462
atom 10.2983516483516500 15.4475274725274758 7.9166208791208774 Zr
    velocity -0.1065152484601653 0.1389703663922610 -0.1002337039587581
atom 15.4475274725274758 15.4475274725274758 7.9166208791208774 Zr
    velocity 0.0430389887612329 -0.0946471798544311 0.1493691082336309
atom 0.0000000000000000 0.0000000000000000 13.1943681318681332 Zr
    velocity 0.1337155556128417 0.1613703879729921 0.0988716787635726
atom 5.1491758241758250 0.0000000000000000 13.1943681318681332 Zr
    velocity 0.2022439142701521 0.5030219284813698 0.0210924924569150
atom 10.2983516483516500 0.0000000000000000 13.1943681318681332 Zr
    velocity -0.0692432270177031 -0.6510021433026605 0.1992213941548344
atom 15.4475274725274758 0.0000000000000000 13.1943681318681332 Zr
    velocity -0.2663950401667874 0.3633897656416545 0.4537062614058787
atom 0.0000000000000000 5.1491758241758250 13.1943681318681332 Zr
    velocity -0.1400732111113952 -0.1281057708592867 -0.1564838146965571
atom 5.1491758241758250 5.1491758241758250 13.1943681318681332 Zr
    velocity 0.1515380437998653 0.3308574664163487 -0.3553677635281734
atom 10.2983516483516500 5.1491758241758250 13.1943681318681332 Zr
    velocity -0.2822804366090803 -0.5988093529268307 0.0046725121944368
atom 15.4475274725274758 5.1491758241758250 13.1943681318681332 Zr
    velocity -0.0515859509844055 -0.2750623720717130 0.0983524495045310
atom 0.0000000000000000 10.2983516483516500 13.1943681318681332 Zr
    velocity 0.1770846275663374 0.0111276262480817 -0.1311091850528209
atom 5.1491758241758250 10.2983516483516500 13.1943681318681332 Zr
    velocity -0.3042592636263784 0.3114469957188602 0.4773894292411360
atom 10.2983516483516500 10.2983516483516500 13.1943681318681332 Zr
    velocity -0.0559919100296600 -0.1628662452833610 -0.0152980239342968
atom 15.4475274725274758 10.2983516483516500 13.1943681318681332 Zr
    velocity 0.0945539144423561 -0.4463178445929685 0.0171710478589234
atom 0.0000000000000000 15.4475274725274758 13.1943681318681332 Zr
    velocity -0.1533887563061250 -0.1415638883391545 0.0770916255281319
atom 5.1491758241758250 15.4475274725274758 13.1943681318681332 Zr
    velocity 0.0198489951128835 -0.0124747594522707 0.0598588235686984
atom 10.2983516483516500 15.4475274725274758 13.1943681318681332 Zr
    velocity -0.1360163068139968 0.2679349165477785 0.1756054845091281
atom 15.4475274725274758 15.4475274725274758 13.1943681318681332 Zr
    velocity -0.0673482035640610 0.2506089092724341 0.0535219252646382
atom 0.0000000000000000 0.0000000000000000 18.4721153846153854 Zr
    velocity 0.1311513003963115 0.1653207085005988 0.0534317400087666
atom 5.1491758241758250 0.0000000000000000 18.4721153846153854 Zr
    velocity 0.2498025910513298 0.4324151872437472 0.5133545232098381
atom 10.2983516483516500 0.0000000000000000 18.4721153846153854 Zr
    velocity -0.2052361566809744 -0.3266282973733601 0.1246883458272174
atom 15.4475274725274758 0.0000000000000000 18.4721153846153854 Zr
    velocity -0.0431858616552896 0.0349815632926942 0.2209050406820962
atom 0.0000000000000000 5.1491758241758250 18.4721153846153854 Zr
    velocity 0.1738498807576564 0.3742437742678973 -0.2946897027334622
atom 5.1491758241758250 5.1491758241758250 18.4721153846153854 Zr
    velocity -0.6639816225330141 0.4664505103516863 0.0906166960962788
atom 10.2983516483516500 5.1491758241758250 18.4721153846153854 Zr
    velocity 0.0085571587514089 -0.1138054548492206 0.2454993739704812
atom 15.4475274725274758 5.1491758241758250 18.4721153846153854 Zr
    velocity -0.9152367811146735 0.3908235076066396 0.3103032437414294
atom 0.0000000000000000 10.2983516483516500 18.4721153846153854 Zr
    velocity 0.5622341757176579 0.0094864549627012 -0.0021081736172521
atom 5.1491758241758250 10.2983516483516500 18.4721153846153854 Zr
    velocity 0.6826223732626339 0.4840429515499034 -0.3622230550920147
atom 10.2983516483516500 10.2983516483516500 18.4721153846153854 Zr
    velocity -0.0942177080565191 -0.6363428905963970 -0.3142229452224164
atom 15.4475274725274758 10.2983516483516500 18.4721153846153854 Zr
    velocity -0.4457628678931390 0.1388776995167181 -0.0044030473101872
atom 0.0000000000000000 15.4475274725274758 18.4721153846153854 Zr
    velocity 0.1016023642796140 -0.1401174054142432 0.3982990393670975
atom 5.1491758241758250 15.4475274725274758 18.4721153846153854 Zr
    velocity 0.1767427492810447 0.1395811208180726 -0.4736444286282418
atom 10.2983516483516500 15.4475274725274758 18.4721153846153854 Zr
    velocity 0.0236396435190706 -0.4339264571850763 -0.4265094567814822
atom 15.4475274725274758 15.4475274725274758 18.4721153846153854 Zr
    velocity -0.8821516001079160 0.0963639434821574 0.1894133470032242
atom 2.5745879120879125 2.5745879120879125 2.6388736263736265 Zr
    velocity -0.2938880077530411 0.2663882671154508 0.2114966582184816
atom 7.7237637362637379 2.5745879120879125 2.6388736263736265 Zr
    velocity 0.0068057240681772 -0.3062581000320057 0.1182072835909158
atom 12.8729395604395620 2.5745879120879125 2.6388736263736265 Zr
    velocity -0.1970131177568333 -0.0404940148270879 -0.3681063186894903
atom 18.0221153846153861 2.5745879120879125 2.6388736263736265 Zr
    velocity 0.3031822900742131 0.2762749687514577 0.3156182306436812
atom 2.5745879120879125 7.7237637362637379 2.6388736263736265 Zr
    velocity 0.0379771569707579 0.0694405492451706 -0.2904773065938954
atom 7.7237637362637379 7.7237637362637379 2.6388736263736265 Zr
    velocity 0.0948564851909403 0.0891442522977083 -0.1134965343446081
atom 12.8729395604395620 7.7237637362637379 2.6388736263736265 Zr
    velocity 0.3413331235978856 -0.3159946340509890 0.2271994888546277
atom 18.0221153846153861 7.7237637362637379 2.6388736263736265 Zr
    velocity 0.2832882249535573 -0.1465925946082146 0.2530155611771904
atom 2.5745879120879125 12.8729395604395620 2.6388736263736265 Zr
    velocity -0.3458586490402224 -0.0019845281489994 -0.3583808783366155
atom 7.7237637362637379 12.8729395604395620 2.6388736263736265 Zr
    velocity -0.0695076360176250 -0.3016577713374044 -0.7644985696332999
atom 12.8729395604395620 12.8729395604395620 2.6388736263736265 Zr
    velocity -0.3948248076531612 -0.1620478310974076 -0.5041784335486428
atom 18.0221153846153861 12.8729395604395620 2.6388736263736265 Zr
    velocity -0.4148096998959592 -0.4418723203513608 0.1285625726470490
atom 2.5745879120879125 18.0221153846153861 2.6388736263736265 Zr
    velocity -0.4302818045291671 -0.1335794944585885 0.2208557494619460
atom 7.7237637362637379 18.0221153846153861 2.6388736263736265 Zr
    velocity -0.0673762743901430 -0.0195183454154256 -0.1037104616650891
atom 12.8729395604395620 18.0221153846153861 2.6388736263736265 Zr
    velocity 0.3522941669746877 -0.5371896364397988 0.6522515822666415
atom 18.0221153846153861 18.0221153846153861 2.6388736263736265 Zr
    velocity 0.3975023736315350 -0.6237531068623048 -0.0475123589302664
atom 2.5745879120879125 2.5745879120879125 7.9166208791208774 Zr
    velocity -0.4458757316228852 -0.1254694315841265 0.1536909526598139
atom 7.7237637362637379 2.5745879120879125 7.9166208791208774 Zr
    velocity 0.4652407532551499 0.2919503822785668 0.1219448553082707
atom 12.8729395604395620 2.5745879120879125 7.9166208791208774 Zr
    velocity 0.0975980402449704 0.3461360354257743 -0.8471564673722194
atom 18.0221153846153861 2.5745879120879125 7.9166208791208774 Zr
    velocity -0.3426893084684089 0.7246238269426665 0.5168658548458553