#=======================================================
# FHI-aims file: 1400_geometry.in.primitive.supercell_324
# Created using the Atomic Simulation Environment (ASE)
# Wed Jan 11 12:38:00 2023

# Additional information:
#  Number of atoms:     324
#  Spacegroup:          137
#  supercell:           True
#  supercell_matrix:    [3, 0, 0, 0, 3, 0, 0, 0, 3]
#  Supercell matrix:    [3 0 0 0 3 0 0 0 3]
#=======================================================
lattice_vector 15.4475274725274758 0.0000000000000000 0.0000000000000000 
lattice_vector 0.0000000000000000 15.4475274725274758 0.0000000000000000 
lattice_vector 0.0000000000000000 0.0000000000000000 15.8332417582417584 
atom_frac 0.1666666666666667 0.0000000000000000 0.0000000000000000 Zr
atom_frac 0.4999999999999999 0.0000000000000000 0.0000000000000000 Zr
atom_frac 0.8333333333333331 0.0000000000000000 0.0000000000000000 Zr
atom_frac 0.1666666666666667 0.3333333333333333 0.0000000000000000 Zr
atom_frac 0.4999999999999999 0.3333333333333333 0.0000000000000000 Zr
atom_frac 0.8333333333333331 0.3333333333333333 0.0000000000000000 Zr
atom_frac 0.1666666666666667 0.6666666666666666 0.0000000000000000 Zr
atom_frac 0.4999999999999999 0.6666666666666666 0.0000000000000000 Zr
atom_frac 0.8333333333333331 0.6666666666666666 0.0000000000000000 Zr
atom_frac 0.1666666666666667 0.0000000000000000 0.3333333333333333 Zr
atom_frac 0.4999999999999999 0.0000000000000000 0.3333333333333333 Zr
atom_frac 0.8333333333333331 0.0000000000000000 0.3333333333333333 Zr
atom_frac 0.1666666666666667 0.3333333333333333 0.3333333333333333 Zr
atom_frac 0.4999999999999999 0.3333333333333333 0.3333333333333333 Zr
atom_frac 0.8333333333333331 0.3333333333333333 0.3333333333333333 Zr
atom_frac 0.1666666666666667 0.6666666666666666 0.3333333333333333 Zr
atom_frac 0.4999999999999999 0.6666666666666666 0.3333333333333333 Zr
atom_frac 0.8333333333333331 0.6666666666666666 0.3333333333333333 Zr
atom_frac 0.1666666666666667 0.0000000000000000 0.6666666666666666 Zr
atom_frac 0.4999999999999999 0.0000000000000000 0.6666666666666666 Zr
atom_frac 0.8333333333333331 0.0000000000000000 0.6666666666666666 Zr
atom_frac 0.1666666666666667 0.3333333333333333 0.6666666666666666 Zr
atom_frac 0.4999999999999999 0.3333333333333333 0.6666666666666666 Zr
atom_frac 0.8333333333333331 0.3333333333333333 0.6666666666666666 Zr
atom_frac 0.1666666666666667 0.6666666666666666 0.6666666666666666 Zr
atom_frac 0.4999999999999999 0.6666666666666666 0.6666666666666666 Zr
atom_frac 0.8333333333333331 0.6666666666666666 0.6666666666666666 Zr
atom_frac 0.0000000000000000 0.1666666666666667 0.0000000000000000 Zr
atom_frac 0.3333333333333333 0.1666666666666667 0.0000000000000000 Zr
atom_frac 0.6666666666666666 0.1666666666666667 0.0000000000000000 Zr
atom_frac 0.0000000000000000 0.4999999999999999 0.0000000000000000 Zr
atom_frac 0.3333333333333333 0.4999999999999999 0.0000000000000000 Zr
atom_frac 0.6666666666666666 0.4999999999999999 0.0000000000000000 Zr
atom_frac 0.0000000000000000 0.8333333333333331 0.0000000000000000 Zr
atom_frac 0.3333333333333333 0.8333333333333331 0.0000000000000000 Zr
atom_frac 0.6666666666666666 0.8333333333333331 0.0000000000000000 Zr
atom_frac 0.0000000000000000 0.1666666666666667 0.3333333333333333 Zr
atom_frac 0.3333333333333333 0.1666666666666667 0.3333333333333333 Zr
atom_frac 0.6666666666666666 0.1666666666666667 0.3333333333333333 Zr
atom_frac 0.0000000000000000 0.4999999999999999 0.3333333333333333 Zr
atom_frac 0.3333333333333333 0.4999999999999999 0.3333333333333333 Zr
atom_frac 0.6666666666666666 0.4999999999999999 0.3333333333333333 Zr
atom_frac 0.0000000000000000 0.8333333333333331 0.3333333333333333 Zr
atom_frac 0.3333333333333333 0.8333333333333331 0.3333333333333333 Zr
atom_frac 0.6666666666666666 0.8333333333333331 0.3333333333333333 Zr
atom_frac 0.0000000000000000 0.1666666666666667 0.6666666666666666 Zr
atom_frac 0.3333333333333333 0.1666666666666667 0.6666666666666666 Zr
atom_frac 0.6666666666666666 0.1666666666666667 0.6666666666666666 Zr
atom_frac 0.0000000000000000 0.4999999999999999 0.6666666666666666 Zr
atom_frac 0.3333333333333333 0.4999999999999999 0.6666666666666666 Zr
atom_frac 0.6666666666666666 0.4999999999999999 0.6666666666666666 Zr
atom_frac 0.0000000000000000 0.8333333333333331 0.6666666666666666 Zr
atom_frac 0.3333333333333333 0.8333333333333331 0.6666666666666666 Zr
atom_frac 0.6666666666666666 0.8333333333333331 0.6666666666666666 Zr
atom_frac 0.0000000000000000 0.0000000000000000 0.1666666666666667 Zr
atom_frac 0.3333333333333333 0.0000000000000000 0.1666666666666667 Zr
atom_frac 0.6666666666666666 0.0000000000000000 0.1666666666666667 Zr
atom_frac 0.0000000000000000 0.3333333333333333 0.1666666666666667 Zr
atom_frac 0.3333333333333333 0.3333333333333333 0.1666666666666667 Zr
atom_frac 0.6666666666666666 0.3333333333333333 0.1666666666666667 Zr
atom_frac 0.0000000000000000 0.6666666666666666 0.1666666666666667 Zr
atom_frac 0.3333333333333333 0.6666666666666666 0.1666666666666667 Zr
atom_frac 0.6666666666666666 0.6666666666666666 0.1666666666666667 Zr
atom_frac 0.0000000000000000 0.0000000000000000 0.5000000000000000 Zr
atom_frac 0.3333333333333333 0.0000000000000000 0.5000000000000000 Zr
atom_frac 0.6666666666666666 0.0000000000000000 0.5000000000000000 Zr
atom_frac 0.0000000000000000 0.3333333333333333 0.5000000000000000 Zr
atom_frac 0.3333333333333333 0.3333333333333333 0.5000000000000000 Zr
atom_frac 0.6666666666666666 0.3333333333333333 0.5000000000000000 Zr
atom_frac 0.0000000000000000 0.6666666666666666 0.5000000000000000 Zr
atom_frac 0.3333333333333333 0.6666666666666666 0.5000000000000000 Zr
atom_frac 0.6666666666666666 0.6666666666666666 0.5000000000000000 Zr
atom_frac 0.0000000000000000 0.0000000000000000 0.8333333333333333 Zr
atom_frac 0.3333333333333333 0.0000000000000000 0.8333333333333333 Zr
atom_frac 0.6666666666666666 0.0000000000000000 0.8333333333333333 Zr
atom_frac 0.0000000000000000 0.3333333333333333 0.8333333333333333 Zr
atom_frac 0.3333333333333333 0.3333333333333333 0.8333333333333333 Zr
atom_frac 0.6666666666666666 0.3333333333333333 0.8333333333333333 Zr
atom_frac 0.0000000000000000 0.6666666666666666 0.8333333333333333 Zr
atom_frac 0.3333333333333333 0.6666666666666666 0.8333333333333333 Zr
atom_frac 0.6666666666666666 0.6666666666666666 0.8333333333333333 Zr
atom_frac 0.1666666666666667 0.1666666666666667 0.1666666666666667 Zr
atom_frac 0.4999999999999999 0.1666666666666667 0.1666666666666667 Zr
atom_frac 0.8333333333333331 0.1666666666666667 0.1666666666666667 Zr
atom_frac 0.1666666666666667 0.4999999999999999 0.1666666666666667 Zr
atom_frac 0.4999999999999999 0.4999999999999999 0.1666666666666667 Zr
atom_frac 0.8333333333333331 0.4999999999999999 0.1666666666666667 Zr
atom_frac 0.1666666666666667 0.8333333333333331 0.1666666666666667 Zr
atom_frac 0.4999999999999999 0.8333333333333331 0.1666666666666667 Zr
atom_frac 0.8333333333333331 0.8333333333333331 0.1666666666666667 Zr
atom_frac 0.1666666666666667 0.1666666666666667 0.5000000000000000 Zr
atom_frac 0.4999999999999999 0.1666666666666667 0.5000000000000000 Zr
atom_frac 0.8333333333333331 0.1666666666666667 0.5000000000000000 Zr
atom_frac 0.1666666666666667 0.4999999999999999 0.5000000000000000 Zr
atom_frac 0.4999999999999999 0.4999999999999999 0.5000000000000000 Zr
atom_frac 0.8333333333333331 0.4999999999999999 0.5000000000000000 Zr
atom_frac 0.1666666666666667 0.8333333333333331 0.5000000000000000 Zr
atom_frac 0.4999999999999999 0.8333333333333331 0.5000000000000000 Zr
atom_frac 0.8333333333333331 0.8333333333333331 0.5000000000000000 Zr
atom_frac 0.1666666666666667 0.1666666666666667 0.8333333333333333 Zr
atom_frac 0.4999999999999999 0.1666666666666667 0.8333333333333333 Zr
atom_frac 0.8333333333333331 0.1666666666666667 0.8333333333333333 Zr
atom_frac 0.1666666666666667 0.4999999999999999 0.8333333333333333 Zr
atom_frac 0.4999999999999999 0.4999999999999999 0.8333333333333333 Zr
atom_frac 0.8333333333333331 0.4999999999999999 0.8333333333333333 Zr
atom_frac 0.1666666666666667 0.8333333333333331 0.8333333333333333 Zr
atom_frac 0.4999999999999999 0.8333333333333331 0.8333333333333333 Zr
atom_frac 0.8333333333333331 0.8333333333333331 0.8333333333333333 Zr
atom_frac 0.0833333333333333 0.2499999999999999 0.0669601329846667 O
atom_frac 0.4166666666666666 0.2499999999999999 0.0669601329846667 O
atom_frac 0.7500000000000000 0.2499999999999999 0.0669601329846667 O
atom_frac 0.0833333333333333 0.5833333333333333 0.0669601329846667 O
atom_frac 0.4166666666666666 0.5833333333333333 0.0669601329846667 O
atom_frac 0.7500000000000000 0.5833333333333333 0.0669601329846667 O
atom_frac 0.0833333333333333 0.9166666666666665 0.0669601329846667 O
atom_frac 0.4166666666666666 0.9166666666666665 0.0669601329846667 O
atom_frac 0.7500000000000000 0.9166666666666665 0.0669601329846667 O
atom_frac 0.0833333333333333 0.2499999999999999 0.4002934663180000 O
atom_frac 0.4166666666666666 0.2499999999999999 0.4002934663180000 O
atom_frac 0.7500000000000000 0.2499999999999999 0.4002934663180000 O
atom_frac 0.0833333333333333 0.5833333333333333 0.4002934663180000 O
atom_frac 0.4166666666666666 0.5833333333333333 0.4002934663180000 O
atom_frac 0.7500000000000000 0.5833333333333333 0.4002934663180000 O
atom_frac 0.0833333333333333 0.9166666666666665 0.4002934663180000 O
atom_frac 0.4166666666666666 0.9166666666666665 0.4002934663180000 O
atom_frac 0.7500000000000000 0.9166666666666665 0.4002934663180000 O
atom_frac 0.0833333333333333 0.2499999999999999 0.7336267996513334 O
atom_frac 0.4166666666666666 0.2499999999999999 0.7336267996513334 O
atom_frac 0.7500000000000000 0.2499999999999999 0.7336267996513334 O
atom_frac 0.0833333333333333 0.5833333333333333 0.7336267996513334 O
atom_frac 0.4166666666666666 0.5833333333333333 0.7336267996513334 O
atom_frac 0.7500000000000000 0.5833333333333333 0.7336267996513334 O
atom_frac 0.0833333333333333 0.9166666666666665 0.7336267996513334 O
atom_frac 0.4166666666666666 0.9166666666666665 0.7336267996513334 O
atom_frac 0.7500000000000000 0.9166666666666665 0.7336267996513334 O
atom_frac 0.2499999999999999 0.0833333333333333 0.0669601329846667 O
atom_frac 0.5833333333333333 0.0833333333333333 0.0669601329846667 O
atom_frac 0.9166666666666665 0.0833333333333333 0.0669601329846667 O
atom_frac 0.2499999999999999 0.4166666666666666 0.0669601329846667 O
atom_frac 0.5833333333333333 0.4166666666666666 0.0669601329846667 O
atom_frac 0.9166666666666665 0.4166666666666666 0.0669601329846667 O
atom_frac 0.2499999999999999 0.7500000000000000 0.0669601329846667 O
atom_frac 0.5833333333333333 0.7500000000000000 0.0669601329846667 O
atom_frac 0.9166666666666665 0.7500000000000000 0.0669601329846667 O
atom_frac 0.2499999999999999 0.0833333333333333 0.4002934663180000 O
atom_frac 0.5833333333333333 0.0833333333333333 0.4002934663180000 O
atom_frac 0.9166666666666665 0.0833333333333333 0.4002934663180000 O
atom_frac 0.2499999999999999 0.4166666666666666 0.4002934663180000 O
atom_frac 0.5833333333333333 0.4166666666666666 0.4002934663180000 O
atom_frac 0.9166666666666665 0.4166666666666666 0.4002934663180000 O
atom_frac 0.2499999999999999 0.7500000000000000 0.4002934663180000 O
atom_frac 0.5833333333333333 0.7500000000000000 0.4002934663180000 O
atom_frac 0.9166666666666665 0.7500000000000000 0.4002934663180000 O
atom_frac 0.2499999999999999 0.0833333333333333 0.7336267996513334 O
atom_frac 0.5833333333333333 0.0833333333333333 0.7336267996513334 O
atom_frac 0.9166666666666665 0.0833333333333333 0.7336267996513334 O
atom_frac 0.2499999999999999 0.4166666666666666 0.7336267996513334 O
atom_frac 0.5833333333333333 0.4166666666666666 0.7336267996513334 O
atom_frac 0.9166666666666665 0.4166666666666666 0.7336267996513334 O
atom_frac 0.2499999999999999 0.7500000000000000 0.7336267996513334 O
atom_frac 0.5833333333333333 0.7500000000000000 0.7336267996513334 O
atom_frac 0.9166666666666665 0.7500000000000000 0.7336267996513334 O
atom_frac 0.0833333333333333 0.2499999999999999 0.2336267996513333 O
atom_frac 0.4166666666666666 0.2499999999999999 0.2336267996513333 O
atom_frac 0.7500000000000000 0.2499999999999999 0.2336267996513333 O
atom_frac 0.0833333333333333 0.5833333333333333 0.2336267996513333 O
atom_frac 0.4166666666666666 0.5833333333333333 0.2336267996513333 O
atom_frac 0.7500000000000000 0.5833333333333333 0.2336267996513333 O
atom_frac 0.0833333333333333 0.9166666666666665 0.2336267996513333 O
atom_frac 0.4166666666666666 0.9166666666666665 0.2336267996513333 O
atom_frac 0.7500000000000000 0.9166666666666665 0.2336267996513333 O
atom_frac 0.0833333333333333 0.2499999999999999 0.5669601329846665 O
atom_frac 0.4166666666666666 0.2499999999999999 0.5669601329846665 O
atom_frac 0.7500000000000000 0.2499999999999999 0.5669601329846665 O
atom_frac 0.0833333333333333 0.5833333333333333 0.5669601329846665 O
atom_frac 0.4166666666666666 0.5833333333333333 0.5669601329846665 O
atom_frac 0.7500000000000000 0.5833333333333333 0.5669601329846665 O
atom_frac 0.0833333333333333 0.9166666666666665 0.5669601329846665 O
atom_frac 0.4166666666666666 0.9166666666666665 0.5669601329846665 O
atom_frac 0.7500000000000000 0.9166666666666665 0.5669601329846665 O
atom_frac 0.0833333333333333 0.2499999999999999 0.9002934663179999 O
atom_frac 0.4166666666666666 0.2499999999999999 0.9002934663179999 O
atom_frac 0.7500000000000000 0.2499999999999999 0.9002934663179999 O
atom_frac 0.0833333333333333 0.5833333333333333 0.9002934663179999 O
atom_frac 0.4166666666666666 0.5833333333333333 0.9002934663179999 O
atom_frac 0.7500000000000000 0.5833333333333333 0.9002934663179999 O
atom_frac 0.0833333333333333 0.9166666666666665 0.9002934663179999 O
atom_frac 0.4166666666666666 0.9166666666666665 0.9002934663179999 O
atom_frac 0.7500000000000000 0.9166666666666665 0.9002934663179999 O
atom_frac 0.2499999999999999 0.0833333333333333 0.2336267996513333 O
atom_frac 0.5833333333333333 0.0833333333333333 0.2336267996513333 O
atom_frac 0.9166666666666665 0.0833333333333333 0.2336267996513333 O
atom_frac 0.2499999999999999 0.4166666666666666 0.2336267996513333 O
atom_frac 0.5833333333333333 0.4166666666666666 0.2336267996513333 O
atom_frac 0.9166666666666665 0.4166666666666666 0.2336267996513333 O
atom_frac 0.2499999999999999 0.7500000000000000 0.2336267996513333 O
atom_frac 0.5833333333333333 0.7500000000000000 0.2336267996513333 O
atom_frac 0.9166666666666665 0.7500000000000000 0.2336267996513333 O
atom_frac 0.2499999999999999 0.0833333333333333 0.5669601329846665 O
atom_frac 0.5833333333333333 0.0833333333333333 0.5669601329846665 O
atom_frac 0.9166666666666665 0.0833333333333333 0.5669601329846665 O
atom_frac 0.2499999999999999 0.4166666666666666 0.5669601329846665 O
atom_frac 0.5833333333333333 0.4166666666666666 0.5669601329846665 O
atom_frac 0.9166666666666665 0.4166666666666666 0.5669601329846665 O
atom_frac 0.2499999999999999 0.7500000000000000 0.5669601329846665 O
atom_frac 0.5833333333333333 0.7500000000000000 0.5669601329846665 O
atom_frac 0.9166666666666665 0.7500000000000000 0.5669601329846665 O
atom_frac 0.2499999999999999 0.0833333333333333 0.9002934663179999 O
atom_frac 0.5833333333333333 0.0833333333333333 0.9002934663179999 O
atom_frac 0.9166666666666665 0.0833333333333333 0.9002934663179999 O
atom_frac 0.2499999999999999 0.4166666666666666 0.9002934663179999 O
atom_frac 0.5833333333333333 0.4166666666666666 0.9002934663179999 O
atom_frac 0.9166666666666665 0.4166666666666666 0.9002934663179999 O
atom_frac 0.2499999999999999 0.7500000000000000 0.9002934663179999 O
atom_frac 0.5833333333333333 0.7500000000000000 0.9002934663179999 O
atom_frac 0.9166666666666665 0.7500000000000000 0.9002934663179999 O
atom_frac 0.0833333333333333 0.0833333333333333 0.2663732003486666 O
atom_frac 0.4166666666666666 0.0833333333333333 0.2663732003486666 O
atom_frac 0.7500000000000000 0.0833333333333333 0.2663732003486666 O
atom_frac 0.0833333333333333 0.4166666666666666 0.2663732003486666 O
atom_frac 0.4166666666666666 0.4166666666666666 0.2663732003486666 O
atom_frac 0.7500000000000000 0.4166666666666666 0.2663732003486666 O
atom_frac 0.0833333333333333 0.7500000000000000 0.2663732003486666 O
atom_frac 0.4166666666666666 0.7500000000000000 0.2663732003486666 O
atom_frac 0.7500000000000000 0.7500000000000000 0.2663732003486666 O
atom_frac 0.0833333333333333 0.0833333333333333 0.5997065336819999 O
atom_frac 0.4166666666666666 0.0833333333333333 0.5997065336819999 O
atom_frac 0.7500000000000000 0.0833333333333333 0.5997065336819999 O
atom_frac 0.0833333333333333 0.4166666666666666 0.5997065336819999 O
atom_frac 0.4166666666666666 0.4166666666666666 0.5997065336819999 O
atom_frac 0.7500000000000000 0.4166666666666666 0.5997065336819999 O
atom_frac 0.0833333333333333 0.7500000000000000 0.5997065336819999 O
atom_frac 0.4166666666666666 0.7500000000000000 0.5997065336819999 O
atom_frac 0.7500000000000000 0.7500000000000000 0.5997065336819999 O
atom_frac 0.0833333333333333 0.0833333333333333 0.9330398670153333 O
atom_frac 0.4166666666666666 0.0833333333333333 0.9330398670153333 O
atom_frac 0.7500000000000000 0.0833333333333333 0.9330398670153333 O
atom_frac 0.0833333333333333 0.4166666666666666 0.9330398670153333 O
atom_frac 0.4166666666666666 0.4166666666666666 0.9330398670153333 O
atom_frac 0.7500000000000000 0.4166666666666666 0.9330398670153333 O
atom_frac 0.0833333333333333 0.7500000000000000 0.9330398670153333 O
atom_frac 0.4166666666666666 0.7500000000000000 0.9330398670153333 O
atom_frac 0.7500000000000000 0.7500000000000000 0.9330398670153333 O
atom_frac 0.2499999999999999 0.2499999999999999 0.2663732003486666 O
atom_frac 0.5833333333333333 0.2499999999999999 0.2663732003486666 O
atom_frac 0.9166666666666665 0.2499999999999999 0.2663732003486666 O
atom_frac 0.2499999999999999 0.5833333333333333 0.2663732003486666 O
atom_frac 0.5833333333333333 0.5833333333333333 0.2663732003486666 O
atom_frac 0.9166666666666665 0.5833333333333333 0.2663732003486666 O
atom_frac 0.2499999999999999 0.9166666666666665 0.2663732003486666 O
atom_frac 0.5833333333333333 0.9166666666666665 0.2663732003486666 O
atom_frac 0.9166666666666665 0.9166666666666665 0.2663732003486666 O
atom_frac 0.2499999999999999 0.2499999999999999 0.5997065336819999 O
atom_frac 0.5833333333333333 0.2499999999999999 0.5997065336819999 O
atom_frac 0.9166666666666665 0.2499999999999999 0.5997065336819999 O
atom_frac 0.2499999999999999 0.5833333333333333 0.5997065336819999 O
atom_frac 0.5833333333333333 0.5833333333333333 0.5997065336819999 O
atom_frac 0.9166666666666665 0.5833333333333333 0.5997065336819999 O
atom_frac 0.2499999999999999 0.9166666666666665 0.5997065336819999 O
atom_frac 0.5833333333333333 0.9166666666666665 0.5997065336819999 O
atom_frac 0.9166666666666665 0.9166666666666665 0.5997065336819999 O
atom_frac 0.2499999999999999 0.2499999999999999 0.9330398670153333 O
atom_frac 0.5833333333333333 0.2499999999999999 0.9330398670153333 O
atom_frac 0.9166666666666665 0.2499999999999999 0.9330398670153333 O
atom_frac 0.2499999999999999 0.5833333333333333 0.9330398670153333 O
atom_frac 0.5833333333333333 0.5833333333333333 0.9330398670153333 O
atom_frac 0.9166666666666665 0.5833333333333333 0.9330398670153333 O
atom_frac 0.2499999999999999 0.9166666666666665 0.9330398670153333 O
atom_frac 0.5833333333333333 0.9166666666666665 0.9330398670153333 O
atom_frac 0.9166666666666665 0.9166666666666665 0.9330398670153333 O
atom_frac 0.0833333333333333 0.0833333333333333 0.0997065336820000 O
atom_frac 0.4166666666666666 0.0833333333333333 0.0997065336820000 O
atom_frac 0.7500000000000000 0.0833333333333333 0.0997065336820000 O
atom_frac 0.0833333333333333 0.4166666666666666 0.0997065336820000 O
atom_frac 0.4166666666666666 0.4166666666666666 0.0997065336820000 O
atom_frac 0.7500000000000000 0.4166666666666666 0.0997065336820000 O
atom_frac 0.0833333333333333 0.7500000000000000 0.0997065336820000 O
atom_frac 0.4166666666666666 0.7500000000000000 0.0997065336820000 O
atom_frac 0.7500000000000000 0.7500000000000000 0.0997065336820000 O
atom_frac 0.0833333333333333 0.0833333333333333 0.4330398670153333 O
atom_frac 0.4166666666666666 0.0833333333333333 0.4330398670153333 O
atom_frac 0.7500000000000000 0.0833333333333333 0.4330398670153333 O
atom_frac 0.0833333333333333 0.4166666666666666 0.4330398670153333 O
atom_frac 0.4166666666666666 0.4166666666666666 0.4330398670153333 O
atom_frac 0.7500000000000000 0.4166666666666666 0.4330398670153333 O
atom_frac 0.0833333333333333 0.7500000000000000 0.4330398670153333 O
atom_frac 0.4166666666666666 0.7500000000000000 0.4330398670153333 O
atom_frac 0.7500000000000000 0.7500000000000000 0.4330398670153333 O
atom_frac 0.0833333333333333 0.0833333333333333 0.7663732003486665 O
atom_frac 0.4166666666666666 0.0833333333333333 0.7663732003486665 O
atom_frac 0.7500000000000000 0.0833333333333333 0.7663732003486665 O
atom_frac 0.0833333333333333 0.4166666666666666 0.7663732003486665 O
atom_frac 0.4166666666666666 0.4166666666666666 0.7663732003486665 O
atom_frac 0.7500000000000000 0.4166666666666666 0.7663732003486665 O
atom_frac 0.0833333333333333 0.7500000000000000 0.7663732003486665 O
atom_frac 0.4166666666666666 0.7500000000000000 0.7663732003486665 O
atom_frac 0.7500000000000000 0.7500000000000000 0.7663732003486665 O
atom_frac 0.2499999999999999 0.2499999999999999 0.0997065336820000 O
atom_frac 0.5833333333333333 0.2499999999999999 0.0997065336820000 O
atom_frac 0.9166666666666665 0.2499999999999999 0.0997065336820000 O
atom_frac 0.2499999999999999 0.5833333333333333 0.0997065336820000 O
atom_frac 0.5833333333333333 0.5833333333333333 0.0997065336820000 O
atom_frac 0.9166666666666665 0.5833333333333333 0.0997065336820000 O
atom_frac 0.2499999999999999 0.9166666666666665 0.0997065336820000 O
atom_frac 0.5833333333333333 0.9166666666666665 0.0997065336820000 O
atom_frac 0.9166666666666665 0.9166666666666665 0.0997065336820000 O
atom_frac 0.2499999999999999 0.2499999999999999 0.4330398670153333 O
atom_frac 0.5833333333333333 0.2499999999999999 0.4330398670153333 O
atom_frac 0.9166666666666665 0.2499999999999999 0.4330398670153333 O
atom_frac 0.2499999999999999 0.5833333333333333 0.4330398670153333 O
atom_frac 0.5833333333333333 0.5833333333333333 0.4330398670153333 O
atom_frac 0.9166666666666665 0.5833333333333333 0.4330398670153333 O
atom_frac 0.2499999999999999 0.9166666666666665 0.4330398670153333 O
atom_frac 0.5833333333333333 0.9166666666666665 0.4330398670153333 O
atom_frac 0.9166666666666665 0.9166666666666665 0.4330398670153333 O
atom_frac 0.2499999999999999 0.2499999999999999 0.7663732003486665 O
atom_frac 0.5833333333333333 0.2499999999999999 0.7663732003486665 O
atom_frac 0.9166666666666665 0.2499999999999999 0.7663732003486665 O
atom_frac 0.2499999999999999 0.5833333333333333 0.7663732003486665 O
atom_frac 0.5833333333333333 0.5833333333333333 0.7663732003486665 O
atom_frac 0.9166666666666665 0.5833333333333333 0.7663732003486665 O
atom_frac 0.2499999999999999 0.9166666666666665 0.7663732003486665 O
atom_frac 0.5833333333333333 0.9166666666666665 0.7663732003486665 O
atom_frac 0.9166666666666665 0.9166666666666665 0.7663732003486665 O
