#=======================================================
# FHI-aims file: 1400_geometry.in.primitive.supercell_96.0010K
# Created using the Atomic Simulation Environment (ASE)
# Wed Jan 11 12:38:28 2023

# Additional information:
#  created from MB distrubtion
#  T = 10.0 K
#  quantum:             False
#  deterministic:       False
#  plus_minus:          False
#  gauge_eigenvectors:  False
#  Random seed:         1640462503
#  Sample number:       1
#=======================================================
lattice_vector 10.2983516483516500 0.0000000000000000 0.0000000000000000 
lattice_vector 0.0000000000000000 10.2983516483516500 0.0000000000000000 
lattice_vector 0.0000000000000000 0.0000000000000000 10.5554945054945062 
atom 2.5745879120879125 0.0000000000000000 0.0000000000000000 Zr
    velocity -0.5492351087176162 -0.1807695737115456 -0.2311668542183653
atom 7.7237637362637379 0.0000000000000000 0.0000000000000000 Zr
    velocity -0.2886369929898387 -0.0684566046892876 -0.3396579622400742
atom 2.5745879120879125 5.1491758241758250 0.0000000000000000 Zr
    velocity 0.3761095740554644 -0.3549076612590757 0.1571955475826563
atom 7.7237637362637379 5.1491758241758250 0.0000000000000000 Zr
    velocity 0.2701328648166357 0.1589289038348383 0.4139086699178494
atom 2.5745879120879125 0.0000000000000000 5.2777472527472531 Zr
    velocity -0.3535055682335429 -0.1042647192862281 0.0245735538826174
atom 7.7237637362637379 0.0000000000000000 5.2777472527472531 Zr
    velocity -0.4745291545806928 0.2848556725123561 0.0069271538363053
atom 2.5745879120879125 5.1491758241758250 5.2777472527472531 Zr
    velocity 0.0930105588274560 0.4530176339944364 0.2632726554900780
atom 7.7237637362637379 5.1491758241758250 5.2777472527472531 Zr
    velocity -0.1369271643454683 -0.0580304052847438 -0.1629556427477053
atom 0.0000000000000000 2.5745879120879125 0.0000000000000000 Zr
    velocity 0.1509472278015435 -0.4124611979876777 -0.0550641601326200
atom 5.1491758241758250 2.5745879120879125 0.0000000000000000 Zr
    velocity -0.0855070291547127 0.1062070148702319 -0.1936484760016226
atom 0.0000000000000000 7.7237637362637379 0.0000000000000000 Zr
    velocity 0.4594994337067193 0.1823818100405938 -0.0640254601119873
atom 5.1491758241758250 7.7237637362637379 0.0000000000000000 Zr
    velocity 0.2368636501534668 0.1123863350381569 -0.0524223793071010
atom 0.0000000000000000 2.5745879120879125 5.2777472527472531 Zr
    velocity 0.1999138404425388 0.3346034228814284 0.5152237024171790
atom 5.1491758241758250 2.5745879120879125 5.2777472527472531 Zr
    velocity 0.0540453030525221 -0.0487093367824965 0.2790551717890108
atom 0.0000000000000000 7.7237637362637379 5.2777472527472531 Zr
    velocity -0.1988149088849681 -0.5000688270746753 -0.1110106800753466
atom 5.1491758241758250 7.7237637362637379 5.2777472527472531 Zr
    velocity 0.1386312125767493 -0.1767428207372610 -0.1356871981969748
atom 0.0000000000000000 0.0000000000000000 2.6388736263736265 Zr
    velocity -0.5199778673562915 0.2535304098087895 0.3363810739625522
atom 5.1491758241758250 0.0000000000000000 2.6388736263736265 Zr
    velocity -0.1405572736867564 -0.1025968683874632 -0.0238453732833474
atom 0.0000000000000000 5.1491758241758250 2.6388736263736265 Zr
    velocity -0.1518830171087280 0.2253566967660568 -0.2879968678118571
atom 5.1491758241758250 5.1491758241758250 2.6388736263736265 Zr
    velocity -0.3519638339939103 -0.4571564521376303 -0.1229969306163465
atom 0.0000000000000000 0.0000000000000000 7.9166208791208783 Zr
    velocity -0.2273415713587821 0.0378025402869137 0.1793667459707469
atom 5.1491758241758250 0.0000000000000000 7.9166208791208783 Zr
    velocity 0.1367918750318402 0.0990603812501452 -0.0699620604358164
atom 0.0000000000000000 5.1491758241758250 7.9166208791208783 Zr
    velocity -0.3809715310813762 -0.1618646675787462 -0.2598019067271993
atom 5.1491758241758250 5.1491758241758250 7.9166208791208783 Zr
    velocity 0.1819934564731253 -0.0421105084593810 -0.2730838986599709
atom 2.5745879120879125 2.5745879120879125 2.6388736263736265 Zr
    velocity -0.1836799930935936 0.2460309841467400 -0.3640390168174255
atom 7.7237637362637379 2.5745879120879125 2.6388736263736265 Zr
    velocity 0.7358883429575446 0.4699584880993829 0.1591971114915296
atom 2.5745879120879125 7.7237637362637379 2.6388736263736265 Zr
    velocity -0.1021866731864091 -0.1687831181276379 0.2447216755434998
atom 7.7237637362637379 7.7237637362637379 2.6388736263736265 Zr
    velocity -0.0637677662916383 -0.2400292728180771 0.0540425379301149
atom 2.5745879120879125 2.5745879120879125 7.9166208791208783 Zr
    velocity 0.2757053586768721 -0.0376284085236769 -0.3685142810058759
atom 7.7237637362637379 2.5745879120879125 7.9166208791208783 Zr
    velocity 0.3878495240926921 -0.2715789402205727 -0.1389649814220729
atom 2.5745879120879125 7.7237637362637379 7.9166208791208783 Zr
    velocity 0.1042142950515893 -0.0117022293555274 -0.0196374913599217
atom 7.7237637362637379 7.7237637362637379 7.9166208791208783 Zr
    velocity -0.1615471834639872 0.4398082451565989 -0.3747586768069036
atom 1.2872939560439562 3.8618818681318676 1.0601959737102458 O
    velocity -0.3910388683248822 0.6583731209950175 -0.2206461362075928
atom 6.4364697802197810 3.8618818681318676 1.0601959737102458 O
    velocity -1.3439806597106687 -0.1234526356942461 0.0258155867233525
atom 1.2872939560439562 9.0110576923076930 1.0601959737102458 O
    velocity 0.2198491285222577 -0.0579445300651072 0.9835684274145410
atom 6.4364697802197810 9.0110576923076930 1.0601959737102458 O
    velocity -0.1113232494561092 1.2414511029542554 -0.1067211651723270
atom 1.2872939560439562 3.8618818681318676 6.3379432264574991 O
    velocity 1.9547993311607057 -0.1031823157774271 1.2111150606969823
atom 6.4364697802197810 3.8618818681318676 6.3379432264574991 O
    velocity 0.4825006745857576 1.1487042653889101 0.1471159060339917
atom 1.2872939560439562 9.0110576923076930 6.3379432264574991 O
    velocity 0.2284626329713482 -0.9850702469952014 0.0660897895575149
atom 6.4364697802197810 9.0110576923076930 6.3379432264574991 O
    velocity 0.2786446376623565 -1.0331009354477978 -0.4579394567975733
atom 3.8618818681318676 1.2872939560439562 1.0601959737102458 O
    velocity 0.6564412264647680 1.2739999593872116 0.2707234603808072
atom 9.0110576923076930 1.2872939560439562 1.0601959737102458 O
    velocity -0.3161521932710919 0.4060177564828061 -0.8678130967134490
atom 3.8618818681318676 6.4364697802197810 1.0601959737102458 O
    velocity -1.1279068219472776 -1.4294584863087820 0.7612288540592107
atom 9.0110576923076930 6.4364697802197810 1.0601959737102458 O
    velocity -0.3296887399776333 0.8542515724739418 -0.8278290217030781
atom 3.8618818681318676 1.2872939560439562 6.3379432264574991 O
    velocity -0.1552007767764940 -0.1431664378238218 -0.2340361460493235
atom 9.0110576923076930 1.2872939560439562 6.3379432264574991 O
    velocity -0.1148529759200989 -2.0880653774434270 0.3683910917055892
atom 3.8618818681318676 6.4364697802197810 6.3379432264574991 O
    velocity -0.6762904422859967 0.1330976785003047 -0.1752609320689316
atom 9.0110576923076930 6.4364697802197810 6.3379432264574991 O
    velocity 0.2373278252167334 0.6744205032282647 0.1180654231376305
atom 1.2872939560439562 3.8618818681318676 3.6990696000838712 O
    velocity -1.2672858320419771 0.6607732985684995 0.7388468037445932
atom 6.4364697802197810 3.8618818681318676 3.6990696000838712 O
    velocity 1.5907700309442341 -0.2500422103452430 -0.8409314184126510
atom 1.2872939560439562 9.0110576923076930 3.6990696000838712 O
    velocity 0.8301808312886289 -0.3911004932322485 -0.1355255776573097
atom 6.4364697802197810 9.0110576923076930 3.6990696000838712 O
    velocity -0.2743791824392460 -0.4190900353316033 -0.6516699329319622
atom 1.2872939560439562 3.8618818681318676 8.9768168528311243 O
    velocity -1.0924539799374273 -0.8635963501836108 0.2369283520949116
atom 6.4364697802197810 3.8618818681318676 8.9768168528311243 O
    velocity -0.0476736653426898 -0.5105156072157641 -0.1394842411438015
atom 1.2872939560439562 9.0110576923076930 8.9768168528311243 O
    velocity 1.2015676778727344 0.2249015641991021 -0.1048544995206308
atom 6.4364697802197810 9.0110576923076930 8.9768168528311243 O
    velocity 0.6553559231342488 1.2319359221721853 -1.2012431207189922
atom 3.8618818681318676 1.2872939560439562 3.6990696000838712 O
    velocity 0.4418648068350439 0.3284249682242770 0.7011576849041736
atom 9.0110576923076930 1.2872939560439562 3.6990696000838712 O
    velocity 0.5280512479652709 0.1468832544074259 1.0044836726684703
atom 3.8618818681318676 6.4364697802197810 3.6990696000838712 O
    velocity 0.2649759385547303 0.0888918907489058 0.9987228942922083
atom 9.0110576923076930 6.4364697802197810 3.6990696000838712 O
    velocity 0.0195120359894343 -0.7930832117025923 -0.3492967861982401
atom 3.8618818681318676 1.2872939560439562 8.9768168528311243 O
    velocity -0.1681758768386027 -0.2017416239226970 0.4789048611228736
atom 9.0110576923076930 1.2872939560439562 8.9768168528311243 O
    velocity -0.0583854141608578 -0.3943870121050758 -0.7973279710122071
atom 3.8618818681318676 6.4364697802197810 8.9768168528311243 O
    velocity -0.0810604385687133 -1.2182869943562653 -0.8575560206249782
atom 9.0110576923076930 6.4364697802197810 8.9768168528311243 O
    velocity 1.5194263578036276 0.2127402280266460 -0.6982829171181858
atom 1.2872939560439562 1.2872939560439562 4.2175512790370062 O
    velocity 0.4844888612241448 -0.0943643109028328 -0.1773986776048015
atom 6.4364697802197810 1.2872939560439562 4.2175512790370062 O
    velocity -2.0249675805949718 0.7631882302564827 0.4211296477734193
atom 1.2872939560439562 6.4364697802197810 4.2175512790370062 O
    velocity 0.7181873692704643 0.7254118956506531 0.0941263917373299
atom 6.4364697802197810 6.4364697802197810 4.2175512790370062 O
    velocity 0.2906460331683447 0.2428619664365637 2.4180642543788338
atom 1.2872939560439562 1.2872939560439562 9.4952985317842593 O
    velocity 0.0793825596741398 1.4636230750515684 1.0701700787549091
atom 6.4364697802197810 1.2872939560439562 9.4952985317842593 O
    velocity -0.4079344903238098 0.5947651836244752 -0.8053898743677994
atom 1.2872939560439562 6.4364697802197810 9.4952985317842593 O
    velocity 0.4095680226234127 0.9450361637757303 -0.8576747026130669
atom 6.4364697802197810 6.4364697802197810 9.4952985317842593 O
    velocity -0.2737922887017941 -0.5589223475010893 0.2134740854060761
atom 3.8618818681318676 3.8618818681318676 4.2175512790370062 O
    velocity 0.3641849952332160 -0.1576592593311851 0.7700045917458427
atom 9.0110576923076930 3.8618818681318676 4.2175512790370062 O
    velocity 0.1811718518958809 0.0660458699941839 -0.6966196484831163
atom 3.8618818681318676 9.0110576923076930 4.2175512790370062 O
    velocity -0.1779608390536932 -0.6803859277595645 -0.7113256439554623
atom 9.0110576923076930 9.0110576923076930 4.2175512790370062 O
    velocity 1.0522853808351902 0.2409625525704302 -0.7347606938072776
atom 3.8618818681318676 3.8618818681318676 9.4952985317842593 O
    velocity 0.3158022406201885 0.0485860109589775 1.0177668426302751
atom 9.0110576923076930 3.8618818681318676 9.4952985317842593 O
    velocity -0.7820094535831805 0.9885176055187491 0.6255140997042646
atom 3.8618818681318676 9.0110576923076930 9.4952985317842593 O
    velocity -1.0933221651796028 -1.1265840776072433 -0.9862874288418462
atom 9.0110576923076930 9.0110576923076930 9.4952985317842593 O
    velocity 0.2465982345817510 -0.7211866384419686 0.2775842169212648
atom 1.2872939560439562 1.2872939560439562 1.5786776526633808 O
    velocity 1.3147548293038047 -0.3230904822080527 1.3684583350159703
atom 6.4364697802197810 1.2872939560439562 1.5786776526633808 O
    velocity 1.0320244954453368 -0.5275172082705243 0.3494125185562934
atom 1.2872939560439562 6.4364697802197810 1.5786776526633808 O
    velocity -1.5057886646768843 0.1254052104879634 -0.1372238524503347
atom 6.4364697802197810 6.4364697802197810 1.5786776526633808 O
    velocity 0.4876095499329873 0.7832037395652306 0.5458933299906834
atom 1.2872939560439562 1.2872939560439562 6.8564249054106341 O
    velocity 0.6413871484879855 -0.4190691995858508 -0.0937623453699670
atom 6.4364697802197810 1.2872939560439562 6.8564249054106341 O
    velocity -0.0975411649818730 0.8400732919094912 1.4864099818934835
atom 1.2872939560439562 6.4364697802197810 6.8564249054106341 O
    velocity -1.8436409008020320 -0.5262609548114761 -0.5616988703810323
atom 6.4364697802197810 6.4364697802197810 6.8564249054106341 O
    velocity -0.0129365373069993 -0.0015863987999211 0.2640876140805026
atom 3.8618818681318676 3.8618818681318676 1.5786776526633808 O
    velocity -0.5987948937396756 0.5394935858005517 -0.5548002171995944
atom 9.0110576923076930 3.8618818681318676 1.5786776526633808 O
    velocity -1.4235014540737028 -0.3436516520080755 0.0872998904613621
atom 3.8618818681318676 9.0110576923076930 1.5786776526633808 O
    velocity 0.7729587370890786 1.0351354820755825 0.4462789801301144
atom 9.0110576923076930 9.0110576923076930 1.5786776526633808 O
    velocity 0.2654855234786925 -0.2243678294995711 -0.1738514826329482
atom 3.8618818681318676 3.8618818681318676 6.8564249054106341 O
    velocity 0.9039239667376234 -0.6844520819736712 0.4325604732321327
atom 9.0110576923076930 3.8618818681318676 6.8564249054106341 O
    velocity -0.0108256326726184 -1.0184414966399957 0.4864434442776701
atom 3.8618818681318676 9.0110576923076930 6.8564249054106341 O
    velocity 1.1716719403744262 -0.8898574539337908 0.5356514874167666
atom 9.0110576923076930 9.0110576923076930 6.8564249054106341 O
    velocity -0.7861538994670599 0.5809121316452552 -0.0747555682583648
