#=======================================================
# FHI-aims file: 1500_geometry.in.primitive.supercell_1500.0010K
# Created using the Atomic Simulation Environment (ASE)
# Thu Jan  5 12:12:08 2023

# Additional information:
#  created from MB distrubtion
#  T = 10.0 K
#  quantum:             False
#  deterministic:       False
#  plus_minus:          False
#  gauge_eigenvectors:  False
#  Random seed:         726483959
#  Sample number:       1
#=======================================================
lattice_vector 25.7740384615384635 0.0000000000000000 0.0000000000000000 
lattice_vector 0.0000000000000000 25.7740384615384635 0.0000000000000000 
lattice_vector 0.0000000000000000 0.0000000000000000 26.4196428571428577 
atom 2.5774038461538464 0.0000000000000000 0.0000000000000000 Zr
    velocity 0.4889044449735073 -0.4621316370367948 0.2732523865867895
atom 7.7322115384615389 0.0000000000000000 0.0000000000000000 Zr
    velocity -0.0492410783401653 -0.0006162476255483 -0.3170806506973275
atom 12.8870192307692317 0.0000000000000000 0.0000000000000000 Zr
    velocity -0.1094848044850234 0.2160786524026894 0.2220173461243149
atom 18.0418269230769255 0.0000000000000000 0.0000000000000000 Zr
    velocity -0.2762048475908953 0.0178862812123276 0.0733536472677045
atom 23.1966346153846175 0.0000000000000000 0.0000000000000000 Zr
    velocity 0.2271257417306742 -0.0514669674451587 0.1015418952302828
atom 2.5774038461538464 5.1548076923076929 0.0000000000000000 Zr
    velocity 0.2308048658121165 -0.0710217282585908 0.4709384248170723
atom 7.7322115384615389 5.1548076923076929 0.0000000000000000 Zr
    velocity 0.3589551691713050 0.2405523887654443 -0.3597692213682154
atom 12.8870192307692317 5.1548076923076929 0.0000000000000000 Zr
    velocity 0.3783581675825172 0.2266582177370588 0.1094774673207676
atom 18.0418269230769255 5.1548076923076929 0.0000000000000000 Zr
    velocity 0.0599418469295872 -0.1067937179756732 0.3187483875018118
atom 23.1966346153846175 5.1548076923076929 0.0000000000000000 Zr
    velocity -0.3178126077025502 -0.2751697948412857 0.1455867832028946
atom 2.5774038461538464 10.3096153846153857 0.0000000000000000 Zr
    velocity 0.5728078842739893 0.2156700479619762 -0.0907290362673822
atom 7.7322115384615389 10.3096153846153857 0.0000000000000000 Zr
    velocity -0.6501774794566066 0.6162155877529952 0.0346727943549474
atom 12.8870192307692317 10.3096153846153857 0.0000000000000000 Zr
    velocity -0.1326545616246818 -0.0448125935611282 -0.1284288722805415
atom 18.0418269230769255 10.3096153846153857 0.0000000000000000 Zr
    velocity -0.1610496689568711 0.1036924977784072 -0.1176014800160493
atom 23.1966346153846175 10.3096153846153857 0.0000000000000000 Zr
    velocity 0.3426774885938754 0.2292039895247697 0.1029750040795018
atom 2.5774038461538464 15.4644230769230795 0.0000000000000000 Zr
    velocity -0.0442779731228739 -0.0336276069901125 -0.1674472411736157
atom 7.7322115384615389 15.4644230769230795 0.0000000000000000 Zr
    velocity -0.0192015102881253 0.7579784897068595 -0.0800143272544689
atom 12.8870192307692317 15.4644230769230795 0.0000000000000000 Zr
    velocity -0.1326903323932219 0.0664839980701563 0.0393171585038491
atom 18.0418269230769255 15.4644230769230795 0.0000000000000000 Zr
    velocity -0.2167988279524400 -0.0211663418331827 -0.2427327105772960
atom 23.1966346153846175 15.4644230769230795 0.0000000000000000 Zr
    velocity 0.2168757179180741 0.5390548905516258 -0.2515902516741366
atom 2.5774038461538464 20.6192307692307715 0.0000000000000000 Zr
    velocity -0.0591851614514763 -0.0115882229679408 -0.1346087180855181
atom 7.7322115384615389 20.6192307692307715 0.0000000000000000 Zr
    velocity 0.1260294178379001 0.1234142819472386 0.1288176325409461
atom 12.8870192307692317 20.6192307692307715 0.0000000000000000 Zr
    velocity 0.1019278414580954 0.1628969844026234 0.0024514013863673
atom 18.0418269230769255 20.6192307692307715 0.0000000000000000 Zr
    velocity -0.6901538703616086 -0.4013189048065289 0.1591192259854117
atom 23.1966346153846175 20.6192307692307715 0.0000000000000000 Zr
    velocity -0.1578644570910938 0.1231808866231176 0.0443628033390513
atom 2.5774038461538464 0.0000000000000000 5.2839285714285715 Zr
    velocity 0.2679580748401951 -0.5326663909358804 -0.0835548425233504
atom 7.7322115384615389 0.0000000000000000 5.2839285714285715 Zr
    velocity 0.0360723906008829 0.1920708401395498 -0.2565963724452801
atom 12.8870192307692317 0.0000000000000000 5.2839285714285715 Zr
    velocity -0.3949873938200765 -0.1134377065427549 0.4142424361449830
atom 18.0418269230769255 0.0000000000000000 5.2839285714285715 Zr
    velocity -0.0430820948636339 -0.0808062669700915 -0.0288218393380338
atom 23.1966346153846175 0.0000000000000000 5.2839285714285715 Zr
    velocity 0.0437941790098391 0.2348690301296796 -0.3589058798103211
atom 2.5774038461538464 5.1548076923076929 5.2839285714285715 Zr
    velocity -0.1268658130438822 0.2164966568051650 0.3110581423418725
atom 7.7322115384615389 5.1548076923076929 5.2839285714285715 Zr
    velocity -0.2126579816964328 0.1154998266047956 -0.3423820458697465
atom 12.8870192307692317 5.1548076923076929 5.2839285714285715 Zr
    velocity -0.0062125615346152 0.1207338522536172 -0.0252596560365376
atom 18.0418269230769255 5.1548076923076929 5.2839285714285715 Zr
    velocity 0.3321977616893538 0.0159176078553564 0.1601325897233955
atom 23.1966346153846175 5.1548076923076929 5.2839285714285715 Zr
    velocity -0.4513267372397048 0.0218756545503593 -0.6695603749608092
atom 2.5774038461538464 10.3096153846153857 5.2839285714285715 Zr
    velocity -0.1851039173727775 -0.1410489180232017 0.3881327388861676
atom 7.7322115384615389 10.3096153846153857 5.2839285714285715 Zr
    velocity 0.4151604197158476 0.1993932327469755 -0.4519256544505664
atom 12.8870192307692317 10.3096153846153857 5.2839285714285715 Zr
    velocity -0.0402716155776083 0.1978802908607528 -0.1760231968967536
atom 18.0418269230769255 10.3096153846153857 5.2839285714285715 Zr
    velocity -0.4945851429173465 0.0486978935990372 0.2653363487787642
atom 23.1966346153846175 10.3096153846153857 5.2839285714285715 Zr
    velocity -0.0260615287305644 0.0508459994554676 0.2622633393568978
atom 2.5774038461538464 15.4644230769230795 5.2839285714285715 Zr
    velocity 0.2562841629562108 -0.1516242328657066 0.3473114267276555
atom 7.7322115384615389 15.4644230769230795 5.2839285714285715 Zr
    velocity -0.0309862501249391 -0.3155668088847053 0.0687703165469131
atom 12.8870192307692317 15.4644230769230795 5.2839285714285715 Zr
    velocity -0.5608428547038496 0.1068666094608966 -0.0224691389955144
atom 18.0418269230769255 15.4644230769230795 5.2839285714285715 Zr
    velocity 0.0921908177429309 -0.0955311764269372 -0.0800428763669204
atom 23.1966346153846175 15.4644230769230795 5.2839285714285715 Zr
    velocity 0.0769752035840146 0.3358870702774270 0.0738522062806689
atom 2.5774038461538464 20.6192307692307715 5.2839285714285715 Zr
    velocity -0.0316080427425282 0.1414780151612615 0.4457175428378767
atom 7.7322115384615389 20.6192307692307715 5.2839285714285715 Zr
    velocity 0.8505673607942750 -0.3202789207787740 -0.1574503349177925
atom 12.8870192307692317 20.6192307692307715 5.2839285714285715 Zr
    velocity 0.0044780123356165 0.3367755895139466 0.2981507538144081
atom 18.0418269230769255 20.6192307692307715 5.2839285714285715 Zr
    velocity -0.2119217040744623 -0.2254538417946705 0.3521482410784772
atom 23.1966346153846175 20.6192307692307715 5.2839285714285715 Zr
    velocity 0.1858562332221253 -0.1751709825005650 -0.5769369392656877
atom 2.5774038461538464 0.0000000000000000 10.5678571428571431 Zr
    velocity 0.1400757456355415 -0.4026938234685589 -0.2791490831082805
atom 7.7322115384615389 0.0000000000000000 10.5678571428571431 Zr
    velocity 0.1493163273147978 -0.2304953326047870 -0.1472744623236482
atom 12.8870192307692317 0.0000000000000000 10.5678571428571431 Zr
    velocity -0.2675410483413824 0.0157214500801684 -0.2377221948331586
atom 18.0418269230769255 0.0000000000000000 10.5678571428571431 Zr
    velocity -0.0988869653057628 0.0535471360602115 -0.3645312720732394
atom 23.1966346153846175 0.0000000000000000 10.5678571428571431 Zr
    velocity 0.0242298001336308 0.3772839140991081 -0.3667004151325036
atom 2.5774038461538464 5.1548076923076929 10.5678571428571431 Zr
    velocity -0.1550727563347619 -0.1045884679413279 -0.1975889842380995
atom 7.7322115384615389 5.1548076923076929 10.5678571428571431 Zr
    velocity 0.2742429974074589 -0.2806582767979250 -0.0232478851444992
atom 12.8870192307692317 5.1548076923076929 10.5678571428571431 Zr
    velocity 0.2214555610470292 0.1168946117621400 0.0133829716071935
atom 18.0418269230769255 5.1548076923076929 10.5678571428571431 Zr
    velocity 0.3008209819103910 -0.0018443824368050 0.1410070145704875
atom 23.1966346153846175 5.1548076923076929 10.5678571428571431 Zr
    velocity -0.2107242362007714 -0.3707457727563613 0.1840521692537840
atom 2.5774038461538464 10.3096153846153857 10.5678571428571431 Zr
    velocity 0.2764745208491470 -0.2331829906080369 -0.1833129623325245
atom 7.7322115384615389 10.3096153846153857 10.5678571428571431 Zr
    velocity 0.2183637046849672 -0.3518559897687200 0.4232949741893573
atom 12.8870192307692317 10.3096153846153857 10.5678571428571431 Zr
    velocity -0.4670080851670419 0.2155771337973136 -0.0823937366319113
atom 18.0418269230769255 10.3096153846153857 10.5678571428571431 Zr
    velocity 0.0350430126505573 0.4177540887190250 -0.3926244453267256
atom 23.1966346153846175 10.3096153846153857 10.5678571428571431 Zr
    velocity 0.3445823891212202 0.3533730661113131 -0.3450344724116915
atom 2.5774038461538464 15.4644230769230795 10.5678571428571431 Zr
    velocity -0.1371464516571110 0.1828588529223117 -0.3411576931264025
atom 7.7322115384615389 15.4644230769230795 10.5678571428571431 Zr
    velocity -0.2364122927240274 -0.0066425911452359 -0.5526547611936982
atom 12.8870192307692317 15.4644230769230795 10.5678571428571431 Zr
    velocity 0.3444088599920018 0.2308252645811671 -0.7443523031406185
atom 18.0418269230769255 15.4644230769230795 10.5678571428571431 Zr
    velocity -0.3502165753860514 0.1231788088608709 0.5822077434713854
atom 23.1966346153846175 15.4644230769230795 10.5678571428571431 Zr
    velocity 0.0956521016443742 -0.2802468574181406 0.1450621323011405
atom 2.5774038461538464 20.6192307692307715 10.5678571428571431 Zr
    velocity -0.5804318782216287 0.1348396785358177 0.2973402133645143
atom 7.7322115384615389 20.6192307692307715 10.5678571428571431 Zr
    velocity -0.0254942391781359 -0.0324420076697018 0.4844279527849569
atom 12.8870192307692317 20.6192307692307715 10.5678571428571431 Zr
    velocity -0.6989659757012842 -0.1969446478030571 0.0411756959643775
atom 18.0418269230769255 20.6192307692307715 10.5678571428571431 Zr
    velocity 0.5408028798624134 0.7244228862069146 0.0343053807247948
atom 23.1966346153846175 20.6192307692307715 10.5678571428571431 Zr
    velocity 0.2990733660876435 0.3053733218983478 -0.2156534776681047
atom 2.5774038461538464 0.0000000000000000 15.8517857142857164 Zr
    velocity 0.1148695199600727 -0.5454419932621767 -0.2683006851366820
atom 7.7322115384615389 0.0000000000000000 15.8517857142857164 Zr
    velocity 0.3870817710082826 -0.3287490915851168 0.1023907854920774
atom 12.8870192307692317 0.0000000000000000 15.8517857142857164 Zr
    velocity 0.1901978683581895 0.2829006903524828 -0.1923523624680041
atom 18.0418269230769255 0.0000000000000000 15.8517857142857164 Zr
    velocity -0.7149428215006032 -0.0466279807971278 0.2217290188531736
atom 23.1966346153846175 0.0000000000000000 15.8517857142857164 Zr
    velocity -0.1089337371822701 0.3763085511883794 -0.4955711580573162
atom 2.5774038461538464 5.1548076923076929 15.8517857142857164 Zr
    velocity 0.0418976050719103 0.1705944695050488 -0.3802830473673907
atom 7.7322115384615389 5.1548076923076929 15.8517857142857164 Zr
    velocity -0.1090283162316872 0.2261884937980833 0.2658751823035360
atom 12.8870192307692317 5.1548076923076929 15.8517857142857164 Zr
    velocity 0.0982772463696032 -0.0237229663150140 -0.0261716376290376
atom 18.0418269230769255 5.1548076923076929 15.8517857142857164 Zr
    velocity 0.2497914174376822 0.1087977530931194 0.1562067992169630
atom 23.1966346153846175 5.1548076923076929 15.8517857142857164 Zr
    velocity -0.0604315104193812 0.3783035476343780 0.2362778133909545
atom 2.5774038461538464 10.3096153846153857 15.8517857142857164 Zr
    velocity 0.1013986563014490 -0.1510793456621451 0.3279840432686710
atom 7.7322115384615389 10.3096153846153857 15.8517857142857164 Zr
    velocity 0.2589154318856314 0.5369477205874875 0.0955284090134723
atom 12.8870192307692317 10.3096153846153857 15.8517857142857164 Zr
    velocity 0.3560369049540839 0.0957482362202299 -0.3731986575925736
atom 18.0418269230769255 10.3096153846153857 15.8517857142857164 Zr
    velocity 0.2540082434947031 0.0337924446742180 0.0323902982157212
atom 23.1966346153846175 10.3096153846153857 15.8517857142857164 Zr
    velocity -0.1229480808653349 -0.0800847638735730 0.3455223675956431
atom 2.5774038461538464 15.4644230769230795 15.8517857142857164 Zr
    velocity -0.4241890042567116 -0.6287004345538092 -0.2571384422548999
atom 7.7322115384615389 15.4644230769230795 15.8517857142857164 Zr
    velocity -0.5478792273857718 -0.0442083760080073 0.0482686525966721
atom 12.8870192307692317 15.4644230769230795 15.8517857142857164 Zr
    velocity -0.0712664669865386 0.1549580856995830 0.2774956901533714
atom 18.0418269230769255 15.4644230769230795 15.8517857142857164 Zr
    velocity -0.2173908682613347 -0.1643361043965864 -0.0281275339660072
atom 23.1966346153846175 15.4644230769230795 15.8517857142857164 Zr
    velocity 0.1860772360806552 0.0521933582622264 0.0330737726983740
atom 2.5774038461538464 20.6192307692307715 15.8517857142857164 Zr
    velocity -0.0757417420458385 0.1090780327456341 0.4090766258784530
atom 7.7322115384615389 20.6192307692307715 15.8517857142857164 Zr
    velocity 0.0691886173396380 0.0205864434675304 0.0929155453741180
atom 12.8870192307692317 20.6192307692307715 15.8517857142857164 Zr
    velocity 0.0812957784032912 -0.2466508348892407 0.2989579980237735
atom 18.0418269230769255 20.6192307692307715 15.8517857142857164 Zr
    velocity 0.1268923376400342 -0.2175504937591717 -0.5048715407496961
atom 23.1966346153846175 20.6192307692307715 15.8517857142857164 Zr
    velocity 0.1320874822003956 -0.0117919058337502 0.5080350417222916
atom 2.5774038461538464 0.0000000000000000 21.1357142857142861 Zr
    velocity -0.4288233061430889 0.1265092020465333 0.2372199036292755
atom 7.7322115384615389 0.0000000000000000 21.1357142857142861 Zr
    velocity 0.2726189302105184 -0.0739735570979939 0.1421373301007193
atom 12.8870192307692317 0.0000000000000000 21.1357142857142861 Zr
    velocity -0.5137924283512276 0.2735334859367061 0.2888248934966189
atom 18.0418269230769255 0.0000000000000000 21.1357142857142861 Zr
    velocity 0.4153815363376051 0.0118650842537385 -0.1633447092945413
atom 23.1966346153846175 0.0000000000000000 21.1357142857142861 Zr
    velocity 0.0330561034415146 0.3420160452847740 0.1900748264547743
atom 2.5774038461538464 5.1548076923076929 21.1357142857142861 Zr
    velocity -0.2209628426893233 -0.0756025728653590 0.1499050640862824
atom 7.7322115384615389 5.1548076923076929 21.1357142857142861 Zr
    velocity -0.3937253881464334 0.2812724544036660 -0.3127542928730938
atom 12.8870192307692317 5.1548076923076929 21.1357142857142861 Zr
    velocity 0.1428450255919395 0.6695379186312378 0.0981650982088204
atom 18.0418269230769255 5.1548076923076929 21.1357142857142861 Zr
    velocity 0.5853267983119588 -0.0528980770865076 -0.2325571207986207
atom 23.1966346153846175 5.1548076923076929 21.1357142857142861 Zr
    velocity -0.6198380826962000 0.2695907395863723 -0.0676211912578525
atom 2.5774038461538464 10.3096153846153857 21.1357142857142861 Zr
    velocity 0.0747023937696723 -0.1560108118857306 0.2083480483826169
atom 7.7322115384615389 10.3096153846153857 21.1357142857142861 Zr
    velocity 0.1269277295424189 -0.0966671768954164 -0.4720373078561491
atom 12.8870192307692317 10.3096153846153857 21.1357142857142861 Zr
    velocity 0.1431491926202030 0.1302571660942751 -0.3000501054657839
atom 18.0418269230769255 10.3096153846153857 21.1357142857142861 Zr
    velocity 0.5067451653160602 -0.8131279732031451 -0.3873744712522511
atom 23.1966346153846175 10.3096153846153857 21.1357142857142861 Zr
    velocity -0.4564985870590641 0.1021296807655839 -0.2081393116737016
atom 2.5774038461538464 15.4644230769230795 21.1357142857142861 Zr
    velocity 0.1951478810048272 0.3095555378075660 -0.2302578284313416
atom 7.7322115384615389 15.4644230769230795 21.1357142857142861 Zr
    velocity -0.2448219171071360 -0.4706787700404779 0.1417157659484519
atom 12.8870192307692317 15.4644230769230795 21.1357142857142861 Zr
    velocity -0.2255305990154035 0.0522855823132920 0.8039533012301439
atom 18.0418269230769255 15.4644230769230795 21.1357142857142861 Zr
    velocity -0.5165114590623837 0.2886395605706277 -0.1143999919370321
atom 23.1966346153846175 15.4644230769230795 21.1357142857142861 Zr
    velocity -0.5067750289285030 -0.0199053901986180 -0.1910715630502943
atom 2.5774038461538464 20.6192307692307715 21.1357142857142861 Zr
    velocity 0.4879507210303812 0.2729639858936363 -0.0420284970871433
atom 7.7322115384615389 20.6192307692307715 21.1357142857142861 Zr
    velocity 0.2162915556377568 0.0355728491284704 0.2886203396547112
atom 12.8870192307692317 20.6192307692307715 21.1357142857142861 Zr
    velocity 0.1552682646508164 -0.0690843628064119 0.1720393929630944
atom 18.0418269230769255 20.6192307692307715 21.1357142857142861 Zr
    velocity -0.2274640833952764 0.2561480102913520 -0.7495548149634084
atom 23.1966346153846175 20.6192307692307715 21.1357142857142861 Zr
    velocity 0.3207146913615219 0.0608198474288683 0.0677590537131569
atom 0.0000000000000000 2.5774038461538464 0.0000000000000000 Zr
    velocity -0.0727064620611421 -0.9259995539566972 -0.3150066876536017
atom 5.1548076923076929 2.5774038461538464 0.0000000000000000 Zr
    velocity -0.2105806160480684 -0.0263581996513906 0.1914976178361011
atom 10.3096153846153857 2.5774038461538464 0.0000000000000000 Zr
    velocity -0.2197759021074542 0.1206201119628815 -0.3858034101634184
atom 15.4644230769230795 2.5774038461538464 0.0000000000000000 Zr
    velocity -0.2756312358569822 0.1737392292565262 0.0563718192420359
atom 20.6192307692307715 2.5774038461538464 0.0000000000000000 Zr
    velocity -0.2160026257675515 0.0692020641550807 -0.2143812218332428
atom 0.0000000000000000 7.7322115384615389 0.0000000000000000 Zr
    velocity 0.2169664767821819 0.0964616593592360 -0.1413824270007302
atom 5.1548076923076929 7.7322115384615389 0.0000000000000000 Zr
    velocity -0.3705263489774186 0.2758440955611670 0.1806474629617769
atom 10.3096153846153857 7.7322115384615389 0.0000000000000000 Zr
    velocity -0.1337058187823357 0.1067579535435594 0.1008499747494062
atom 15.4644230769230795 7.7322115384615389 0.0000000000000000 Zr
    velocity -0.0987952698076546 0.0422064827008757 -0.3256657683675289
atom 20.6192307692307715 7.7322115384615389 0.0000000000000000 Zr
    velocity -0.2890243773065004 0.3348036797048510 -0.0998950104634998
atom 0.0000000000000000 12.8870192307692317 0.0000000000000000 Zr
    velocity -0.3269156081061633 -0.4325594716820198 -0.0618676058385388
atom 5.1548076923076929 12.8870192307692317 0.0000000000000000 Zr
    velocity -0.5062318971646510 -0.5274459545826707 0.0490905501596968
atom 10.3096153846153857 12.8870192307692317 0.0000000000000000 Zr
    velocity -0.2256448079814016 -0.1305353268644681 -0.2630424862982118
atom 15.4644230769230795 12.8870192307692317 0.0000000000000000 Zr
    velocity -0.2209534766554185 0.0173368399033738 -0.1634502766561085
atom 20.6192307692307715 12.8870192307692317 0.0000000000000000 Zr
    velocity -0.1802517875538316 0.4407483122435018 0.2576080418822613
atom 0.0000000000000000 18.0418269230769255 0.0000000000000000 Zr
    velocity 0.4872112985062382 0.0113782196617073 -0.2395632021326813
atom 5.1548076923076929 18.0418269230769255 0.0000000000000000 Zr
    velocity 0.3523314643197437 -0.2099710536623990 0.2278904486121528
atom 10.3096153846153857 18.0418269230769255 0.0000000000000000 Zr
    velocity 0.5022598336322156 -0.0893744486290014 0.2669245500909126
atom 15.4644230769230795 18.0418269230769255 0.0000000000000000 Zr
    velocity 0.1637616443110839 -0.0447744936474237 -0.4050860738857838
atom 20.6192307692307715 18.0418269230769255 0.0000000000000000 Zr
    velocity -0.2607329859515656 -0.3316803978441326 -0.2246188861758258
atom 0.0000000000000000 23.1966346153846175 0.0000000000000000 Zr
    velocity 0.0528586508679809 0.0380153835507697 -0.4437209805161683
atom 5.1548076923076929 23.1966346153846175 0.0000000000000000 Zr
    velocity 0.1258858304480167 0.0399602682881437 -0.2094067012086274
atom 10.3096153846153857 23.1966346153846175 0.0000000000000000 Zr
    velocity -0.6764495439551799 -0.0476460941398592 0.1626437220656299
atom 15.4644230769230795 23.1966346153846175 0.0000000000000000 Zr
    velocity 0.0561201694545085 0.3070939581328635 0.3534603771408765
atom 20.6192307692307715 23.1966346153846175 0.0000000000000000 Zr
    velocity -0.2108849743101901 -0.1490332987621049 -0.3128879249282829
atom 0.0000000000000000 2.5774038461538464 5.2839285714285715 Zr
    velocity 0.3217652902624599 -0.3785537664539841 -0.2200044680523552
atom 5.1548076923076929 2.5774038461538464 5.2839285714285715 Zr
    velocity 0.5506132679983659 -0.0021562658106921 -0.4273837485325175
atom 10.3096153846153857 2.5774038461538464 5.2839285714285715 Zr
    velocity 0.0705091493028395 0.0569220733805311 -0.1722359953591339
atom 15.4644230769230795 2.5774038461538464 5.2839285714285715 Zr
    velocity -0.4332386057963878 -0.0970018792406673 0.1218769170620514
atom 20.6192307692307715 2.5774038461538464 5.2839285714285715 Zr
    velocity 0.2124476136200976 0.0556813501218816 0.6448468142970465
atom 0.0000000000000000 7.7322115384615389 5.2839285714285715 Zr
    velocity -0.4215955336485947 -0.5181379392313172 -0.1867530629217923
atom 5.1548076923076929 7.7322115384615389 5.2839285714285715 Zr
    velocity 0.2748703108600822 -0.0251615081188242 -0.3097742500483716
atom 10.3096153846153857 7.7322115384615389 5.2839285714285715 Zr
    velocity -0.3673923916739934 0.4293026173361620 -0.3637526193925785
atom 15.4644230769230795 7.7322115384615389 5.2839285714285715 Zr
    velocity 0.4329231868218119 -0.2005495835394170 0.0510960419932196
atom 20.6192307692307715 7.7322115384615389 5.2839285714285715 Zr
    velocity -0.1434251605168246 -0.1622245204140667 -0.1973200951336616
atom 0.0000000000000000 12.8870192307692317 5.2839285714285715 Zr
    velocity 0.1735384732838867 0.0452237861175375 0.0991425163498955
atom 5.1548076923076929 12.8870192307692317 5.2839285714285715 Zr
    velocity 0.5791461390596012 0.1404786066289335 0.1242761665494732
atom 10.3096153846153857 12.8870192307692317 5.2839285714285715 Zr
    velocity 0.0600366540960898 -0.1907094657453075 0.0211394804052500
atom 15.4644230769230795 12.8870192307692317 5.2839285714285715 Zr
    velocity -0.2932083504862135 -0.8748471909087695 0.5167982347711312
atom 20.6192307692307715 12.8870192307692317 5.2839285714285715 Zr
    velocity -0.0044844424731046 0.5495034789251423 0.1468230368012952
atom 0.0000000000000000 18.0418269230769255 5.2839285714285715 Zr
    velocity 0.1277527961791019 -0.5984328293897547 0.1429710776635751
atom 5.1548076923076929 18.0418269230769255 5.2839285714285715 Zr
    velocity 0.6322925237950564 0.7584963406433408 -0.1721327700528069
atom 10.3096153846153857 18.0418269230769255 5.2839285714285715 Zr
    velocity 0.0557407032562570 0.2051872001827095 -0.5236201883719371
atom 15.4644230769230795 18.0418269230769255 5.2839285714285715 Zr
    velocity 0.0732167913882073 -0.4766912889095556 -0.0401334369131765
atom 20.6192307692307715 18.0418269230769255 5.2839285714285715 Zr
    velocity 0.1287252008219624 -0.3114456597650840 0.1866379215297398
atom 0.0000000000000000 23.1966346153846175 5.2839285714285715 Zr
    velocity -0.0900341193615956 -0.5102982385788349 0.1550186727261970
atom 5.1548076923076929 23.1966346153846175 5.2839285714285715 Zr
    velocity -0.1857921562222452 0.4768456999319605 0.0498318877184745
atom 10.3096153846153857 23.1966346153846175 5.2839285714285715 Zr
    velocity 0.3168437784237169 0.5258288825319499 -0.0588793043931017
atom 15.4644230769230795 23.1966346153846175 5.2839285714285715 Zr
    velocity -0.6322168370888619 0.5332566202111340 0.6775533651229773
atom 20.6192307692307715 23.1966346153846175 5.2839285714285715 Zr
    velocity 0.4682522155029932 -0.5427834668607934 -0.6339356210171400
atom 0.0000000000000000 2.5774038461538464 10.5678571428571431 Zr
    velocity 0.5554345091504982 0.3136906849197379 0.0402130069294381
atom 5.1548076923076929 2.5774038461538464 10.5678571428571431 Zr
    velocity -0.0855701071992891 0.3623920561589558 -0.1794291376105589
atom 10.3096153846153857 2.5774038461538464 10.5678571428571431 Zr
    velocity 0.1471317970006726 0.2093069913119868 -0.4137237861343239
atom 15.4644230769230795 2.5774038461538464 10.5678571428571431 Zr
    velocity -0.4418748165441130 0.2464221735628804 0.1534227081122772
atom 20.6192307692307715 2.5774038461538464 10.5678571428571431 Zr
    velocity 0.0844403504315056 -0.1955904686713616 0.4828553595401068
atom 0.0000000000000000 7.7322115384615389 10.5678571428571431 Zr
    velocity 0.1360012189230088 0.1951853340003649 0.4188403211003646
atom 5.1548076923076929 7.7322115384615389 10.5678571428571431 Zr
    velocity -0.1559023120562424 -0.2338145871900613 0.4107933188634482
atom 10.3096153846153857 7.7322115384615389 10.5678571428571431 Zr
    velocity -0.0987696899542991 0.2565525987826704 -0.4485267734299505
atom 15.4644230769230795 7.7322115384615389 10.5678571428571431 Zr
    velocity 0.1535730680373661 0.1620344609769094 0.0742456546336298
atom 20.6192307692307715 7.7322115384615389 10.5678571428571431 Zr
    velocity -0.1253832390439003 -0.3442515834343896 -0.0165528040261027
atom 0.0000000000000000 12.8870192307692317 10.5678571428571431 Zr
    velocity 0.2534108124994838 0.4411903622364560 0.2900839439896383
atom 5.1548076923076929 12.8870192307692317 10.5678571428571431 Zr
    velocity 0.4628586204562701 -0.0129259847617764 0.2217783331995956
atom 10.3096153846153857 12.8870192307692317 10.5678571428571431 Zr
    velocity -0.1483055610506735 -0.0625685262801704 -0.0464966043314683
atom 15.4644230769230795 12.8870192307692317 10.5678571428571431 Zr
    velocity 0.3013915486024628 -0.3200397964154965 0.2599364906817054
atom 20.6192307692307715 12.8870192307692317 10.5678571428571431 Zr
    velocity -0.1045291145158394 0.0927064974188428 0.3791259995165218
atom 0.0000000000000000 18.0418269230769255 10.5678571428571431 Zr
    velocity -0.5167506479829878 0.0086322836100434 -0.0936686479957879
atom 5.1548076923076929 18.0418269230769255 10.5678571428571431 Zr
    velocity -0.0750306689476085 -0.1078538843420261 -0.1363877985542673
atom 10.3096153846153857 18.0418269230769255 10.5678571428571431 Zr
    velocity 0.1761670952324411 0.0415992305450834 -0.4208792432810353
atom 15.4644230769230795 18.0418269230769255 10.5678571428571431 Zr
    velocity -0.0976233616428983 -0.0421758582191437 -0.2546730795090562
atom 20.6192307692307715 18.0418269230769255 10.5678571428571431 Zr
    velocity 0.1095753225098660 -0.2722972870243352 -0.0859872481633979
atom 0.0000000000000000 23.1966346153846175 10.5678571428571431 Zr
    velocity 0.0843929635751887 -0.0579041750007235 -0.0189598541605128
atom 5.1548076923076929 23.1966346153846175 10.5678571428571431 Zr
    velocity 0.1083897623315891 -0.0288556026965621 -0.1042395076798015
atom 10.3096153846153857 23.1966346153846175 10.5678571428571431 Zr
    velocity -0.3184069715456088 0.0609913659923505 0.0620926455426308
atom 15.4644230769230795 23.1966346153846175 10.5678571428571431 Zr
    velocity -0.0289802693890807 0.3892911220986963 0.5083682016046484
atom 20.6192307692307715 23.1966346153846175 10.5678571428571431 Zr
    velocity -0.0497363893644224 0.0088194713498282 0.5233099786348655
atom 0.0000000000000000 2.5774038461538464 15.8517857142857164 Zr
    velocity -0.0582654871645968 0.1394196833674810 -0.3846838914315863
atom 5.1548076923076929 2.5774038461538464 15.8517857142857164 Zr
    velocity 0.0363549759402701 -0.4587829952561117 -0.1173290766585516
atom 10.3096153846153857 2.5774038461538464 15.8517857142857164 Zr
    velocity -0.0745990327761792 0.1598795144040172 -0.5224388471826761
atom 15.4644230769230795 2.5774038461538464 15.8517857142857164 Zr
    velocity 0.0378937001807042 -0.0739582320228828 0.4578221648402587
atom 20.6192307692307715 2.5774038461538464 15.8517857142857164 Zr
    velocity -0.4573448681182510 -0.2734865831564091 -0.0058298940033521
atom 0.0000000000000000 7.7322115384615389 15.8517857142857164 Zr
    velocity 0.0759392337156032 0.0176546103118719 0.1009574791526092
atom 5.1548076923076929 7.7322115384615389 15.8517857142857164 Zr
    velocity -0.3356331271539316 0.1744681826968877 0.2271083362056120
atom 10.3096153846153857 7.7322115384615389 15.8517857142857164 Zr
    velocity -0.2734075191281574 -0.1298283243007726 0.3857604566667665
atom 15.4644230769230795 7.7322115384615389 15.8517857142857164 Zr
    velocity -0.1556499908462608 -0.0975902529405948 0.2417538399871842
atom 20.6192307692307715 7.7322115384615389 15.8517857142857164 Zr
    velocity -0.0030889877917622 -0.0110238439955857 0.0506588968983689
atom 0.0000000000000000 12.8870192307692317 15.8517857142857164 Zr
    velocity 0.0366072205084589 -0.1889210634613371 0.1275039658920085
atom 5.1548076923076929 12.8870192307692317 15.8517857142857164 Zr