#=======================================================
# FHI-aims file: 1500_geometry.in.primitive.supercell_2592.0010K
# Created using the Atomic Simulation Environment (ASE)
# Mon Oct 31 16:20:00 2022

# Additional information:
#  created from MB distrubtion
#  T = 10.0 K
#  quantum:             False
#  deterministic:       False
#  plus_minus:          False
#  gauge_eigenvectors:  False
#  Random seed:         1903225045
#  Sample number:       1
#=======================================================
lattice_vector 30.9288461538461590 0.0000000000000000 0.0000000000000000 
lattice_vector 0.0000000000000000 30.9288461538461590 0.0000000000000000 
lattice_vector 0.0000000000000000 0.0000000000000000 31.7035714285714292 
atom 2.5774038461538455 0.0000000000000000 0.0000000000000000 Zr
    velocity -0.5798368454193312 -0.0144588155571881 -0.3458909176718608
atom 7.7322115384615397 0.0000000000000000 0.0000000000000000 Zr
    velocity -0.0940952927846272 0.4019334755880045 0.4824366373924943
atom 12.8870192307692299 0.0000000000000000 0.0000000000000000 Zr
    velocity 0.5233853536431642 0.0333598164748956 0.0764176815103524
atom 18.0418269230769255 0.0000000000000000 0.0000000000000000 Zr
    velocity -0.1701739785966930 -0.2096450925143497 -0.1165554287607757
atom 23.1966346153846175 0.0000000000000000 0.0000000000000000 Zr
    velocity -0.0245054129940028 -0.4758218175576353 -0.2142626883523444
atom 28.3514423076923130 0.0000000000000000 0.0000000000000000 Zr
    velocity 0.4080231030862516 0.1953789214218503 0.2081768599562943
atom 2.5774038461538455 5.1548076923076946 0.0000000000000000 Zr
    velocity -0.1785295782390948 0.1459684653725996 -0.2175414667598945
atom 7.7322115384615397 5.1548076923076946 0.0000000000000000 Zr
    velocity 0.3543148975784006 -0.4426059653753778 -0.2022557251766831
atom 12.8870192307692299 5.1548076923076946 0.0000000000000000 Zr
    velocity 0.7293832217311488 -0.0713570804067486 -0.0550226586005362
atom 18.0418269230769255 5.1548076923076946 0.0000000000000000 Zr
    velocity -0.1425276699730065 -0.1536144119516251 0.0580237470424338
atom 23.1966346153846175 5.1548076923076946 0.0000000000000000 Zr
    velocity 0.0993554135705980 -0.3493279837950758 0.2216712621078535
atom 28.3514423076923130 5.1548076923076946 0.0000000000000000 Zr
    velocity 0.0731596616817187 -0.6188808510566781 -0.6542443593880362
atom 2.5774038461538455 10.3096153846153857 0.0000000000000000 Zr
    velocity 0.1069043062086173 -0.1916854722582411 0.2395677843269450
atom 7.7322115384615397 10.3096153846153857 0.0000000000000000 Zr
    velocity -0.1607234431174056 0.0614431552559619 0.1543936319101765
atom 12.8870192307692299 10.3096153846153857 0.0000000000000000 Zr
    velocity 0.0827021259492353 0.1646280728385240 -0.0285233293035757
atom 18.0418269230769255 10.3096153846153857 0.0000000000000000 Zr
    velocity 0.2961908540035488 -0.1231860728794129 -0.8748624753327288
atom 23.1966346153846175 10.3096153846153857 0.0000000000000000 Zr
    velocity -0.2741393195996229 -0.1477873978065658 0.0401689676805647
atom 28.3514423076923130 10.3096153846153857 0.0000000000000000 Zr
    velocity -0.2631919835121830 0.1849193635303002 -0.6322207145697404
atom 2.5774038461538455 15.4644230769230795 0.0000000000000000 Zr
    velocity 0.0788262797764180 0.0850251005348028 0.1152133212698473
atom 7.7322115384615397 15.4644230769230795 0.0000000000000000 Zr
    velocity 0.2063304603516240 0.2338390459183871 -0.0670451306419238
atom 12.8870192307692299 15.4644230769230795 0.0000000000000000 Zr
    velocity 0.0558096028600578 0.2794803717119520 0.4963182286618412
atom 18.0418269230769255 15.4644230769230795 0.0000000000000000 Zr
    velocity 0.4414884061037178 -0.1476704880921653 0.7293626336793294
atom 23.1966346153846175 15.4644230769230795 0.0000000000000000 Zr
    velocity -0.2925019111818975 0.1468664174796541 0.0926963124843330
atom 28.3514423076923130 15.4644230769230795 0.0000000000000000 Zr
    velocity 0.0125836333600456 0.2717673030000109 0.2587767234782694
atom 2.5774038461538455 20.6192307692307715 0.0000000000000000 Zr
    velocity -0.0063394727149870 0.6191714833058342 -0.0575248631721641
atom 7.7322115384615397 20.6192307692307715 0.0000000000000000 Zr
    velocity 0.1650971505013565 -0.0579734842787327 0.1629501027246662
atom 12.8870192307692299 20.6192307692307715 0.0000000000000000 Zr
    velocity 0.0613119417351696 -0.4242090014079824 -0.0787049509687926
atom 18.0418269230769255 20.6192307692307715 0.0000000000000000 Zr
    velocity 0.0841434074839554 0.1437622836994968 0.2266865283997878
atom 23.1966346153846175 20.6192307692307715 0.0000000000000000 Zr
    velocity 0.2497736439720439 -0.3634332345671589 -0.0550950858209374
atom 28.3514423076923130 20.6192307692307715 0.0000000000000000 Zr
    velocity -0.6781313855681199 0.8242889464564870 0.0169093241352055
atom 2.5774038461538455 25.7740384615384635 0.0000000000000000 Zr
    velocity 0.3761524635991371 -0.1812101813120809 -0.0890981553201757
atom 7.7322115384615397 25.7740384615384635 0.0000000000000000 Zr
    velocity 0.1591187534397854 0.2750348470887345 0.3695620289901411
atom 12.8870192307692299 25.7740384615384635 0.0000000000000000 Zr
    velocity -0.1132892854299967 0.2346298653676657 0.2661027615835493
atom 18.0418269230769255 25.7740384615384635 0.0000000000000000 Zr
    velocity -0.4525437246784677 -0.1249378809834292 0.0667721257432807
atom 23.1966346153846175 25.7740384615384635 0.0000000000000000 Zr
    velocity 0.2592290249468472 -0.1017933135743478 -0.0226127590861250
atom 28.3514423076923130 25.7740384615384635 0.0000000000000000 Zr
    velocity 0.0671223904851400 -0.2029857534016791 0.1202638586904310
atom 2.5774038461538455 0.0000000000000000 5.2839285714285733 Zr
    velocity -0.1873561285113368 0.3230636014669336 -0.3429239301890986
atom 7.7322115384615397 0.0000000000000000 5.2839285714285733 Zr
    velocity -0.0907479055531662 0.4619172521588388 0.1203915576281092
atom 12.8870192307692299 0.0000000000000000 5.2839285714285733 Zr
    velocity 0.2159985040265454 0.1376073056658774 0.0807652930928321
atom 18.0418269230769255 0.0000000000000000 5.2839285714285733 Zr
    velocity -0.0451927422993221 -0.5636510012431156 0.3567113752496350
atom 23.1966346153846175 0.0000000000000000 5.2839285714285733 Zr
    velocity 0.1267863633603809 0.3328498938298464 -0.1010011565750732
atom 28.3514423076923130 0.0000000000000000 5.2839285714285733 Zr
    velocity 0.3120953437621640 -0.3856673257277691 0.0952816270880014
atom 2.5774038461538455 5.1548076923076946 5.2839285714285733 Zr
    velocity 0.0368539335566112 -0.4457295616948887 0.2409659499214008
atom 7.7322115384615397 5.1548076923076946 5.2839285714285733 Zr
    velocity -0.3785372350644741 0.7666494571320891 0.2951229537049395
atom 12.8870192307692299 5.1548076923076946 5.2839285714285733 Zr
    velocity -0.0866402110967266 0.2340399889010654 0.5521975833254563
atom 18.0418269230769255 5.1548076923076946 5.2839285714285733 Zr
    velocity -0.2762502551345731 -0.3343982557345574 0.1352080895213913
atom 23.1966346153846175 5.1548076923076946 5.2839285714285733 Zr
    velocity -0.4685537576033071 -0.1679396636322686 0.4083212420763473
atom 28.3514423076923130 5.1548076923076946 5.2839285714285733 Zr
    velocity -0.3611143471725575 0.5483006032614293 0.0871388881699280
atom 2.5774038461538455 10.3096153846153857 5.2839285714285733 Zr
    velocity -0.1857569131326091 0.4332873282912059 -0.1184558415736648
atom 7.7322115384615397 10.3096153846153857 5.2839285714285733 Zr
    velocity 0.3725779189808089 -0.6502700978445438 -0.1911807063608776
atom 12.8870192307692299 10.3096153846153857 5.2839285714285733 Zr
    velocity -0.0496346373051981 -0.2102713471081102 0.0756740269308714
atom 18.0418269230769255 10.3096153846153857 5.2839285714285733 Zr
    velocity 0.1276704522082538 0.1561483641598434 0.0104329135719042
atom 23.1966346153846175 10.3096153846153857 5.2839285714285733 Zr
    velocity -0.4428921323089021 0.3621332901498022 -0.0509452682003874
atom 28.3514423076923130 10.3096153846153857 5.2839285714285733 Zr
    velocity -0.3298095494133997 -0.2271059000078975 0.1168834506014443
atom 2.5774038461538455 15.4644230769230795 5.2839285714285733 Zr
    velocity -0.1937856155034047 -0.1241514739158815 -0.3570804573610514
atom 7.7322115384615397 15.4644230769230795 5.2839285714285733 Zr
    velocity 0.2591917051495091 0.0220764308291434 0.6585198317279108
atom 12.8870192307692299 15.4644230769230795 5.2839285714285733 Zr
    velocity 0.0192683466974432 0.0805932042041385 -0.2880612060259553
atom 18.0418269230769255 15.4644230769230795 5.2839285714285733 Zr
    velocity 0.0593102133894806 0.5036615143746954 0.0411536557791845
atom 23.1966346153846175 15.4644230769230795 5.2839285714285733 Zr
    velocity 0.0928060383642616 0.0497009047462519 -0.0894057427115477
atom 28.3514423076923130 15.4644230769230795 5.2839285714285733 Zr
    velocity 0.1165375876629980 -0.3937678785501112 0.2382214040598986
atom 2.5774038461538455 20.6192307692307715 5.2839285714285733 Zr
    velocity 0.0300465539775353 -0.4745391419845963 0.0940218348974129
atom 7.7322115384615397 20.6192307692307715 5.2839285714285733 Zr
    velocity 0.1268770303322648 0.3100503413149674 -0.5619974028849790
atom 12.8870192307692299 20.6192307692307715 5.2839285714285733 Zr
    velocity -0.2967046279603376 -0.2494421371958374 -0.2120423849800509
atom 18.0418269230769255 20.6192307692307715 5.2839285714285733 Zr
    velocity 0.0185002431950360 0.2966034356303746 -0.2780157372386453
atom 23.1966346153846175 20.6192307692307715 5.2839285714285733 Zr
    velocity 0.3268594853305013 0.4250179633840109 -0.2074012391414730
atom 28.3514423076923130 20.6192307692307715 5.2839285714285733 Zr
    velocity 0.2039037670947867 -0.2218107064658629 0.1519051084918432
atom 2.5774038461538455 25.7740384615384635 5.2839285714285733 Zr
    velocity -0.1071663186872361 0.4433049760342834 0.1538276570239647
atom 7.7322115384615397 25.7740384615384635 5.2839285714285733 Zr
    velocity 0.3492153962636972 -0.0486994772561612 0.3197392656477245
atom 12.8870192307692299 25.7740384615384635 5.2839285714285733 Zr
    velocity 0.1190804218513090 -0.3971321342796615 -0.6000400889161316
atom 18.0418269230769255 25.7740384615384635 5.2839285714285733 Zr
    velocity -0.2720882433052355 0.0985115504958050 -0.3492564313778159
atom 23.1966346153846175 25.7740384615384635 5.2839285714285733 Zr
    velocity 0.2642424892091618 0.0084379114290638 -0.3039132373912896
atom 28.3514423076923130 25.7740384615384635 5.2839285714285733 Zr
    velocity -0.2366409705929852 0.2438305027455723 -0.1973200102027516
atom 2.5774038461538455 0.0000000000000000 10.5678571428571431 Zr
    velocity -0.0905592181987231 -0.0427831489727133 0.0580932852140213
atom 7.7322115384615397 0.0000000000000000 10.5678571428571431 Zr
    velocity -0.0495121104306089 0.0994030093212919 0.0877735243195868
atom 12.8870192307692299 0.0000000000000000 10.5678571428571431 Zr
    velocity -0.0495823587262706 -0.0923564784959964 0.0215252932491058
atom 18.0418269230769255 0.0000000000000000 10.5678571428571431 Zr
    velocity 0.2936426354773135 -0.3447824617394075 -0.2286524994045246
atom 23.1966346153846175 0.0000000000000000 10.5678571428571431 Zr
    velocity 0.5246900887928632 -0.0064638707887605 -0.3964571440101844
atom 28.3514423076923130 0.0000000000000000 10.5678571428571431 Zr
    velocity 0.2359056537010749 -0.2077308306387657 -0.3690883098947315
atom 2.5774038461538455 5.1548076923076946 10.5678571428571431 Zr
    velocity 0.5361942184909535 0.0913359021151028 -0.0860472094432860
atom 7.7322115384615397 5.1548076923076946 10.5678571428571431 Zr
    velocity 0.1969895665798824 0.2209527351235532 0.5761614313469238
atom 12.8870192307692299 5.1548076923076946 10.5678571428571431 Zr
    velocity -0.2358822687344033 -0.3571711721701165 -0.6441709250493262
atom 18.0418269230769255 5.1548076923076946 10.5678571428571431 Zr
    velocity 0.0886354656547795 -0.1226524711599915 0.3506220056321360
atom 23.1966346153846175 5.1548076923076946 10.5678571428571431 Zr
    velocity -0.1032383542652235 -0.0846254824422687 -0.0168193849728565
atom 28.3514423076923130 5.1548076923076946 10.5678571428571431 Zr
    velocity -0.0944697929825485 0.4663763725736639 -0.5782884883567192
atom 2.5774038461538455 10.3096153846153857 10.5678571428571431 Zr
    velocity -0.4571364523747299 0.1445620954198045 -0.2851947913397207
atom 7.7322115384615397 10.3096153846153857 10.5678571428571431 Zr
    velocity -0.0015250153493403 -0.7199290356574509 0.4749208776501677
atom 12.8870192307692299 10.3096153846153857 10.5678571428571431 Zr
    velocity 0.4369181366800349 -0.2131581423416661 0.0060682597137250
atom 18.0418269230769255 10.3096153846153857 10.5678571428571431 Zr
    velocity -0.3871212423302576 -0.1377942342564063 0.1951873888298783
atom 23.1966346153846175 10.3096153846153857 10.5678571428571431 Zr
    velocity -0.0814317703668948 -0.0633250310378159 -0.4321059150060036
atom 28.3514423076923130 10.3096153846153857 10.5678571428571431 Zr
    velocity -0.1335658624276883 0.2048861880373766 -0.0459249949315181
atom 2.5774038461538455 15.4644230769230795 10.5678571428571431 Zr
    velocity -0.3851351042667338 -0.0555165696376631 0.2334460471078349
atom 7.7322115384615397 15.4644230769230795 10.5678571428571431 Zr
    velocity 0.1881359980457993 0.1622326269085987 0.0287107182098681
atom 12.8870192307692299 15.4644230769230795 10.5678571428571431 Zr
    velocity 0.2374865814250421 0.1227886219752075 -0.0153316077775171
atom 18.0418269230769255 15.4644230769230795 10.5678571428571431 Zr
    velocity 0.0288834163506475 -0.3539117292538234 -0.5356851888598044
atom 23.1966346153846175 15.4644230769230795 10.5678571428571431 Zr
    velocity 0.0289966670910194 -0.3140628855997117 -0.1007740429584440
atom 28.3514423076923130 15.4644230769230795 10.5678571428571431 Zr
    velocity 0.3345527041031103 0.3841368233943516 0.0705017067690506
atom 2.5774038461538455 20.6192307692307715 10.5678571428571431 Zr
    velocity -0.1399744471201237 -0.0116422724327470 -0.0397745180380678
atom 7.7322115384615397 20.6192307692307715 10.5678571428571431 Zr
    velocity 0.6144898254244825 -0.2792238974365727 0.0225156937085701
atom 12.8870192307692299 20.6192307692307715 10.5678571428571431 Zr
    velocity 0.2578763809784773 0.0302933072651740 -0.0088219156132993
atom 18.0418269230769255 20.6192307692307715 10.5678571428571431 Zr
    velocity -0.4229478701765106 0.3329938492074133 0.2470730794035781
atom 23.1966346153846175 20.6192307692307715 10.5678571428571431 Zr
    velocity -0.2547113282469202 0.1243954562186899 -0.2790479657319285
atom 28.3514423076923130 20.6192307692307715 10.5678571428571431 Zr
    velocity 0.1003131749309328 -0.3279478083877820 -0.1709004715033627
atom 2.5774038461538455 25.7740384615384635 10.5678571428571431 Zr
    velocity 0.4995683506854369 -0.0644174674491402 0.1902399073417526
atom 7.7322115384615397 25.7740384615384635 10.5678571428571431 Zr
    velocity 0.3082517506684350 0.0498363150893616 -0.1105081207731567
atom 12.8870192307692299 25.7740384615384635 10.5678571428571431 Zr
    velocity 0.2517329275168925 -0.4596648371456848 0.0211513951910666
atom 18.0418269230769255 25.7740384615384635 10.5678571428571431 Zr
    velocity 0.0857188140881676 -0.1622864888172829 0.5633804621772912
atom 23.1966346153846175 25.7740384615384635 10.5678571428571431 Zr
    velocity -0.2285363018630298 0.2659962892225834 -0.0480150119215256
atom 28.3514423076923130 25.7740384615384635 10.5678571428571431 Zr
    velocity 0.0101463646633888 -0.5564384341552351 0.5623793258719999
atom 2.5774038461538455 0.0000000000000000 15.8517857142857146 Zr
    velocity -0.0582310228843118 -0.2118089315890787 0.3210697844271560
atom 7.7322115384615397 0.0000000000000000 15.8517857142857146 Zr
    velocity -0.4389963002232689 -0.2289000371859569 -0.2118298055461903
atom 12.8870192307692299 0.0000000000000000 15.8517857142857146 Zr
    velocity -0.0370013939470775 -0.1776079676402247 0.0705703211781550
atom 18.0418269230769255 0.0000000000000000 15.8517857142857146 Zr
    velocity 0.9833369143854777 0.1405891339068273 0.1498072100811293
atom 23.1966346153846175 0.0000000000000000 15.8517857142857146 Zr
    velocity -0.0507121313280091 0.2707947866141808 -0.4317733364516981
atom 28.3514423076923130 0.0000000000000000 15.8517857142857146 Zr
    velocity -0.0628715750566642 0.0865528518284339 0.1248658479108212
atom 2.5774038461538455 5.1548076923076946 15.8517857142857146 Zr
    velocity -0.3062548650353229 -0.0123817846527923 -0.0435505315837877
atom 7.7322115384615397 5.1548076923076946 15.8517857142857146 Zr
    velocity -0.0673955103151643 -0.1553243018858153 -0.4530635535392707
atom 12.8870192307692299 5.1548076923076946 15.8517857142857146 Zr
    velocity 0.1754383022446665 -0.3619197120505690 -0.0919345802990967
atom 18.0418269230769255 5.1548076923076946 15.8517857142857146 Zr
    velocity -0.1114393531313578 0.4194364029063796 -0.1437610833776173
atom 23.1966346153846175 5.1548076923076946 15.8517857142857146 Zr
    velocity 0.4770571007568633 -0.6916019506620190 -0.3471569344967853
atom 28.3514423076923130 5.1548076923076946 15.8517857142857146 Zr
    velocity -0.1636446829782647 -0.2612155409168477 0.5528889812731705
atom 2.5774038461538455 10.3096153846153857 15.8517857142857146 Zr
    velocity -0.2425869860728547 0.1642313104071240 0.1492778369561101
atom 7.7322115384615397 10.3096153846153857 15.8517857142857146 Zr
    velocity -0.2257091970647018 0.1778332783560952 0.2749712940008169
atom 12.8870192307692299 10.3096153846153857 15.8517857142857146 Zr
    velocity -0.0815248774332037 0.7642680751417243 0.6858920548935642
atom 18.0418269230769255 10.3096153846153857 15.8517857142857146 Zr
    velocity 0.0744150401921497 -0.2520718937771670 -0.1727339421900372
atom 23.1966346153846175 10.3096153846153857 15.8517857142857146 Zr
    velocity -0.1804102039962602 0.3161578738040992 0.3223466564723842
atom 28.3514423076923130 10.3096153846153857 15.8517857142857146 Zr
    velocity -0.3438959130558448 0.1340488700032537 -0.1708117060641889
atom 2.5774038461538455 15.4644230769230795 15.8517857142857146 Zr
    velocity 0.0558351352854198 0.1366670936079890 -0.3953885025517133
atom 7.7322115384615397 15.4644230769230795 15.8517857142857146 Zr
    velocity -0.4832286907190035 -0.1553079714454738 -0.8809488420264125
atom 12.8870192307692299 15.4644230769230795 15.8517857142857146 Zr
    velocity 0.3990662414973195 -0.1626976973228088 0.0709899572956878
atom 18.0418269230769255 15.4644230769230795 15.8517857142857146 Zr
    velocity -0.8302704107047486 -0.6599638299927566 0.2712481030461375
atom 23.1966346153846175 15.4644230769230795 15.8517857142857146 Zr
    velocity 0.1798950915343608 -0.1747070376470737 -0.0638287674183665
atom 28.3514423076923130 15.4644230769230795 15.8517857142857146 Zr
    velocity 0.0104313575686417 0.1206697571846671 -0.0444214450263671
atom 2.5774038461538455 20.6192307692307715 15.8517857142857146 Zr
    velocity -0.0837985212406610 0.0093879081802926 -0.3095046839465620
atom 7.7322115384615397 20.6192307692307715 15.8517857142857146 Zr
    velocity 0.0136382678758523 -0.3774508686926041 -0.0914893695786253
atom 12.8870192307692299 20.6192307692307715 15.8517857142857146 Zr
    velocity 0.1404639138766909 -0.3922397117301555 0.1672117276693660
atom 18.0418269230769255 20.6192307692307715 15.8517857142857146 Zr
    velocity 0.2115076870750286 0.5381470605958455 -0.3318274404234010
atom 23.1966346153846175 20.6192307692307715 15.8517857142857146 Zr
    velocity -0.1199482367806080 -0.6823656900841752 -0.2145283037826741
atom 28.3514423076923130 20.6192307692307715 15.8517857142857146 Zr
    velocity 0.2021638090427767 -0.3877547261188024 -0.5399653903342547
atom 2.5774038461538455 25.7740384615384635 15.8517857142857146 Zr
    velocity 0.3671230429059438 -0.0543454347857541 0.2683032334194138
atom 7.7322115384615397 25.7740384615384635 15.8517857142857146 Zr
    velocity 0.0077745900951760 0.0155590241157510 0.1217222922963593
atom 12.8870192307692299 25.7740384615384635 15.8517857142857146 Zr
    velocity 0.3218152640391363 -0.3821219868819297 0.0358572131077303
atom 18.0418269230769255 25.7740384615384635 15.8517857142857146 Zr
    velocity -0.2784815588830268 -0.7421061438469498 0.3235587234038695
atom 23.1966346153846175 25.7740384615384635 15.8517857142857146 Zr
    velocity 0.4508219039782596 0.3769811559591291 -0.0222686986096024
atom 28.3514423076923130 25.7740384615384635 15.8517857142857146 Zr
    velocity 0.0455567544643065 0.2468139176420197 0.2451357871642017
atom 2.5774038461538455 0.0000000000000000 21.1357142857142861 Zr
    velocity -0.2729021440651176 -0.3318578991653230 0.1595661071316078
atom 7.7322115384615397 0.0000000000000000 21.1357142857142861 Zr
    velocity 0.0281919622447047 0.0743083334048925 0.1077894876296340
atom 12.8870192307692299 0.0000000000000000 21.1357142857142861 Zr
    velocity -0.1239743221461036 -0.4701032853228500 0.5405404621007849
atom 18.0418269230769255 0.0000000000000000 21.1357142857142861 Zr
    velocity 0.1700568890689688 -0.0730122773132702 -0.1779907668188062
atom 23.1966346153846175 0.0000000000000000 21.1357142857142861 Zr
    velocity -0.2292708375902996 -0.8547218140265873 -0.5606019001818197
atom 28.3514423076923130 0.0000000000000000 21.1357142857142861 Zr
    velocity -0.3499138253154290 0.3154797378966706 0.0395321834641581
atom 2.5774038461538455 5.1548076923076946 21.1357142857142861 Zr
    velocity 0.3744289121523371 -0.2406239753362392 0.2978181609489819
atom 7.7322115384615397 5.1548076923076946 21.1357142857142861 Zr
    velocity 0.0744184891036361 -0.5460049256669564 0.1213452568183707
atom 12.8870192307692299 5.1548076923076946 21.1357142857142861 Zr
    velocity 0.0441890947015953 0.0708835611204473 -0.2246544163905819
atom 18.0418269230769255 5.1548076923076946 21.1357142857142861 Zr
    velocity -0.5768406129385280 0.2149088058425754 0.2855238880378293
atom 23.1966346153846175 5.1548076923076946 21.1357142857142861 Zr
    velocity -0.2248046425795239 0.1208633668769031 -0.1854312197285399
atom 28.3514423076923130 5.1548076923076946 21.1357142857142861 Zr
    velocity 0.0363955150406487 -0.0770489780542229 0.1332330633978257
atom 2.5774038461538455 10.3096153846153857 21.1357142857142861 Zr
    velocity -0.5099622739272199 -0.0218994826389399 0.1378734794914159
atom 7.7322115384615397 10.3096153846153857 21.1357142857142861 Zr
    velocity -0.0367882635776450 -0.1649979923248524 0.0834210971534850
atom 12.8870192307692299 10.3096153846153857 21.1357142857142861 Zr
    velocity -0.0563326495161970 -0.3204281022976142 0.2358388079385727
atom 18.0418269230769255 10.3096153846153857 21.1357142857142861 Zr
    velocity -0.2712591472656661 0.0375427212354027 0.4463713968170342
atom 23.1966346153846175 10.3096153846153857 21.1357142857142861 Zr
    velocity 0.0152860895595335 0.0433869911486356 -0.0388837396137955
atom 28.3514423076923130 10.3096153846153857 21.1357142857142861 Zr
    velocity 0.0152059323245767 -0.1300061711911406 -0.0791430774349307
atom 2.5774038461538455 15.4644230769230795 21.1357142857142861 Zr
    velocity -0.2898038712270842 -0.3063533323523694 0.5422561640093596
atom 7.7322115384615397 15.4644230769230795 21.1357142857142861 Zr
    velocity -0.0815644800703277 0.0187539389775914 -0.0991060649895515
atom 12.8870192307692299 15.4644230769230795 21.1357142857142861 Zr
    velocity -0.0249483567061085 -0.2088587239488289 0.1147432175559840
atom 18.0418269230769255 15.4644230769230795 21.1357142857142861 Zr
    velocity -0.1415586012493018 0.0755042245457978 0.0710786388755145
atom 23.1966346153846175 15.4644230769230795 21.1357142857142861 Zr
    velocity 0.3020608718389341 0.3806871805469998 -0.4332977359700136
atom 28.3514423076923130 15.4644230769230795 21.1357142857142861 Zr
    velocity -0.3359659669270241 0.1443578724507708 -0.1703055224778306
atom 2.5774038461538455 20.6192307692307715 21.1357142857142861 Zr
    velocity 0.3296399470873015 -0.1162396440031071 0.8025270999958897
atom 7.7322115384615397 20.6192307692307715 21.1357142857142861 Zr
    velocity 0.2253514907790672 -0.3381075859483312 -0.2954715493100378
atom 12.8870192307692299 20.6192307692307715 21.1357142857142861 Zr
    velocity -0.0327007540872324 -0.5274985310161244 -0.1672887060906367
atom 18.0418269230769255 20.6192307692307715 21.1357142857142861 Zr
    velocity -0.0695589751907259 0.1636971293201616 0.0450032115417165
atom 23.1966346153846175 20.6192307692307715 21.1357142857142861 Zr
    velocity -0.4067279995718330 -0.2468143097908137 -0.0992465953355876
atom 28.3514423076923130 20.6192307692307715 21.1357142857142861 Zr
    velocity 0.0289331643092831 -0.3458483782871641 -0.0600377481092545
atom 2.5774038461538455 25.7740384615384635 21.1357142857142861 Zr
    velocity -0.9311062873191481 -0.0919333977795274 0.0602739495077593
atom 7.7322115384615397 25.7740384615384635 21.1357142857142861 Zr
    velocity 0.6067886736053579 0.1585431643116343 -0.3640915747826258
atom 12.8870192307692299 25.7740384615384635 21.1357142857142861 Zr
    velocity 0.3217898421122050 0.4641939276328147 0.3244638812170604
atom 18.0418269230769255 25.7740384615384635 21.1357142857142861 Zr
    velocity 0.4245577615066073 0.3523691408211217 -0.0592860102079976
atom 23.1966346153846175 25.7740384615384635 21.1357142857142861 Zr
    velocity 0.4383913858443747 -0.7400136599883097 -0.0113035343656997
atom 28.3514423076923130 25.7740384615384635 21.1357142857142861 Zr
    velocity -0.2256756425083648 0.0157916740709637 -0.0595128244255190
atom 2.5774038461538455 0.0000000000000000 26.4196428571428541 Zr
    velocity 0.1241851959499718 -0.2915706522592029 -0.2203625293315535
atom 7.7322115384615397 0.0000000000000000 26.4196428571428541 Zr
    velocity -0.3839520064695197 -0.3463100720901929 -0.1257589139859559
atom 12.8870192307692299 0.0000000000000000 26.4196428571428541 Zr
    velocity -0.0371459282798392 0.5204966913841835 -0.4735414675305685
atom 18.0418269230769255 0.0000000000000000 26.4196428571428541 Zr
    velocity 0.0544245767403831 -0.0512216214332532 0.0222162112651743
atom 23.1966346153846175 0.0000000000000000 26.4196428571428541 Zr
    velocity -0.4607622253297987 0.0954451435215391 0.2228052009101611
atom 28.3514423076923130 0.0000000000000000 26.4196428571428541 Zr
    velocity 0.0836993590943498 -0.0872703776532297 -0.0007778137843919
atom 2.5774038461538455 5.1548076923076946 26.4196428571428541 Zr
    velocity 0.1262134396509338 -0.1585602240268096 -0.0317501707729963
atom 7.7322115384615397 5.1548076923076946 26.4196428571428541 Zr
    velocity -0.1788059226335892 -0.1074868252119738 -0.2650614289901068
atom 12.8870192307692299 5.1548076923076946 26.4196428571428541 Zr
    velocity 0.2593134454831131 -0.1383065297381457 0.3906670428521132
atom 18.0418269230769255 5.1548076923076946 26.4196428571428541 Zr
    velocity 0.2112881199626626 0.1160288891419314 0.2941522085896968
atom 23.1966346153846175 5.1548076923076946 26.4196428571428541 Zr
    velocity -0.1708800661299836 0.2606732400798701 0.8459854457798551
atom 28.3514423076923130 5.1548076923076946 26.4196428571428541 Zr
    velocity -0.3614409702191571 -0.0730647825652782 0.0172685028474904
atom 2.5774038461538455 10.3096153846153857 26.4196428571428541 Zr
    velocity 0.4190528607008976 0.2910931039535051 0.0310838304660977
atom 7.7322115384615397 10.3096153846153857 26.4196428571428541 Zr
    velocity 0.6895025467743321 -0.1888906289900567 -0.0919044041821069
atom 12.8870192307692299 10.3096153846153857 26.4196428571428541 Zr
    velocity -0.1760811103922246 -0.3052561502765891 -0.1190200517079299
atom 18.0418269230769255 10.3096153846153857 26.4196428571428541 Zr
    velocity -0.2059023561244631 -0.3646407158576523 -0.0855164276132938
atom 23.1966346153846175 10.3096153846153857 26.4196428571428541 Zr
    velocity -0.0011045463083773 -0.2290423755894517 -0.2246847744504027
atom 28.3514423076923130 10.3096153846153857 26.4196428571428541 Zr
    velocity 0.3904123194709517 0.2734064180081577 0.0501273497357842
atom 2.5774038461538455 15.4644230769230795 26.4196428571428541 Zr
    velocity -0.4574733300152628 0.2458503334710522 0.3073075385248425
atom 7.7322115384615397 15.4644230769230795 26.4196428571428541 Zr
    velocity -0.2458344000842765 0.0303243699013583 0.0995101160356123
atom 12.8870192307692299 15.4644230769230795 26.4196428571428541 Zr
    velocity 0.2410789629284998 -0.0058870913215105 -0.3951751144051115
atom 18.0418269230769255 15.4644230769230795 26.4196428571428541 Zr
    velocity 0.1554721816289791 -0.1298678446807512 -0.1131249567924495
atom 23.1966346153846175 15.4644230769230795 26.4196428571428541 Zr
    velocity 0.2864085702639498 0.0286332243968758 -0.3152168845968488
atom 28.3514423076923130 15.4644230769230795 26.4196428571428541 Zr
    velocity -0.0928126188516052 0.2247104418137205 0.4705692877092362
atom 2.5774038461538455 20.6192307692307715 26.4196428571428541 Zr
    velocity -0.1244037602913492 0.2277142996574948 -0.0812296353737526
atom 7.7322115384615397 20.6192307692307715 26.4196428571428541 Zr
    velocity 0.6910501353008085 -0.0581798923625336 -0.0083344517722438
atom 12.8870192307692299 20.6192307692307715 26.4196428571428541 Zr
    velocity 0.2792651699041505 -0.1184255921920181 -0.0682208701744872
atom 18.0418269230769255 20.6192307692307715 26.4196428571428541 Zr
    velocity 0.0115670435126399 0.4357648574890658 0.1400468418563875
atom 23.1966346153846175 20.6192307692307715 26.4196428571428541 Zr
    velocity 0.0462921096546222 0.3837367946043799 0.5023394755299185
atom 28.3514423076923130 20.6192307692307715 26.4196428571428541 Zr
    velocity 0.0479002211500978 -0.4379144795243978 -0.4762356321074342
atom 2.5774038461538455 25.7740384615384635 26.4196428571428541 Zr
    velocity 0.1730665107481530 -0.3916714055112264 -0.4026163116286473