#=======================================================
# FHI-aims file: 1650_geometry.in.primitive.supercell_1500.0010K
# Created using the Atomic Simulation Environment (ASE)
# Thu Jan  5 12:12:17 2023

# Additional information:
#  created from MB distrubtion
#  T = 10.0 K
#  quantum:             False
#  deterministic:       False
#  plus_minus:          False
#  gauge_eigenvectors:  False
#  Random seed:         800409106
#  Sample number:       1
#=======================================================
lattice_vector 25.8238722930999174 0.0000000000000000 0.0000000000000000 
lattice_vector 0.0000000000000000 25.8238722930999174 0.0000000000000000 
lattice_vector 0.0000000000000000 0.0000000000000000 26.4740098874924215 
atom 2.5823872293099921 0.0000000000000000 0.0000000000000000 Zr
    velocity 0.2064328079884384 0.4424896203424465 0.2358582146000952
atom 7.7471616879299745 0.0000000000000000 0.0000000000000000 Zr
    velocity -0.3445744612593680 0.2993839561293901 0.2389931854559836
atom 12.9119361465499587 0.0000000000000000 0.0000000000000000 Zr
    velocity -0.2348462457099477 -0.1424021267762578 -0.3557864982351678
atom 18.0767106051699429 0.0000000000000000 0.0000000000000000 Zr
    velocity -0.1500200188942185 0.3745584956940858 0.0168960502853702
atom 23.2414850637899306 0.0000000000000000 0.0000000000000000 Zr
    velocity 0.3506624705784229 0.3303810607173729 -0.1275039227734634
atom 2.5823872293099921 5.1647744586199842 0.0000000000000000 Zr
    velocity 0.0476387558160160 0.0952325200086461 0.0662713407625551
atom 7.7471616879299745 5.1647744586199842 0.0000000000000000 Zr
    velocity 0.2366459385884984 0.0638715640450798 -0.4364809892199414
atom 12.9119361465499587 5.1647744586199842 0.0000000000000000 Zr
    velocity -0.0665020469860504 0.1064689275464405 -0.2415411520880650
atom 18.0767106051699429 5.1647744586199842 0.0000000000000000 Zr
    velocity 0.0777943513890501 -0.2585268482359834 -0.1458220269171698
atom 23.2414850637899306 5.1647744586199842 0.0000000000000000 Zr
    velocity -0.1770997076177868 0.0493754355623864 -0.1198067917451940
atom 2.5823872293099921 10.3295489172399684 0.0000000000000000 Zr
    velocity 0.2720999063546183 0.1258679649897780 0.2442706669634564
atom 7.7471616879299745 10.3295489172399684 0.0000000000000000 Zr
    velocity 0.0347065788673486 -0.2467499067638571 0.0131332256483786
atom 12.9119361465499587 10.3295489172399684 0.0000000000000000 Zr
    velocity -0.0626516675713855 0.6756537486201343 0.2192841254829457
atom 18.0767106051699429 10.3295489172399684 0.0000000000000000 Zr
    velocity -0.4333170087348922 0.7766233030824644 -0.0393738048310928
atom 23.2414850637899306 10.3295489172399684 0.0000000000000000 Zr
    velocity -0.1534024803551606 -0.5615048789795116 0.3493063896327766
atom 2.5823872293099921 15.4943233758599526 0.0000000000000000 Zr
    velocity -0.1454705154285818 -0.5537213545398393 -0.0392938040011840
atom 7.7471616879299745 15.4943233758599526 0.0000000000000000 Zr
    velocity -0.3703144847741665 0.1646942673414989 -0.1425963658419768
atom 12.9119361465499587 15.4943233758599526 0.0000000000000000 Zr
    velocity 0.4803034802044119 -0.0889171037204803 0.5289712211057832
atom 18.0767106051699429 15.4943233758599526 0.0000000000000000 Zr
    velocity -0.0013939687290651 -0.0674461170404367 -0.4893165927706618
atom 23.2414850637899306 15.4943233758599526 0.0000000000000000 Zr
    velocity -0.2248330885455545 -0.0811897298847146 0.0479185310342226
atom 2.5823872293099921 20.6590978344799368 0.0000000000000000 Zr
    velocity 0.2657313311438894 -0.0035033022971506 0.0721239288923411
atom 7.7471616879299745 20.6590978344799368 0.0000000000000000 Zr
    velocity -0.0555993531623489 -0.3518507336834347 0.1423446780461332
atom 12.9119361465499587 20.6590978344799368 0.0000000000000000 Zr
    velocity 0.0886887417590440 -0.3939878081890036 0.5581462651712739
atom 18.0767106051699429 20.6590978344799368 0.0000000000000000 Zr
    velocity 0.4153224966176063 0.0459765740683751 -0.0494713393996923
atom 23.2414850637899306 20.6590978344799368 0.0000000000000000 Zr
    velocity -0.3615703122324831 -0.1446825578858844 0.0195384020627453
atom 2.5823872293099921 0.0000000000000000 5.2948019774984845 Zr
    velocity 0.3231145589364289 0.1079400156224283 -0.0854179713634295
atom 7.7471616879299745 0.0000000000000000 5.2948019774984845 Zr
    velocity 0.2982051980081725 0.4069330398317321 -0.4284823898469983
atom 12.9119361465499587 0.0000000000000000 5.2948019774984845 Zr
    velocity 0.1078481187034536 0.0152241392179005 -0.4748808780373731
atom 18.0767106051699429 0.0000000000000000 5.2948019774984845 Zr
    velocity 0.3217068622213626 0.2074336141334247 -0.8435249744497615
atom 23.2414850637899306 0.0000000000000000 5.2948019774984845 Zr
    velocity -0.4844066015451860 0.4326713136346866 -0.0417389790576460
atom 2.5823872293099921 5.1647744586199842 5.2948019774984845 Zr
    velocity -0.0130296991732014 0.0841964239506559 -0.0488365679798707
atom 7.7471616879299745 5.1647744586199842 5.2948019774984845 Zr
    velocity -0.0542342793544341 0.0254270373728914 -0.5219340263499771
atom 12.9119361465499587 5.1647744586199842 5.2948019774984845 Zr
    velocity -0.4741677363225733 0.0459522451452158 -0.0624703607494889
atom 18.0767106051699429 5.1647744586199842 5.2948019774984845 Zr
    velocity -0.1415814899669404 -0.1879507145693793 0.1936740342468664
atom 23.2414850637899306 5.1647744586199842 5.2948019774984845 Zr
    velocity 0.2247880841628999 -0.2070145965342197 -0.2071361950045570
atom 2.5823872293099921 10.3295489172399684 5.2948019774984845 Zr
    velocity -0.5682968209564669 0.0623334777820485 -0.4165330192264108
atom 7.7471616879299745 10.3295489172399684 5.2948019774984845 Zr
    velocity -0.3117080165080117 0.0216232329484452 0.5639280656540860
atom 12.9119361465499587 10.3295489172399684 5.2948019774984845 Zr
    velocity 0.1542367404145466 -0.3824169010308568 -0.1276803496349649
atom 18.0767106051699429 10.3295489172399684 5.2948019774984845 Zr
    velocity -0.1385379914686413 -0.0519236081295616 0.1881007404374413
atom 23.2414850637899306 10.3295489172399684 5.2948019774984845 Zr
    velocity -0.5513164106003376 0.0391369252591222 -0.0227885241182665
atom 2.5823872293099921 15.4943233758599526 5.2948019774984845 Zr
    velocity -0.5230752065228473 0.4660198856850617 0.4453391121949666
atom 7.7471616879299745 15.4943233758599526 5.2948019774984845 Zr
    velocity -0.1487881429912888 -0.4793965672732649 0.4432452813957969
atom 12.9119361465499587 15.4943233758599526 5.2948019774984845 Zr
    velocity 0.4977951460102076 0.1178885276089610 -0.7432983317729916
atom 18.0767106051699429 15.4943233758599526 5.2948019774984845 Zr
    velocity 0.5442949458892488 -0.0887866605833503 -0.1460046990934439
atom 23.2414850637899306 15.4943233758599526 5.2948019774984845 Zr
    velocity 0.1197631261634949 -0.0176366387891428 -0.1613987902593989
atom 2.5823872293099921 20.6590978344799368 5.2948019774984845 Zr
    velocity 0.6552992913525139 -0.4739541203913193 0.1722935215659039
atom 7.7471616879299745 20.6590978344799368 5.2948019774984845 Zr
    velocity 0.0203571934513413 -0.4565063499470929 0.2436617698160274
atom 12.9119361465499587 20.6590978344799368 5.2948019774984845 Zr
    velocity 0.2605845494181789 -0.3886769199204312 0.2917059439725748
atom 18.0767106051699429 20.6590978344799368 5.2948019774984845 Zr
    velocity 0.2566759234499563 0.6406002552235350 0.1394971843531644
atom 23.2414850637899306 20.6590978344799368 5.2948019774984845 Zr
    velocity 0.5319233233828671 -0.1358717289903708 -0.1328480419444932
atom 2.5823872293099921 0.0000000000000000 10.5896039549969689 Zr
    velocity 0.2480119299766613 0.0947506713433192 -0.2739188223145315
atom 7.7471616879299745 0.0000000000000000 10.5896039549969689 Zr
    velocity 0.0652833553728968 0.0167623214925993 -0.4520371837333184
atom 12.9119361465499587 0.0000000000000000 10.5896039549969689 Zr
    velocity 0.1731232848062986 -0.2824508218400121 -0.3832231941376429
atom 18.0767106051699429 0.0000000000000000 10.5896039549969689 Zr
    velocity 0.2410316594531470 -0.3231419290315108 -0.0345362559713564
atom 23.2414850637899306 0.0000000000000000 10.5896039549969689 Zr
    velocity -0.1592957338273942 0.5729914249751030 -0.1316490929860835
atom 2.5823872293099921 5.1647744586199842 10.5896039549969689 Zr
    velocity -0.2238179701275908 -0.3304969986972149 -0.3135367768698928
atom 7.7471616879299745 5.1647744586199842 10.5896039549969689 Zr
    velocity 0.1438473684450400 0.1385895120816456 0.2479124356760068
atom 12.9119361465499587 5.1647744586199842 10.5896039549969689 Zr
    velocity -0.1769038605664299 0.4274599518469163 0.1139276563111272
atom 18.0767106051699429 5.1647744586199842 10.5896039549969689 Zr
    velocity -0.3638870358523844 -0.4741045481483844 -0.4224323921224988
atom 23.2414850637899306 5.1647744586199842 10.5896039549969689 Zr
    velocity 0.0463040956281353 -0.5739126893234808 0.2964246736231907
atom 2.5823872293099921 10.3295489172399684 10.5896039549969689 Zr
    velocity -0.0172033543406014 0.3416073454997331 0.1408948459028358
atom 7.7471616879299745 10.3295489172399684 10.5896039549969689 Zr
    velocity -0.6119008465724932 -0.5122405859582244 0.0564101085972163
atom 12.9119361465499587 10.3295489172399684 10.5896039549969689 Zr
    velocity 0.0572051747203567 -0.1377254914834412 0.1392344775018281
atom 18.0767106051699429 10.3295489172399684 10.5896039549969689 Zr
    velocity 0.1743370198488023 -0.3369328774681297 -0.1791552729923911
atom 23.2414850637899306 10.3295489172399684 10.5896039549969689 Zr
    velocity -0.2890008804339966 0.1649985124523310 -0.4344346456361653
atom 2.5823872293099921 15.4943233758599526 10.5896039549969689 Zr
    velocity 0.1383398635018093 0.3118984538157832 0.1506172250672926
atom 7.7471616879299745 15.4943233758599526 10.5896039549969689 Zr
    velocity -0.4165215879722933 -0.1645624220213350 -0.1690072423754564
atom 12.9119361465499587 15.4943233758599526 10.5896039549969689 Zr
    velocity 0.1868473633915184 -0.4625389997052401 -0.3163302516695763
atom 18.0767106051699429 15.4943233758599526 10.5896039549969689 Zr
    velocity -0.4371772714552509 -0.2975430716246686 0.1356983307050365
atom 23.2414850637899306 15.4943233758599526 10.5896039549969689 Zr
    velocity -0.3839710970541057 0.3097364272476106 -0.3705381744093731
atom 2.5823872293099921 20.6590978344799368 10.5896039549969689 Zr
    velocity 0.2291813299399420 0.3395019213062587 0.1532165535937872
atom 7.7471616879299745 20.6590978344799368 10.5896039549969689 Zr
    velocity -0.1498709660137235 -0.0215918427996838 -0.2265071255277628
atom 12.9119361465499587 20.6590978344799368 10.5896039549969689 Zr
    velocity -0.0770744873109511 0.0659618564825406 -0.2236853339179677
atom 18.0767106051699429 20.6590978344799368 10.5896039549969689 Zr
    velocity 0.2088259552926890 -0.2786795992169067 0.0508900027492664
atom 23.2414850637899306 20.6590978344799368 10.5896039549969689 Zr
    velocity 0.0568604404698902 0.2492813774616376 0.3369898583201093
atom 2.5823872293099921 0.0000000000000000 15.8844059324954561 Zr
    velocity -0.3430449800826590 0.6391054014670954 -0.0878405633707387
atom 7.7471616879299745 0.0000000000000000 15.8844059324954561 Zr
    velocity -0.2273551800396469 -0.4028920839769530 -0.3194074877438270
atom 12.9119361465499587 0.0000000000000000 15.8844059324954561 Zr
    velocity -0.0899465300417976 0.3365630276835430 -0.0310841637981827
atom 18.0767106051699429 0.0000000000000000 15.8844059324954561 Zr
    velocity -0.0657788741842423 0.0643211549151713 -0.0260961326358347
atom 23.2414850637899306 0.0000000000000000 15.8844059324954561 Zr
    velocity -0.2269339259935411 0.0076641892379822 -0.2461229074866187
atom 2.5823872293099921 5.1647744586199842 15.8844059324954561 Zr
    velocity -0.1050229674801901 0.5646302425201996 -0.3460312752948464
atom 7.7471616879299745 5.1647744586199842 15.8844059324954561 Zr
    velocity 0.1380252496352763 0.0380916711002489 -0.0143405125578754
atom 12.9119361465499587 5.1647744586199842 15.8844059324954561 Zr
    velocity 0.0140498157064433 0.0135789461068483 0.4140482756098738
atom 18.0767106051699429 5.1647744586199842 15.8844059324954561 Zr
    velocity 0.4218327826003604 -0.0540499630890353 0.0707855808009273
atom 23.2414850637899306 5.1647744586199842 15.8844059324954561 Zr
    velocity -0.2308001520164981 0.2137872745830780 0.1140137275596954
atom 2.5823872293099921 10.3295489172399684 15.8844059324954561 Zr
    velocity 0.0671367942428348 0.2246460549257522 0.4369387804121740
atom 7.7471616879299745 10.3295489172399684 15.8844059324954561 Zr
    velocity 0.3044037233916984 -0.0749928643822359 -0.2321637476839278
atom 12.9119361465499587 10.3295489172399684 15.8844059324954561 Zr
    velocity -0.0911180625711578 0.1666194224366861 -0.3921996222181144
atom 18.0767106051699429 10.3295489172399684 15.8844059324954561 Zr
    velocity 0.3823674024177652 0.2257147521861256 0.3194935250741677
atom 23.2414850637899306 10.3295489172399684 15.8844059324954561 Zr
    velocity -0.1727628202163824 -0.0845538062558083 0.0917089127451354
atom 2.5823872293099921 15.4943233758599526 15.8844059324954561 Zr
    velocity 0.1833129689059416 0.3166214757729336 -0.0707665742537814
atom 7.7471616879299745 15.4943233758599526 15.8844059324954561 Zr
    velocity 0.0365910797156706 -0.3773742687716434 0.5342036734356480
atom 12.9119361465499587 15.4943233758599526 15.8844059324954561 Zr
    velocity 0.7340806580828662 0.0724723354173885 0.1421960292500428
atom 18.0767106051699429 15.4943233758599526 15.8844059324954561 Zr
    velocity 0.2515031574437182 -0.2401484198621202 0.0512284380037328
atom 23.2414850637899306 15.4943233758599526 15.8844059324954561 Zr
    velocity -0.2894252587197242 -0.7631914751007579 0.1289313595137923
atom 2.5823872293099921 20.6590978344799368 15.8844059324954561 Zr
    velocity 0.0739506896556889 -0.2682036709692804 0.7524249186566251
atom 7.7471616879299745 20.6590978344799368 15.8844059324954561 Zr
    velocity -0.5921990142614511 -0.4338573631986770 0.0873786259440227
atom 12.9119361465499587 20.6590978344799368 15.8844059324954561 Zr
    velocity 0.2180070136805468 -0.3593154331855510 0.3109421881555846
atom 18.0767106051699429 20.6590978344799368 15.8844059324954561 Zr
    velocity -0.2541319007552854 -0.3116890803821513 -0.0152495024998142
atom 23.2414850637899306 20.6590978344799368 15.8844059324954561 Zr
    velocity 0.5606082198867800 0.1708364720226902 0.2047513378228350
atom 2.5823872293099921 0.0000000000000000 21.1792079099939379 Zr
    velocity -0.1850119492031846 -0.1604829499655585 -0.3263514312708586
atom 7.7471616879299745 0.0000000000000000 21.1792079099939379 Zr
    velocity 0.5666977016615180 -0.0624275787884884 0.2616399618288944
atom 12.9119361465499587 0.0000000000000000 21.1792079099939379 Zr
    velocity 0.1010875808111424 0.1148480041197229 0.0002347147853272
atom 18.0767106051699429 0.0000000000000000 21.1792079099939379 Zr
    velocity -0.1013954895510099 -0.0285725405322789 0.3006144179922790
atom 23.2414850637899306 0.0000000000000000 21.1792079099939379 Zr
    velocity 0.4454842244065134 -0.0113490336543917 -0.4062594849160654
atom 2.5823872293099921 5.1647744586199842 21.1792079099939379 Zr
    velocity -0.1493460189658513 0.1458929632883250 -0.4338418139939602
atom 7.7471616879299745 5.1647744586199842 21.1792079099939379 Zr
    velocity 0.1790304903185112 -0.0511599081093811 -0.2477787903427776
atom 12.9119361465499587 5.1647744586199842 21.1792079099939379 Zr
    velocity -0.3998641324292538 -0.6183765854382670 0.3126449384602810
atom 18.0767106051699429 5.1647744586199842 21.1792079099939379 Zr
    velocity -0.4297055730384896 0.4532989851645979 0.0674733513544785
atom 23.2414850637899306 5.1647744586199842 21.1792079099939379 Zr
    velocity -0.1190707087603506 -0.2330077707735147 0.2648671043634706
atom 2.5823872293099921 10.3295489172399684 21.1792079099939379 Zr
    velocity 0.2276490656329750 0.9874556167694178 -0.1169550876288988
atom 7.7471616879299745 10.3295489172399684 21.1792079099939379 Zr
    velocity 0.0738602545402073 -0.3531748494168724 -0.0505015011804421
atom 12.9119361465499587 10.3295489172399684 21.1792079099939379 Zr
    velocity -0.1131812632454571 0.1592456404453136 -0.1303161155183147
atom 18.0767106051699429 10.3295489172399684 21.1792079099939379 Zr
    velocity 0.6318444938202717 -0.3050820212522771 0.0018951933363286
atom 23.2414850637899306 10.3295489172399684 21.1792079099939379 Zr
    velocity 0.1362814832940527 0.3770375949723587 0.2836383322083898
atom 2.5823872293099921 15.4943233758599526 21.1792079099939379 Zr
    velocity -0.0314574165079588 -0.3567730671053760 -0.0800070077150912
atom 7.7471616879299745 15.4943233758599526 21.1792079099939379 Zr
    velocity 0.4635010579939503 -0.3005645985719509 0.4742543827737070
atom 12.9119361465499587 15.4943233758599526 21.1792079099939379 Zr
    velocity -0.8371513277796711 -0.4614607593872116 -0.2864619431167714
atom 18.0767106051699429 15.4943233758599526 21.1792079099939379 Zr
    velocity 0.4780351456332062 -0.4571114261610112 0.3040510586619722
atom 23.2414850637899306 15.4943233758599526 21.1792079099939379 Zr
    velocity 0.8385025788331638 0.7497068891213620 0.7557742131578814
atom 2.5823872293099921 20.6590978344799368 21.1792079099939379 Zr
    velocity 0.0449222445261790 -0.1514814365430869 0.0013344781801771
atom 7.7471616879299745 20.6590978344799368 21.1792079099939379 Zr
    velocity -0.1993036546438217 0.0794768295284686 -0.5623948656054674
atom 12.9119361465499587 20.6590978344799368 21.1792079099939379 Zr
    velocity 0.0008409107386541 -0.3526677298584690 -0.0963552636726639
atom 18.0767106051699429 20.6590978344799368 21.1792079099939379 Zr
    velocity -0.3638967366615387 0.1934431963491181 -0.1135614737842685
atom 23.2414850637899306 20.6590978344799368 21.1792079099939379 Zr
    velocity -0.3982662728880341 -0.3785406795745849 0.2106360907877213
atom 0.0000000000000000 2.5823872293099921 0.0000000000000000 Zr
    velocity 0.2001544028599543 0.2381333867440572 0.0900141813117220
atom 5.1647744586199842 2.5823872293099921 0.0000000000000000 Zr
    velocity -0.6122224094231673 0.1933480638519321 0.4316621565776463
atom 10.3295489172399684 2.5823872293099921 0.0000000000000000 Zr
    velocity 0.3534764122545886 0.1308402546685754 0.0741650970176346
atom 15.4943233758599526 2.5823872293099921 0.0000000000000000 Zr
    velocity 0.7907096433585166 0.2710608308549168 -0.5866791014259147
atom 20.6590978344799368 2.5823872293099921 0.0000000000000000 Zr
    velocity -0.0674717835988520 -0.3272087513443700 -0.0186306597871467
atom 0.0000000000000000 7.7471616879299745 0.0000000000000000 Zr
    velocity 0.0062001563409231 -0.0056628071546229 0.5626949159538193
atom 5.1647744586199842 7.7471616879299745 0.0000000000000000 Zr
    velocity 0.2396720024544571 -0.1747023882182983 -0.4430798690391495
atom 10.3295489172399684 7.7471616879299745 0.0000000000000000 Zr
    velocity -0.4018137772996194 0.1239724821326000 -0.1831333182319203
atom 15.4943233758599526 7.7471616879299745 0.0000000000000000 Zr
    velocity -0.0622877756200171 -0.3472705773993386 0.1215274835382301
atom 20.6590978344799368 7.7471616879299745 0.0000000000000000 Zr
    velocity 0.3757773939265540 0.0811109235844354 0.0719052924158561
atom 0.0000000000000000 12.9119361465499587 0.0000000000000000 Zr
    velocity 0.4116908746507779 0.1105228082258574 -0.4771714109808460
atom 5.1647744586199842 12.9119361465499587 0.0000000000000000 Zr
    velocity -0.2742570485472394 -0.0982438616658997 -0.0459833622620369
atom 10.3295489172399684 12.9119361465499587 0.0000000000000000 Zr
    velocity -0.1084831059622723 -0.1753121553791547 0.1653571287655107
atom 15.4943233758599526 12.9119361465499587 0.0000000000000000 Zr
    velocity -0.6370665984181044 0.4376558279123313 -0.1319737318743787
atom 20.6590978344799368 12.9119361465499587 0.0000000000000000 Zr
    velocity 0.3328541160701946 -0.1167933976413931 0.4463968851545344
atom 0.0000000000000000 18.0767106051699429 0.0000000000000000 Zr
    velocity -0.2194338545059458 -0.3960959612839723 -0.2976497869904411
atom 5.1647744586199842 18.0767106051699429 0.0000000000000000 Zr
    velocity -0.7204468894235353 0.1825999313252744 -0.5244616428549159
atom 10.3295489172399684 18.0767106051699429 0.0000000000000000 Zr
    velocity -0.1039235142225143 -0.0668617320670806 -0.1789832309999279
atom 15.4943233758599526 18.0767106051699429 0.0000000000000000 Zr
    velocity -0.1139359389603911 0.1511787317544881 0.1452774160693011
atom 20.6590978344799368 18.0767106051699429 0.0000000000000000 Zr
    velocity -0.0955430210677850 0.6916193954813498 -0.3274493820312042
atom 0.0000000000000000 23.2414850637899306 0.0000000000000000 Zr
    velocity -0.2854677391635779 -0.3387395481798245 0.3726850431173125
atom 5.1647744586199842 23.2414850637899306 0.0000000000000000 Zr
    velocity -0.0539161746728744 -0.4204073802506627 -0.2106250680427392
atom 10.3295489172399684 23.2414850637899306 0.0000000000000000 Zr
    velocity -0.0767800966617808 -0.0132060222561985 0.5686170954105800
atom 15.4943233758599526 23.2414850637899306 0.0000000000000000 Zr
    velocity 0.1696767502841311 -0.0725816585868245 -0.1201482508213526
atom 20.6590978344799368 23.2414850637899306 0.0000000000000000 Zr
    velocity 0.2322793159404549 0.1144469215865345 -0.0924827412461329
atom 0.0000000000000000 2.5823872293099921 5.2948019774984845 Zr
    velocity 0.1540658701306327 -0.1021378495345808 -0.2732521341188936
atom 5.1647744586199842 2.5823872293099921 5.2948019774984845 Zr
    velocity -0.5952742079274606 0.1625184343448839 -0.0379544379835832
atom 10.3295489172399684 2.5823872293099921 5.2948019774984845 Zr
    velocity -0.1256655881974328 0.5027343360668832 -0.2438201189860945
atom 15.4943233758599526 2.5823872293099921 5.2948019774984845 Zr
    velocity 0.0059738427053069 -0.0198323590466656 -0.3729176710227541
atom 20.6590978344799368 2.5823872293099921 5.2948019774984845 Zr
    velocity 0.2038643973043403 -0.1794742533909406 0.3357211334664793
atom 0.0000000000000000 7.7471616879299745 5.2948019774984845 Zr
    velocity 0.2393351639347543 0.1010731570573751 0.0334225551385237
atom 5.1647744586199842 7.7471616879299745 5.2948019774984845 Zr
    velocity 0.3280992091931140 -0.2265313965551659 -0.3519438696365048
atom 10.3295489172399684 7.7471616879299745 5.2948019774984845 Zr
    velocity -0.2173974249689386 0.4291816486024373 -0.4723669421251501
atom 15.4943233758599526 7.7471616879299745 5.2948019774984845 Zr
    velocity -0.0220546426217627 -0.0090947565598018 0.1733004558223881
atom 20.6590978344799368 7.7471616879299745 5.2948019774984845 Zr
    velocity -0.5081701530949186 -0.2751398182043847 0.1253622375805866
atom 0.0000000000000000 12.9119361465499587 5.2948019774984845 Zr
    velocity 0.1410336790261327 0.1717918981048578 0.5970875882885052
atom 5.1647744586199842 12.9119361465499587 5.2948019774984845 Zr
    velocity 0.1229344427924505 0.1052777327139893 0.4756900483376049
atom 10.3295489172399684 12.9119361465499587 5.2948019774984845 Zr
    velocity -0.1791858759091730 -0.1994062084621230 0.0748441204911343
atom 15.4943233758599526 12.9119361465499587 5.2948019774984845 Zr
    velocity -0.4952140908933765 0.3831108291778575 0.5858121316063276
atom 20.6590978344799368 12.9119361465499587 5.2948019774984845 Zr
    velocity -0.0017616259176402 -0.1799737419355500 -0.3225068404146091
atom 0.0000000000000000 18.0767106051699429 5.2948019774984845 Zr
    velocity -0.2218516476308398 0.0460293439571802 -0.4943085044631782
atom 5.1647744586199842 18.0767106051699429 5.2948019774984845 Zr
    velocity -0.4056680425815113 0.2368910775583181 -0.4858469696687157
atom 10.3295489172399684 18.0767106051699429 5.2948019774984845 Zr
    velocity 0.2650551177078071 0.1565601788353344 -0.0693070006303978
atom 15.4943233758599526 18.0767106051699429 5.2948019774984845 Zr
    velocity -0.0644397230930528 -0.0540124730598077 -0.3626880544357033
atom 20.6590978344799368 18.0767106051699429 5.2948019774984845 Zr
    velocity -0.1021468350307080 0.5508593728957293 -0.3400800219709882
atom 0.0000000000000000 23.2414850637899306 5.2948019774984845 Zr
    velocity 0.0148031200438993 -0.4921616284418004 -0.4334282922987163
atom 5.1647744586199842 23.2414850637899306 5.2948019774984845 Zr
    velocity -0.1472130416068371 0.1737739238485572 0.1050919455842909
atom 10.3295489172399684 23.2414850637899306 5.2948019774984845 Zr
    velocity -0.1974128882512623 -0.4767149841869954 -0.1375037769678478
atom 15.4943233758599526 23.2414850637899306 5.2948019774984845 Zr
    velocity -0.4221383593894614 0.0205349536067146 -0.0005246487354960
atom 20.6590978344799368 23.2414850637899306 5.2948019774984845 Zr
    velocity -0.3920376479874897 -0.0890596277980941 0.2166988624493599
atom 0.0000000000000000 2.5823872293099921 10.5896039549969689 Zr
    velocity -0.2196555004881815 -0.0683050108464468 -0.2145022099947719
atom 5.1647744586199842 2.5823872293099921 10.5896039549969689 Zr
    velocity 0.2695144555575555 -0.1360431534879207 -0.2737384573997154
atom 10.3295489172399684 2.5823872293099921 10.5896039549969689 Zr
    velocity 0.0801697449289469 0.2142141381660982 0.4058289250170055
atom 15.4943233758599526 2.5823872293099921 10.5896039549969689 Zr
    velocity -0.1844319294428685 -0.2307579221113359 -0.1883381728073405
atom 20.6590978344799368 2.5823872293099921 10.5896039549969689 Zr
    velocity 0.0698636409439590 -0.2008381329963169 0.0114310327776319
atom 0.0000000000000000 7.7471616879299745 10.5896039549969689 Zr
    velocity 0.4207321850767455 -0.1520379573370035 -0.3194731076441448
atom 5.1647744586199842 7.7471616879299745 10.5896039549969689 Zr
    velocity -0.6286893221071574 0.0888176472097725 -0.2030654009167874
atom 10.3295489172399684 7.7471616879299745 10.5896039549969689 Zr
    velocity 0.2835303471556037 0.0433107571728801 0.2810939537694611
atom 15.4943233758599526 7.7471616879299745 10.5896039549969689 Zr
    velocity -0.0172751606037742 0.1442430753859452 -0.1294503775354787
atom 20.6590978344799368 7.7471616879299745 10.5896039549969689 Zr
    velocity 0.3189280716025061 -0.3978938674239781 0.0203881604711052
atom 0.0000000000000000 12.9119361465499587 10.5896039549969689 Zr
    velocity -0.0425218285135341 -0.3293227037309711 -0.2602845426524236
atom 5.1647744586199842 12.9119361465499587 10.5896039549969689 Zr
    velocity -0.2258651137755660 -0.1085212156019179 -0.1769778183872540
atom 10.3295489172399684 12.9119361465499587 10.5896039549969689 Zr
    velocity 0.1560832451206538 -0.4500821358643567 -0.1105946380698067
atom 15.4943233758599526 12.9119361465499587 10.5896039549969689 Zr
    velocity -0.0889653447769390 0.2527090420632764 0.2382963985585817
atom 20.6590978344799368 12.9119361465499587 10.5896039549969689 Zr
    velocity -0.2708456975516101 0.6865090409103546 0.4057947486905860
atom 0.0000000000000000 18.0767106051699429 10.5896039549969689 Zr
    velocity 0.2246499067194148 0.3111975510619472 0.7863999571285903
atom 5.1647744586199842 18.0767106051699429 10.5896039549969689 Zr
    velocity 0.2628510201376449 -0.2205460937911624 0.4430748406040151
atom 10.3295489172399684 18.0767106051699429 10.5896039549969689 Zr
    velocity -0.4573264401556629 -0.1299979821271063 0.0572336640901284
atom 15.4943233758599526 18.0767106051699429 10.5896039549969689 Zr
    velocity -0.4449633131562100 0.1510185473377832 -0.2161812081785666
atom 20.6590978344799368 18.0767106051699429 10.5896039549969689 Zr
    velocity 0.4846223392995445 0.1774449323750285 -0.2357528000780407
atom 0.0000000000000000 23.2414850637899306 10.5896039549969689 Zr
    velocity -0.0816984608450017 0.1397164088973703 0.0896702689113265
atom 5.1647744586199842 23.2414850637899306 10.5896039549969689 Zr
    velocity -0.2772768580547250 -0.1814659676506162 0.1880565714336856
atom 10.3295489172399684 23.2414850637899306 10.5896039549969689 Zr
    velocity 0.2871517827381962 0.3731949934386615 0.2448440048516045
atom 15.4943233758599526 23.2414850637899306 10.5896039549969689 Zr
    velocity -0.3417311796494986 -0.5406137273208010 -0.0560346202974580
atom 20.6590978344799368 23.2414850637899306 10.5896039549969689 Zr
    velocity -0.1572349262521185 0.0279781679715731 0.2799809506324829
atom 0.0000000000000000 2.5823872293099921 15.8844059324954561 Zr
    velocity 0.7078153477551262 0.2271846717310806 0.0367889042608437
atom 5.1647744586199842 2.5823872293099921 15.8844059324954561 Zr
    velocity -0.0233382519678086 0.0497088001028657 0.0979569811040045
atom 10.3295489172399684 2.5823872293099921 15.8844059324954561 Zr
    velocity 0.6726635348320789 0.3710480142971641 -0.3138872907085979
atom 15.4943233758599526 2.5823872293099921 15.8844059324954561 Zr
    velocity -0.0671544856444261 0.1231532544460653 0.3489468365242049
atom 20.6590978344799368 2.5823872293099921 15.8844059324954561 Zr
    velocity -0.1682455417725986 -0.0212050178483994 0.0070884837029403
atom 0.0000000000000000 7.7471616879299745 15.8844059324954561 Zr
    velocity 0.2278599383853576 -0.1819538764680637 0.2800840011622636
atom 5.1647744586199842 7.7471616879299745 15.8844059324954561 Zr
    velocity -0.1222703961393869 -0.1373635470499173 -0.4293885723316933
atom 10.3295489172399684 7.7471616879299745 15.8844059324954561 Zr
    velocity 0.3996596472284442 -0.0912207837744959 -0.4646122955118318
atom 15.4943233758599526 7.7471616879299745 15.8844059324954561 Zr
    velocity 0.2602421283180796 -0.1520009548044812 0.5999499190724661
atom 20.6590978344799368 7.7471616879299745 15.8844059324954561 Zr
    velocity 0.1439316889761481 -0.0536065422308200 -0.6783953627347457
atom 0.0000000000000000 12.9119361465499587 15.8844059324954561 Zr
    velocity -0.3200938101063271 -0.1687950031774943 0.2390987551472755
atom 5.1647744586199842 12.9119361465499587 15.8844059324954561 Zr