#=======================================================
# FHI-aims file: 1700_geometry.in.primitive
# Created using the Atomic Simulation Environment (ASE)
# Sat Feb 18 23:45:13 2023
#=======================================================
lattice_vector 5.1685439560439566 0.0000000000000000 0.0000000000000000 
lattice_vector 0.0000000000000000 5.1685439560439566 0.0000000000000000 
lattice_vector 0.0000000000000000 0.0000000000000000 5.2997252747252750 
atom_frac 0.4999999999999999 0.0000000000000000 0.0000000000000000 Zr
atom_frac 0.0000000000000000 0.4999999999999999 0.0000000000000000 Zr
atom_frac 0.0000000000000000 0.0000000000000000 0.5000000000000000 Zr
atom_frac 0.4999999999999999 0.4999999999999999 0.5000000000000000 Zr
atom_frac 0.2500000000000000 0.7500000000000000 0.2008803989540000 O
atom_frac 0.7500000000000000 0.2500000000000000 0.2008803989540000 O
atom_frac 0.2500000000000000 0.7500000000000000 0.7008803989540000 O
atom_frac 0.7500000000000000 0.2500000000000000 0.7008803989540000 O
atom_frac 0.2500000000000000 0.2500000000000000 0.7991196010460000 O
atom_frac 0.7500000000000000 0.7500000000000000 0.7991196010460000 O
atom_frac 0.2500000000000000 0.2500000000000000 0.2991196010460000 O
atom_frac 0.7500000000000000 0.7500000000000000 0.2991196010460000 O
