#=======================================================
# FHI-aims file: 1800_geometry.in.primitive.supercell_1500.0010K
# Created using the Atomic Simulation Environment (ASE)
# Thu Jan  5 12:12:29 2023

# Additional information:
#  created from MB distrubtion
#  T = 10.0 K
#  quantum:             False
#  deterministic:       False
#  plus_minus:          False
#  gauge_eigenvectors:  False
#  Random seed:         1430492662
#  Sample number:       1
#=======================================================
lattice_vector 25.8701923076923102 0.0000000000000000 0.0000000000000000 
lattice_vector 0.0000000000000000 25.8701923076923102 0.0000000000000000 
lattice_vector 0.0000000000000000 0.0000000000000000 26.5260989010989015 
atom 2.5870192307692310 0.0000000000000000 0.0000000000000000 Zr
    velocity -0.3289326958871492 0.3351360440254875 0.0683116084762661
atom 7.7610576923076930 0.0000000000000000 0.0000000000000000 Zr
    velocity 0.0932326712901701 -0.3993389041661009 -0.0249103289325139
atom 12.9350961538461551 0.0000000000000000 0.0000000000000000 Zr
    velocity 0.2058808158859341 0.0672612628501694 -0.5939506782898180
atom 18.1091346153846189 0.0000000000000000 0.0000000000000000 Zr
    velocity 0.1460724162160482 -0.4073443207654385 -0.1774541826109781
atom 23.2831730769230809 0.0000000000000000 0.0000000000000000 Zr
    velocity -0.3520632997397544 0.2569176109062193 0.1571184202385518
atom 2.5870192307692310 5.1740384615384620 0.0000000000000000 Zr
    velocity -0.2103201443836641 -0.0296126135056321 -0.3569066678185547
atom 7.7610576923076930 5.1740384615384620 0.0000000000000000 Zr
    velocity -0.2831126214298431 0.2866252404157070 0.1707694597746934
atom 12.9350961538461551 5.1740384615384620 0.0000000000000000 Zr
    velocity -0.3670951627826733 -0.5075162766665967 0.3472472721632087
atom 18.1091346153846189 5.1740384615384620 0.0000000000000000 Zr
    velocity 0.1813098757760171 -0.0861102767284678 -0.0308119531810459
atom 23.2831730769230809 5.1740384615384620 0.0000000000000000 Zr
    velocity -0.4281699747597213 0.0187179936023410 0.0181224923650285
atom 2.5870192307692310 10.3480769230769241 0.0000000000000000 Zr
    velocity -0.2384208807620378 0.5880019463284311 0.7150317860923496
atom 7.7610576923076930 10.3480769230769241 0.0000000000000000 Zr
    velocity -0.2487066379757532 0.4739414941856366 -0.3236483584469418
atom 12.9350961538461551 10.3480769230769241 0.0000000000000000 Zr
    velocity -0.3387206042378403 -0.6591097780661713 -0.0798367643143863
atom 18.1091346153846189 10.3480769230769241 0.0000000000000000 Zr
    velocity 0.1240262325001620 -0.0785191026907008 0.0433957677335769
atom 23.2831730769230809 10.3480769230769241 0.0000000000000000 Zr
    velocity -0.5869476353536366 0.3750015389504622 0.5866497371632479
atom 2.5870192307692310 15.5221153846153879 0.0000000000000000 Zr
    velocity -0.5096205657096800 -0.0934991228589063 0.2099764806273676
atom 7.7610576923076930 15.5221153846153879 0.0000000000000000 Zr
    velocity -0.5019097861683959 -0.1114809051776114 0.0292537512567565
atom 12.9350961538461551 15.5221153846153879 0.0000000000000000 Zr
    velocity -0.3765125980286133 -0.2165549300886731 0.1811109617205418
atom 18.1091346153846189 15.5221153846153879 0.0000000000000000 Zr
    velocity -0.6492866196761425 -0.5879035166795057 -0.0525809806560599
atom 23.2831730769230809 15.5221153846153879 0.0000000000000000 Zr
    velocity 0.3395858298620320 -0.5042118241928549 -0.0487172700451759
atom 2.5870192307692310 20.6961538461538481 0.0000000000000000 Zr
    velocity 0.2651127530705071 0.2257533747567577 0.0571057854619092
atom 7.7610576923076930 20.6961538461538481 0.0000000000000000 Zr
    velocity 0.0977054190812810 0.1865365747076960 -0.0229392467641297
atom 12.9350961538461551 20.6961538461538481 0.0000000000000000 Zr
    velocity -0.0818400229095937 0.0520934832049640 -0.3205156949584888
atom 18.1091346153846189 20.6961538461538481 0.0000000000000000 Zr
    velocity 0.0225068223129570 -0.0551922896412449 -0.3025038549001342
atom 23.2831730769230809 20.6961538461538481 0.0000000000000000 Zr
    velocity 0.6813011753064294 0.5250469233060657 0.1212233188043134
atom 2.5870192307692310 0.0000000000000000 5.3052197802197805 Zr
    velocity 0.5661859561697459 -0.2128094159910646 0.3485187455337131
atom 7.7610576923076930 0.0000000000000000 5.3052197802197805 Zr
    velocity 0.2870499751929476 0.4824662586139825 0.3861674192290921
atom 12.9350961538461551 0.0000000000000000 5.3052197802197805 Zr
    velocity 0.2061627721170906 -0.0230158257607182 0.4511128805949470
atom 18.1091346153846189 0.0000000000000000 5.3052197802197805 Zr
    velocity -0.1346719692912364 -0.1146458399202909 0.0359081325876173
atom 23.2831730769230809 0.0000000000000000 5.3052197802197805 Zr
    velocity 0.2190198673449532 -0.2287411215086762 -0.4386797495092323
atom 2.5870192307692310 5.1740384615384620 5.3052197802197805 Zr
    velocity 0.0598755315439461 -0.4729338906747642 -0.2467889770092865
atom 7.7610576923076930 5.1740384615384620 5.3052197802197805 Zr
    velocity 0.1457818860004694 0.3175346030234625 0.4987541693668715
atom 12.9350961538461551 5.1740384615384620 5.3052197802197805 Zr
    velocity -0.1806766447444982 0.2946151247573249 0.0372377645923450
atom 18.1091346153846189 5.1740384615384620 5.3052197802197805 Zr
    velocity 0.3873724233772423 0.5578971559632944 -0.2290834313124621
atom 23.2831730769230809 5.1740384615384620 5.3052197802197805 Zr
    velocity 0.1143603540895254 -0.4043273314976870 0.0107688729230265
atom 2.5870192307692310 10.3480769230769241 5.3052197802197805 Zr
    velocity -0.0532106606203258 0.2927737199387054 0.1981376469711502
atom 7.7610576923076930 10.3480769230769241 5.3052197802197805 Zr
    velocity 0.2838523127825148 0.1599051854811585 -0.4559141424118672
atom 12.9350961538461551 10.3480769230769241 5.3052197802197805 Zr
    velocity -0.2320247287926327 -0.6480403433872041 0.3983607529003508
atom 18.1091346153846189 10.3480769230769241 5.3052197802197805 Zr
    velocity -0.2677275304734411 0.0735159188788424 -0.0361018538308383
atom 23.2831730769230809 10.3480769230769241 5.3052197802197805 Zr
    velocity -0.1621656097936442 0.1212770213806102 -0.0490323965553615
atom 2.5870192307692310 15.5221153846153879 5.3052197802197805 Zr
    velocity 0.1444398219386183 0.1063969865961040 -0.1299848972594585
atom 7.7610576923076930 15.5221153846153879 5.3052197802197805 Zr
    velocity -1.0886194738296990 -0.0185391240870070 -0.3971078853173724
atom 12.9350961538461551 15.5221153846153879 5.3052197802197805 Zr
    velocity 0.4324437954027812 -0.4142630951248807 0.3309209002549764
atom 18.1091346153846189 15.5221153846153879 5.3052197802197805 Zr
    velocity -0.1261194854894054 -0.5596710829643865 -0.0992379224715927
atom 23.2831730769230809 15.5221153846153879 5.3052197802197805 Zr
    velocity -0.0516209207919921 -0.1880435284149637 -0.3571328162674988
atom 2.5870192307692310 20.6961538461538481 5.3052197802197805 Zr
    velocity -0.8118261673875268 -0.1445608402983146 -0.3227957342363306
atom 7.7610576923076930 20.6961538461538481 5.3052197802197805 Zr
    velocity -0.3339855490983906 0.6571509550720414 0.2946487329096566
atom 12.9350961538461551 20.6961538461538481 5.3052197802197805 Zr
    velocity 0.0461565015362715 0.0638260896361435 -0.6104768379819412
atom 18.1091346153846189 20.6961538461538481 5.3052197802197805 Zr
    velocity 0.2669856238982947 -0.1918460561405376 0.1133972397593579
atom 23.2831730769230809 20.6961538461538481 5.3052197802197805 Zr
    velocity 0.0145096824196583 0.0111282297332544 -0.2255416272663593
atom 2.5870192307692310 0.0000000000000000 10.6104395604395609 Zr
    velocity -0.2528099293805830 -0.3340652291354447 -0.0533465111046177
atom 7.7610576923076930 0.0000000000000000 10.6104395604395609 Zr
    velocity -0.2545584127960289 0.2650118711962599 0.2154725053018514
atom 12.9350961538461551 0.0000000000000000 10.6104395604395609 Zr
    velocity 0.3971785354928354 0.1269605952585208 -0.5046827684729545
atom 18.1091346153846189 0.0000000000000000 10.6104395604395609 Zr
    velocity 0.0107673708244268 -0.3448872713759196 0.1703315162620061
atom 23.2831730769230809 0.0000000000000000 10.6104395604395609 Zr
    velocity 0.0341323405729288 0.1110300076535403 0.3207122199526248
atom 2.5870192307692310 5.1740384615384620 10.6104395604395609 Zr
    velocity 0.1986174857076468 0.3960210616389075 0.0947164639328872
atom 7.7610576923076930 5.1740384615384620 10.6104395604395609 Zr
    velocity -0.2335213597351403 -0.6404800842907791 -0.1341941619387281
atom 12.9350961538461551 5.1740384615384620 10.6104395604395609 Zr
    velocity -0.4130044238152062 -0.0530273636962132 0.2940620500288986
atom 18.1091346153846189 5.1740384615384620 10.6104395604395609 Zr
    velocity -0.4662331962816503 -0.0100168133619196 -0.1727406085350245
atom 23.2831730769230809 5.1740384615384620 10.6104395604395609 Zr
    velocity -0.6104234223797109 -0.0261724671376229 0.2055412541385052
atom 2.5870192307692310 10.3480769230769241 10.6104395604395609 Zr
    velocity -0.2720807974429488 0.2118841690734247 -0.3859203158265534
atom 7.7610576923076930 10.3480769230769241 10.6104395604395609 Zr
    velocity -0.1621374213585454 -0.3489013742765078 -0.1450773253702278
atom 12.9350961538461551 10.3480769230769241 10.6104395604395609 Zr
    velocity 0.2208044857245968 0.1549179904746894 0.2637548010992686
atom 18.1091346153846189 10.3480769230769241 10.6104395604395609 Zr
    velocity -0.1165636378774065 -0.2953310029650021 0.0968148347854125
atom 23.2831730769230809 10.3480769230769241 10.6104395604395609 Zr
    velocity 0.1405990292981420 0.4155904486794164 -0.3566125968619780
atom 2.5870192307692310 15.5221153846153879 10.6104395604395609 Zr
    velocity -0.1360454308822420 0.0029175937932620 0.1305689677514814
atom 7.7610576923076930 15.5221153846153879 10.6104395604395609 Zr
    velocity 0.2791305325256606 0.1180144571349702 -0.1038691863092299
atom 12.9350961538461551 15.5221153846153879 10.6104395604395609 Zr
    velocity -1.0235870546461969 0.3464579680881524 0.2179481110220418
atom 18.1091346153846189 15.5221153846153879 10.6104395604395609 Zr
    velocity 0.2419781181144282 -0.1013859582214953 -0.0363651250953138
atom 23.2831730769230809 15.5221153846153879 10.6104395604395609 Zr
    velocity -0.0427232290423044 -0.1790589020751193 -0.1477570185953153
atom 2.5870192307692310 20.6961538461538481 10.6104395604395609 Zr
    velocity 0.0333150887853722 0.4284736284479774 -0.0153704642532924
atom 7.7610576923076930 20.6961538461538481 10.6104395604395609 Zr
    velocity -0.1834430791822398 -0.4301849313549007 -0.1687291215243649
atom 12.9350961538461551 20.6961538461538481 10.6104395604395609 Zr
    velocity -0.3883692508223707 -0.0042653145752777 -0.0994638541065175
atom 18.1091346153846189 20.6961538461538481 10.6104395604395609 Zr
    velocity 0.1872441679505012 0.3641135450979264 0.2978699167780444
atom 23.2831730769230809 20.6961538461538481 10.6104395604395609 Zr
    velocity -0.3208118714207113 -0.1199552053068095 -0.3089037726508904
atom 2.5870192307692310 0.0000000000000000 15.9156593406593441 Zr
    velocity 0.1714464859088287 -0.4798715750669216 -0.1797365941749602
atom 7.7610576923076930 0.0000000000000000 15.9156593406593441 Zr
    velocity -0.4189776695044956 -0.2060879904544499 0.1519564647097630
atom 12.9350961538461551 0.0000000000000000 15.9156593406593441 Zr
    velocity 0.3774739697867752 0.1734081619346013 0.0132474466252898
atom 18.1091346153846189 0.0000000000000000 15.9156593406593441 Zr
    velocity 0.3059802521869475 -0.3997429255668259 0.0295090133426906
atom 23.2831730769230809 0.0000000000000000 15.9156593406593441 Zr
    velocity 0.2350526438266362 -0.1634233800347915 -0.1045107001889206
atom 2.5870192307692310 5.1740384615384620 15.9156593406593441 Zr
    velocity -0.1105617417158589 0.4014258922090127 0.1779746971381886
atom 7.7610576923076930 5.1740384615384620 15.9156593406593441 Zr
    velocity 0.2754681863814752 -0.0448313722631625 0.0199300560686513
atom 12.9350961538461551 5.1740384615384620 15.9156593406593441 Zr
    velocity -0.1053485310180958 0.2360766705512874 0.5851263833255423
atom 18.1091346153846189 5.1740384615384620 15.9156593406593441 Zr
    velocity -0.0065693308025953 0.0002732459371865 0.1495421141222718
atom 23.2831730769230809 5.1740384615384620 15.9156593406593441 Zr
    velocity 0.2269453480185212 0.4554232353617129 -0.1445052548489547
atom 2.5870192307692310 10.3480769230769241 15.9156593406593441 Zr
    velocity -0.0435413775332234 -0.1621361655264741 0.2805603153147809
atom 7.7610576923076930 10.3480769230769241 15.9156593406593441 Zr
    velocity 0.0497385827257872 -0.0513913437210474 0.3049902318451615
atom 12.9350961538461551 10.3480769230769241 15.9156593406593441 Zr
    velocity 0.2943239629991364 -0.1031755325399895 0.2392043222950722
atom 18.1091346153846189 10.3480769230769241 15.9156593406593441 Zr
    velocity 0.2530774362301149 0.1897595206314135 -0.2036366708368290
atom 23.2831730769230809 10.3480769230769241 15.9156593406593441 Zr
    velocity -0.1259229677975190 0.9028343176711067 -0.1171255903187082
atom 2.5870192307692310 15.5221153846153879 15.9156593406593441 Zr
    velocity 0.2200368515382862 0.1346307721645420 -0.3544281235890498
atom 7.7610576923076930 15.5221153846153879 15.9156593406593441 Zr
    velocity 0.0454038363927788 -0.4108362274186232 -0.5510041173270198
atom 12.9350961538461551 15.5221153846153879 15.9156593406593441 Zr
    velocity 0.2277671134210523 -0.2401530869441592 0.5731382200828221
atom 18.1091346153846189 15.5221153846153879 15.9156593406593441 Zr
    velocity -0.3228762484620982 -0.1551003887806600 -0.7899517799502834
atom 23.2831730769230809 15.5221153846153879 15.9156593406593441 Zr
    velocity -0.0327827770026731 0.1661314268786263 0.6834991428490667
atom 2.5870192307692310 20.6961538461538481 15.9156593406593441 Zr
    velocity 0.0743687215890610 0.0072533402529751 -0.0808003459433217
atom 7.7610576923076930 20.6961538461538481 15.9156593406593441 Zr
    velocity -0.3607981740722802 -0.0595564347651987 0.1871986237778676
atom 12.9350961538461551 20.6961538461538481 15.9156593406593441 Zr
    velocity -0.1110034699759559 -0.4033918486830407 -0.0156641001862884
atom 18.1091346153846189 20.6961538461538481 15.9156593406593441 Zr
    velocity -0.0052346410997931 -0.3543245223463239 -0.0775700763104495
atom 23.2831730769230809 20.6961538461538481 15.9156593406593441 Zr
    velocity 0.1954900017026263 0.2149761738766523 -0.0162169204452176
atom 2.5870192307692310 0.0000000000000000 21.2208791208791219 Zr
    velocity 0.2046992636268994 -0.2355293407486215 -0.0807560949703251
atom 7.7610576923076930 0.0000000000000000 21.2208791208791219 Zr
    velocity -0.2674905647870380 -0.0350227065110916 0.4168646748110201
atom 12.9350961538461551 0.0000000000000000 21.2208791208791219 Zr
    velocity -0.3870582457884986 -1.0552706750125687 -0.1767197698962541
atom 18.1091346153846189 0.0000000000000000 21.2208791208791219 Zr
    velocity 0.0013275901786469 0.0047851488474096 -0.0814599590084965
atom 23.2831730769230809 0.0000000000000000 21.2208791208791219 Zr
    velocity 0.0479946645122707 0.1882848858885405 0.3271223972110185
atom 2.5870192307692310 5.1740384615384620 21.2208791208791219 Zr
    velocity 0.5088833142667254 -0.0694868248302247 -0.2310613217526534
atom 7.7610576923076930 5.1740384615384620 21.2208791208791219 Zr
    velocity 0.2337075595529964 0.2503679204129146 -0.4652319623783777
atom 12.9350961538461551 5.1740384615384620 21.2208791208791219 Zr
    velocity 0.2383504785598194 0.0121881072719082 0.2685292298749484
atom 18.1091346153846189 5.1740384615384620 21.2208791208791219 Zr
    velocity 0.0880934344456502 0.4318796985105923 0.5096100794840185
atom 23.2831730769230809 5.1740384615384620 21.2208791208791219 Zr
    velocity -0.4521627392964362 -0.1832788644098687 -0.6446608146849943
atom 2.5870192307692310 10.3480769230769241 21.2208791208791219 Zr
    velocity 0.1764872969569729 -0.0584764880546727 0.1507568460678912
atom 7.7610576923076930 10.3480769230769241 21.2208791208791219 Zr
    velocity 0.0327313015576894 -0.0276323794767261 -0.0447358524110859
atom 12.9350961538461551 10.3480769230769241 21.2208791208791219 Zr
    velocity -0.1934326093419425 -0.4948381581428827 -0.0697754584700794
atom 18.1091346153846189 10.3480769230769241 21.2208791208791219 Zr
    velocity 0.3743888019157152 -0.0205755929512081 0.3424535154223864
atom 23.2831730769230809 10.3480769230769241 21.2208791208791219 Zr
    velocity -0.0849655339517523 0.2307436644294784 -0.1818147336433619
atom 2.5870192307692310 15.5221153846153879 21.2208791208791219 Zr
    velocity -0.6135897809518909 -0.1503996516466674 0.0323718050266725
atom 7.7610576923076930 15.5221153846153879 21.2208791208791219 Zr
    velocity 0.0139723504811059 0.5276645743661554 -0.4380792116374611
atom 12.9350961538461551 15.5221153846153879 21.2208791208791219 Zr
    velocity 0.1589198892680451 0.1352484641835903 0.0297649647009974
atom 18.1091346153846189 15.5221153846153879 21.2208791208791219 Zr
    velocity -0.2007370568385078 0.1206721366434028 0.0503471063285228
atom 23.2831730769230809 15.5221153846153879 21.2208791208791219 Zr
    velocity 0.0648188149290407 0.0444776994269270 0.2812164811916030
atom 2.5870192307692310 20.6961538461538481 21.2208791208791219 Zr
    velocity -0.1255902087122233 0.2073227617404247 0.5379802423379632
atom 7.7610576923076930 20.6961538461538481 21.2208791208791219 Zr
    velocity -0.3122943562501562 -0.4469378611789862 -0.3553909087593408
atom 12.9350961538461551 20.6961538461538481 21.2208791208791219 Zr
    velocity 0.5956075509574918 -0.2780535927990734 0.6787073577613307
atom 18.1091346153846189 20.6961538461538481 21.2208791208791219 Zr
    velocity 0.2183656495884984 -0.5254244666340736 -0.1886726929029570
atom 23.2831730769230809 20.6961538461538481 21.2208791208791219 Zr
    velocity -0.1109139935050325 -0.1029038594767081 -0.0684498200037700
atom 0.0000000000000000 2.5870192307692310 0.0000000000000000 Zr
    velocity -0.2455845039656919 -0.5008384923733339 0.3115174271130952
atom 5.1740384615384620 2.5870192307692310 0.0000000000000000 Zr
    velocity 0.2576444842700712 0.3171868493731514 -0.4615526015666724
atom 10.3480769230769241 2.5870192307692310 0.0000000000000000 Zr
    velocity 0.1048915765588896 -0.0383375147231427 0.0298058986985965
atom 15.5221153846153879 2.5870192307692310 0.0000000000000000 Zr
    velocity -0.1917071938025124 -0.0059170356584653 -0.0387600016548407
atom 20.6961538461538481 2.5870192307692310 0.0000000000000000 Zr
    velocity -0.1593711743035353 -0.2794701597566352 0.2642744963993421
atom 0.0000000000000000 7.7610576923076930 0.0000000000000000 Zr
    velocity 0.1458002149634310 0.2226322374052287 -0.4838935914472015
atom 5.1740384615384620 7.7610576923076930 0.0000000000000000 Zr
    velocity 0.3570177162209301 -0.3314081723387517 0.7015911865634933
atom 10.3480769230769241 7.7610576923076930 0.0000000000000000 Zr
    velocity 0.0557090847112984 0.0568635455481564 -0.0120410639530392
atom 15.5221153846153879 7.7610576923076930 0.0000000000000000 Zr
    velocity 0.1768879673128507 0.0376736476685643 0.2809325538470424
atom 20.6961538461538481 7.7610576923076930 0.0000000000000000 Zr
    velocity -0.2555874109357403 0.2755048583643076 -0.2538053793089771
atom 0.0000000000000000 12.9350961538461551 0.0000000000000000 Zr
    velocity 0.2100999608729706 -0.8733857048071449 -0.2110875927548066
atom 5.1740384615384620 12.9350961538461551 0.0000000000000000 Zr
    velocity 0.4192473009415321 -0.1169138899792357 -0.5194994275804486
atom 10.3480769230769241 12.9350961538461551 0.0000000000000000 Zr
    velocity 0.5447755142220401 0.1908906160062998 -0.0320918067006899
atom 15.5221153846153879 12.9350961538461551 0.0000000000000000 Zr
    velocity -0.0275265175556893 -0.5227526814218778 0.3117833138563696
atom 20.6961538461538481 12.9350961538461551 0.0000000000000000 Zr
    velocity 0.1288014989858335 0.2964645761104590 -0.4890212083188897
atom 0.0000000000000000 18.1091346153846189 0.0000000000000000 Zr
    velocity -0.3731690579368597 0.6909180342259640 -0.1320161439918377
atom 5.1740384615384620 18.1091346153846189 0.0000000000000000 Zr
    velocity -0.0327024380982290 0.6578258696519951 -0.0413934124039516
atom 10.3480769230769241 18.1091346153846189 0.0000000000000000 Zr
    velocity 0.6894726926655922 -0.0936542113535836 -0.3959398080509378
atom 15.5221153846153879 18.1091346153846189 0.0000000000000000 Zr
    velocity 0.1804863035548678 0.2779494989134281 -0.6175826280820835
atom 20.6961538461538481 18.1091346153846189 0.0000000000000000 Zr
    velocity -0.4889780431992907 0.0095548379658868 0.1599667194152123
atom 0.0000000000000000 23.2831730769230809 0.0000000000000000 Zr
    velocity 0.3684577640844114 -0.4790400511278224 -0.1498003437612201
atom 5.1740384615384620 23.2831730769230809 0.0000000000000000 Zr
    velocity 0.0137837328200444 -0.2814335437643619 -0.0564543831216038
atom 10.3480769230769241 23.2831730769230809 0.0000000000000000 Zr
    velocity 0.3219124807105214 0.0153583392375721 0.1775539468003929
atom 15.5221153846153879 23.2831730769230809 0.0000000000000000 Zr
    velocity 0.0473356133024707 0.5103252736888527 0.2980668718201934
atom 20.6961538461538481 23.2831730769230809 0.0000000000000000 Zr
    velocity -0.1703579931176580 -0.1256541497301108 -0.0816191312080489
atom 0.0000000000000000 2.5870192307692310 5.3052197802197805 Zr
    velocity -0.1117796808682614 -0.2079743912674014 0.5438848187674685
atom 5.1740384615384620 2.5870192307692310 5.3052197802197805 Zr
    velocity -0.0681867927394304 0.1676159792455563 0.0318917581901808
atom 10.3480769230769241 2.5870192307692310 5.3052197802197805 Zr
    velocity 0.2750529687950903 0.1641030849146214 -0.0183008217516842
atom 15.5221153846153879 2.5870192307692310 5.3052197802197805 Zr
    velocity 0.6655127375942800 -0.1824579546267885 0.0135717634703667
atom 20.6961538461538481 2.5870192307692310 5.3052197802197805 Zr
    velocity 0.0528676563738480 0.0660676183702675 0.4491960344185063
atom 0.0000000000000000 7.7610576923076930 5.3052197802197805 Zr
    velocity -0.0418356516112583 0.0525612268698944 0.0079309941062950
atom 5.1740384615384620 7.7610576923076930 5.3052197802197805 Zr
    velocity 0.1693086849076454 -0.0503826798246034 0.4788814084617470
atom 10.3480769230769241 7.7610576923076930 5.3052197802197805 Zr
    velocity -0.2115727861457618 -0.1290055494240591 0.0004322241969721
atom 15.5221153846153879 7.7610576923076930 5.3052197802197805 Zr
    velocity -0.1130766683387385 -0.3269805871528677 -0.1023753936847874
atom 20.6961538461538481 7.7610576923076930 5.3052197802197805 Zr
    velocity -0.5329948758047499 -0.2905667721209365 0.2072786545792533
atom 0.0000000000000000 12.9350961538461551 5.3052197802197805 Zr
    velocity -0.1577842950553351 0.2923979564976352 -0.4091629796923267
atom 5.1740384615384620 12.9350961538461551 5.3052197802197805 Zr
    velocity -0.3866715658546696 0.0296812242547600 0.3081850873907713
atom 10.3480769230769241 12.9350961538461551 5.3052197802197805 Zr
    velocity -0.3574397002064927 -0.2949808203984228 -0.6540682958072298
atom 15.5221153846153879 12.9350961538461551 5.3052197802197805 Zr
    velocity 0.1132524851289285 0.1725994790766235 0.7506278092647128
atom 20.6961538461538481 12.9350961538461551 5.3052197802197805 Zr
    velocity -0.3091810583985692 -0.1232214418817484 0.2004570485525190
atom 0.0000000000000000 18.1091346153846189 5.3052197802197805 Zr
    velocity -0.1303132468465737 -0.2312876859412541 -0.2716425010676760
atom 5.1740384615384620 18.1091346153846189 5.3052197802197805 Zr
    velocity -0.0930389154483385 -0.4065334341573328 0.5352044517436220
atom 10.3480769230769241 18.1091346153846189 5.3052197802197805 Zr
    velocity 0.0691147980513517 0.0472446446782536 -0.3690046106099318
atom 15.5221153846153879 18.1091346153846189 5.3052197802197805 Zr
    velocity 0.0328345230837687 0.3492487446059736 0.0579475836123803
atom 20.6961538461538481 18.1091346153846189 5.3052197802197805 Zr
    velocity 0.2395590910378481 0.1329445727513849 0.3937023197265805
atom 0.0000000000000000 23.2831730769230809 5.3052197802197805 Zr
    velocity 0.1096560760143295 0.3291629873014858 -0.0212814000546599
atom 5.1740384615384620 23.2831730769230809 5.3052197802197805 Zr
    velocity 0.1700027408338585 -0.1409623394595974 0.4078783819378585
atom 10.3480769230769241 23.2831730769230809 5.3052197802197805 Zr
    velocity 0.2872206618167818 -0.0732909861483073 -0.1096157334580722
atom 15.5221153846153879 23.2831730769230809 5.3052197802197805 Zr
    velocity -0.2551617930894182 0.0670610656046960 0.4576218503479010
atom 20.6961538461538481 23.2831730769230809 5.3052197802197805 Zr
    velocity -0.1826047066036968 -0.2376387596319892 -0.6886621196201141
atom 0.0000000000000000 2.5870192307692310 10.6104395604395609 Zr
    velocity 0.1516514828115574 -0.2271068637943866 0.2488235466818899
atom 5.1740384615384620 2.5870192307692310 10.6104395604395609 Zr
    velocity 0.5102978634234355 0.0647553865663338 0.1940709829090261
atom 10.3480769230769241 2.5870192307692310 10.6104395604395609 Zr
    velocity -0.0664382008449630 -0.0971081835711858 0.2690138870889212
atom 15.5221153846153879 2.5870192307692310 10.6104395604395609 Zr
    velocity -0.0642268159894645 0.0171427405810708 0.1311178389991098
atom 20.6961538461538481 2.5870192307692310 10.6104395604395609 Zr
    velocity 0.0134342649191103 -0.5646215788799943 -0.0182755635906923
atom 0.0000000000000000 7.7610576923076930 10.6104395604395609 Zr
    velocity -0.0023829414528263 0.8520855804376500 -0.0335892542617927
atom 5.1740384615384620 7.7610576923076930 10.6104395604395609 Zr
    velocity 0.4760381648584227 0.3362703206703804 -0.2540160345730578
atom 10.3480769230769241 7.7610576923076930 10.6104395604395609 Zr
    velocity 0.1904402230205094 0.0000773907046323 0.0229152320446344
atom 15.5221153846153879 7.7610576923076930 10.6104395604395609 Zr
    velocity 0.3794450492606731 -0.2261042623261031 0.3826685438436323
atom 20.6961538461538481 7.7610576923076930 10.6104395604395609 Zr
    velocity -0.1021397751695281 0.2682076346488880 0.1533618194778772
atom 0.0000000000000000 12.9350961538461551 10.6104395604395609 Zr
    velocity 0.4351428737633509 0.3421386809024174 0.0151709487941417
atom 5.1740384615384620 12.9350961538461551 10.6104395604395609 Zr
    velocity 0.2877753080004303 -0.3797073181453425 -0.3247077303131484
atom 10.3480769230769241 12.9350961538461551 10.6104395604395609 Zr
    velocity -0.2644132997443300 -0.4482608666924823 -0.1693759035611642
atom 15.5221153846153879 12.9350961538461551 10.6104395604395609 Zr
    velocity 0.5455817307225376 -0.3660404178411814 -0.4994814588373613
atom 20.6961538461538481 12.9350961538461551 10.6104395604395609 Zr
    velocity 0.1869192714551904 -0.1163220904395404 -0.4530227692698143
atom 0.0000000000000000 18.1091346153846189 10.6104395604395609 Zr
    velocity -0.2144863844785636 0.0524481293935684 0.5710284235274795
atom 5.1740384615384620 18.1091346153846189 10.6104395604395609 Zr
    velocity 0.0838222923990093 0.0726560921570036 0.8112724381306181
atom 10.3480769230769241 18.1091346153846189 10.6104395604395609 Zr
    velocity 0.3794758063926858 0.1207662188808350 0.2674559726924667
atom 15.5221153846153879 18.1091346153846189 10.6104395604395609 Zr
    velocity 0.1449853820904982 0.5452553906571022 -0.3924159792149450
atom 20.6961538461538481 18.1091346153846189 10.6104395604395609 Zr
    velocity -0.4400578884291907 0.7824077676263634 0.2206538501713654
atom 0.0000000000000000 23.2831730769230809 10.6104395604395609 Zr
    velocity -0.0955629283045926 -0.2219792654281726 0.2381177872013403
atom 5.1740384615384620 23.2831730769230809 10.6104395604395609 Zr
    velocity 0.1167964954537738 0.0730433528181001 -0.2080080919109520
atom 10.3480769230769241 23.2831730769230809 10.6104395604395609 Zr
    velocity -0.1415560006854641 0.5687898136680277 0.3015350518975964
atom 15.5221153846153879 23.2831730769230809 10.6104395604395609 Zr
    velocity -0.1022228351067677 0.3720356133962805 -0.1717742477206838
atom 20.6961538461538481 23.2831730769230809 10.6104395604395609 Zr
    velocity -0.2519594478758632 0.4442694276417025 0.1206431465714102
atom 0.0000000000000000 2.5870192307692310 15.9156593406593441 Zr
    velocity 0.1408610361661226 -0.1502820927286105 -0.1403619106314617
atom 5.1740384615384620 2.5870192307692310 15.9156593406593441 Zr
    velocity 0.0572649093057174 0.1405829086149850 0.5131741733589533
atom 10.3480769230769241 2.5870192307692310 15.9156593406593441 Zr
    velocity -0.3902566468137218 0.2436347192187841 -0.2517404520015513
atom 15.5221153846153879 2.5870192307692310 15.9156593406593441 Zr
    velocity -0.1618631504401634 -0.3023605878130506 -0.2705487890276018
atom 20.6961538461538481 2.5870192307692310 15.9156593406593441 Zr
    velocity -0.2438419051776907 0.4173212949737172 0.1198642682995866
atom 0.0000000000000000 7.7610576923076930 15.9156593406593441 Zr
    velocity 0.3476729058287652 -0.0678838540028046 -0.3143987726617482
atom 5.1740384615384620 7.7610576923076930 15.9156593406593441 Zr
    velocity -0.0641194675432632 0.3413131527973146 0.1638927250730509
atom 10.3480769230769241 7.7610576923076930 15.9156593406593441 Zr
    velocity -0.3001984773272813 0.0582861059045210 -0.2494832519550365
atom 15.5221153846153879 7.7610576923076930 15.9156593406593441 Zr
    velocity 0.2100446803931020 0.0061885554673973 0.0702082859648737
atom 20.6961538461538481 7.7610576923076930 15.9156593406593441 Zr
    velocity -0.5804383399795198 -0.0372133344245070 -0.2322527577004935
atom 0.0000000000000000 12.9350961538461551 15.9156593406593441 Zr
    velocity 0.4660735357674148 0.3156237580439063 -0.1590258686328388
atom 5.1740384615384620 12.9350961538461551 15.9156593406593441 Zr