#=======================================================
# FHI-aims file: 1800_geometry.in.primitive.supercell_1500
# Created using the Atomic Simulation Environment (ASE)
# Thu Jan  5 12:12:24 2023

# Additional information:
#  Number of atoms:     1500
#  Spacegroup:          137
#  supercell:           True
#  supercell_matrix:    [5, 0, 0, 0, 5, 0, 0, 0, 5]
#  Supercell matrix:    [5 0 0 0 5 0 0 0 5]
#=======================================================
lattice_vector 25.8701923076923102 0.0000000000000000 0.0000000000000000 
lattice_vector 0.0000000000000000 25.8701923076923102 0.0000000000000000 
lattice_vector 0.0000000000000000 0.0000000000000000 26.5260989010989015 
atom_frac 0.1000000000000000 0.0000000000000000 0.0000000000000000 Zr
atom_frac 0.3000000000000000 0.0000000000000000 0.0000000000000000 Zr
atom_frac 0.5000000000000000 0.0000000000000000 0.0000000000000000 Zr
atom_frac 0.7000000000000001 0.0000000000000000 0.0000000000000000 Zr
atom_frac 0.9000000000000000 0.0000000000000000 0.0000000000000000 Zr
atom_frac 0.1000000000000000 0.2000000000000000 0.0000000000000000 Zr
atom_frac 0.3000000000000000 0.2000000000000000 0.0000000000000000 Zr
atom_frac 0.5000000000000000 0.2000000000000000 0.0000000000000000 Zr
atom_frac 0.7000000000000001 0.2000000000000000 0.0000000000000000 Zr
atom_frac 0.9000000000000000 0.2000000000000000 0.0000000000000000 Zr
atom_frac 0.1000000000000000 0.4000000000000000 0.0000000000000000 Zr
atom_frac 0.3000000000000000 0.4000000000000000 0.0000000000000000 Zr
atom_frac 0.5000000000000000 0.4000000000000000 0.0000000000000000 Zr
atom_frac 0.7000000000000001 0.4000000000000000 0.0000000000000000 Zr
atom_frac 0.9000000000000000 0.4000000000000000 0.0000000000000000 Zr
atom_frac 0.1000000000000000 0.6000000000000001 0.0000000000000000 Zr
atom_frac 0.3000000000000000 0.6000000000000001 0.0000000000000000 Zr
atom_frac 0.5000000000000000 0.6000000000000001 0.0000000000000000 Zr
atom_frac 0.7000000000000001 0.6000000000000001 0.0000000000000000 Zr
atom_frac 0.9000000000000000 0.6000000000000001 0.0000000000000000 Zr
atom_frac 0.1000000000000000 0.8000000000000000 0.0000000000000000 Zr
atom_frac 0.3000000000000000 0.8000000000000000 0.0000000000000000 Zr
atom_frac 0.5000000000000000 0.8000000000000000 0.0000000000000000 Zr
atom_frac 0.7000000000000001 0.8000000000000000 0.0000000000000000 Zr
atom_frac 0.9000000000000000 0.8000000000000000 0.0000000000000000 Zr
atom_frac 0.1000000000000000 0.0000000000000000 0.2000000000000000 Zr
atom_frac 0.3000000000000000 0.0000000000000000 0.2000000000000000 Zr
atom_frac 0.5000000000000000 0.0000000000000000 0.2000000000000000 Zr
atom_frac 0.7000000000000001 0.0000000000000000 0.2000000000000000 Zr
atom_frac 0.9000000000000000 0.0000000000000000 0.2000000000000000 Zr
atom_frac 0.1000000000000000 0.2000000000000000 0.2000000000000000 Zr
atom_frac 0.3000000000000000 0.2000000000000000 0.2000000000000000 Zr
atom_frac 0.5000000000000000 0.2000000000000000 0.2000000000000000 Zr
atom_frac 0.7000000000000001 0.2000000000000000 0.2000000000000000 Zr
atom_frac 0.9000000000000000 0.2000000000000000 0.2000000000000000 Zr
atom_frac 0.1000000000000000 0.4000000000000000 0.2000000000000000 Zr
atom_frac 0.3000000000000000 0.4000000000000000 0.2000000000000000 Zr
atom_frac 0.5000000000000000 0.4000000000000000 0.2000000000000000 Zr
atom_frac 0.7000000000000001 0.4000000000000000 0.2000000000000000 Zr
atom_frac 0.9000000000000000 0.4000000000000000 0.2000000000000000 Zr
atom_frac 0.1000000000000000 0.6000000000000001 0.2000000000000000 Zr
atom_frac 0.3000000000000000 0.6000000000000001 0.2000000000000000 Zr
atom_frac 0.5000000000000000 0.6000000000000001 0.2000000000000000 Zr
atom_frac 0.7000000000000001 0.6000000000000001 0.2000000000000000 Zr
atom_frac 0.9000000000000000 0.6000000000000001 0.2000000000000000 Zr
atom_frac 0.1000000000000000 0.8000000000000000 0.2000000000000000 Zr
atom_frac 0.3000000000000000 0.8000000000000000 0.2000000000000000 Zr
atom_frac 0.5000000000000000 0.8000000000000000 0.2000000000000000 Zr
atom_frac 0.7000000000000001 0.8000000000000000 0.2000000000000000 Zr
atom_frac 0.9000000000000000 0.8000000000000000 0.2000000000000000 Zr
atom_frac 0.1000000000000000 0.0000000000000000 0.4000000000000000 Zr
atom_frac 0.3000000000000000 0.0000000000000000 0.4000000000000000 Zr
atom_frac 0.5000000000000000 0.0000000000000000 0.4000000000000000 Zr
atom_frac 0.7000000000000001 0.0000000000000000 0.4000000000000000 Zr
atom_frac 0.9000000000000000 0.0000000000000000 0.4000000000000000 Zr
atom_frac 0.1000000000000000 0.2000000000000000 0.4000000000000000 Zr
atom_frac 0.3000000000000000 0.2000000000000000 0.4000000000000000 Zr
atom_frac 0.5000000000000000 0.2000000000000000 0.4000000000000000 Zr
atom_frac 0.7000000000000001 0.2000000000000000 0.4000000000000000 Zr
atom_frac 0.9000000000000000 0.2000000000000000 0.4000000000000000 Zr
atom_frac 0.1000000000000000 0.4000000000000000 0.4000000000000000 Zr
atom_frac 0.3000000000000000 0.4000000000000000 0.4000000000000000 Zr
atom_frac 0.5000000000000000 0.4000000000000000 0.4000000000000000 Zr
atom_frac 0.7000000000000001 0.4000000000000000 0.4000000000000000 Zr
atom_frac 0.9000000000000000 0.4000000000000000 0.4000000000000000 Zr
atom_frac 0.1000000000000000 0.6000000000000001 0.4000000000000000 Zr
atom_frac 0.3000000000000000 0.6000000000000001 0.4000000000000000 Zr
atom_frac 0.5000000000000000 0.6000000000000001 0.4000000000000000 Zr
atom_frac 0.7000000000000001 0.6000000000000001 0.4000000000000000 Zr
atom_frac 0.9000000000000000 0.6000000000000001 0.4000000000000000 Zr
atom_frac 0.1000000000000000 0.8000000000000000 0.4000000000000000 Zr
atom_frac 0.3000000000000000 0.8000000000000000 0.4000000000000000 Zr
atom_frac 0.5000000000000000 0.8000000000000000 0.4000000000000000 Zr
atom_frac 0.7000000000000001 0.8000000000000000 0.4000000000000000 Zr
atom_frac 0.9000000000000000 0.8000000000000000 0.4000000000000000 Zr
atom_frac 0.1000000000000000 0.0000000000000000 0.6000000000000001 Zr
atom_frac 0.3000000000000000 0.0000000000000000 0.6000000000000001 Zr
atom_frac 0.5000000000000000 0.0000000000000000 0.6000000000000001 Zr
atom_frac 0.7000000000000001 0.0000000000000000 0.6000000000000001 Zr
atom_frac 0.9000000000000000 0.0000000000000000 0.6000000000000001 Zr
atom_frac 0.1000000000000000 0.2000000000000000 0.6000000000000001 Zr
atom_frac 0.3000000000000000 0.2000000000000000 0.6000000000000001 Zr
atom_frac 0.5000000000000000 0.2000000000000000 0.6000000000000001 Zr
atom_frac 0.7000000000000001 0.2000000000000000 0.6000000000000001 Zr
atom_frac 0.9000000000000000 0.2000000000000000 0.6000000000000001 Zr
atom_frac 0.1000000000000000 0.4000000000000000 0.6000000000000001 Zr
atom_frac 0.3000000000000000 0.4000000000000000 0.6000000000000001 Zr
atom_frac 0.5000000000000000 0.4000000000000000 0.6000000000000001 Zr
atom_frac 0.7000000000000001 0.4000000000000000 0.6000000000000001 Zr
atom_frac 0.9000000000000000 0.4000000000000000 0.6000000000000001 Zr
atom_frac 0.1000000000000000 0.6000000000000001 0.6000000000000001 Zr
atom_frac 0.3000000000000000 0.6000000000000001 0.6000000000000001 Zr
atom_frac 0.5000000000000000 0.6000000000000001 0.6000000000000001 Zr
atom_frac 0.7000000000000001 0.6000000000000001 0.6000000000000001 Zr
atom_frac 0.9000000000000000 0.6000000000000001 0.6000000000000001 Zr
atom_frac 0.1000000000000000 0.8000000000000000 0.6000000000000001 Zr
atom_frac 0.3000000000000000 0.8000000000000000 0.6000000000000001 Zr
atom_frac 0.5000000000000000 0.8000000000000000 0.6000000000000001 Zr
atom_frac 0.7000000000000001 0.8000000000000000 0.6000000000000001 Zr
atom_frac 0.9000000000000000 0.8000000000000000 0.6000000000000001 Zr
atom_frac 0.1000000000000000 0.0000000000000000 0.8000000000000000 Zr
atom_frac 0.3000000000000000 0.0000000000000000 0.8000000000000000 Zr
atom_frac 0.5000000000000000 0.0000000000000000 0.8000000000000000 Zr
atom_frac 0.7000000000000001 0.0000000000000000 0.8000000000000000 Zr
atom_frac 0.9000000000000000 0.0000000000000000 0.8000000000000000 Zr
atom_frac 0.1000000000000000 0.2000000000000000 0.8000000000000000 Zr
atom_frac 0.3000000000000000 0.2000000000000000 0.8000000000000000 Zr
atom_frac 0.5000000000000000 0.2000000000000000 0.8000000000000000 Zr
atom_frac 0.7000000000000001 0.2000000000000000 0.8000000000000000 Zr
atom_frac 0.9000000000000000 0.2000000000000000 0.8000000000000000 Zr
atom_frac 0.1000000000000000 0.4000000000000000 0.8000000000000000 Zr
atom_frac 0.3000000000000000 0.4000000000000000 0.8000000000000000 Zr
atom_frac 0.5000000000000000 0.4000000000000000 0.8000000000000000 Zr
atom_frac 0.7000000000000001 0.4000000000000000 0.8000000000000000 Zr
atom_frac 0.9000000000000000 0.4000000000000000 0.8000000000000000 Zr
atom_frac 0.1000000000000000 0.6000000000000001 0.8000000000000000 Zr
atom_frac 0.3000000000000000 0.6000000000000001 0.8000000000000000 Zr
atom_frac 0.5000000000000000 0.6000000000000001 0.8000000000000000 Zr
atom_frac 0.7000000000000001 0.6000000000000001 0.8000000000000000 Zr
atom_frac 0.9000000000000000 0.6000000000000001 0.8000000000000000 Zr
atom_frac 0.1000000000000000 0.8000000000000000 0.8000000000000000 Zr
atom_frac 0.3000000000000000 0.8000000000000000 0.8000000000000000 Zr
atom_frac 0.5000000000000000 0.8000000000000000 0.8000000000000000 Zr
atom_frac 0.7000000000000001 0.8000000000000000 0.8000000000000000 Zr
atom_frac 0.9000000000000000 0.8000000000000000 0.8000000000000000 Zr
atom_frac 0.0000000000000000 0.1000000000000000 0.0000000000000000 Zr
atom_frac 0.2000000000000000 0.1000000000000000 0.0000000000000000 Zr
atom_frac 0.4000000000000000 0.1000000000000000 0.0000000000000000 Zr
atom_frac 0.6000000000000001 0.1000000000000000 0.0000000000000000 Zr
atom_frac 0.8000000000000000 0.1000000000000000 0.0000000000000000 Zr
atom_frac 0.0000000000000000 0.3000000000000000 0.0000000000000000 Zr
atom_frac 0.2000000000000000 0.3000000000000000 0.0000000000000000 Zr
atom_frac 0.4000000000000000 0.3000000000000000 0.0000000000000000 Zr
atom_frac 0.6000000000000001 0.3000000000000000 0.0000000000000000 Zr
atom_frac 0.8000000000000000 0.3000000000000000 0.0000000000000000 Zr
atom_frac 0.0000000000000000 0.5000000000000000 0.0000000000000000 Zr
atom_frac 0.2000000000000000 0.5000000000000000 0.0000000000000000 Zr
atom_frac 0.4000000000000000 0.5000000000000000 0.0000000000000000 Zr
atom_frac 0.6000000000000001 0.5000000000000000 0.0000000000000000 Zr
atom_frac 0.8000000000000000 0.5000000000000000 0.0000000000000000 Zr
atom_frac 0.0000000000000000 0.7000000000000001 0.0000000000000000 Zr
atom_frac 0.2000000000000000 0.7000000000000001 0.0000000000000000 Zr
atom_frac 0.4000000000000000 0.7000000000000001 0.0000000000000000 Zr
atom_frac 0.6000000000000001 0.7000000000000001 0.0000000000000000 Zr
atom_frac 0.8000000000000000 0.7000000000000001 0.0000000000000000 Zr
atom_frac 0.0000000000000000 0.9000000000000000 0.0000000000000000 Zr
atom_frac 0.2000000000000000 0.9000000000000000 0.0000000000000000 Zr
atom_frac 0.4000000000000000 0.9000000000000000 0.0000000000000000 Zr
atom_frac 0.6000000000000001 0.9000000000000000 0.0000000000000000 Zr
atom_frac 0.8000000000000000 0.9000000000000000 0.0000000000000000 Zr
atom_frac 0.0000000000000000 0.1000000000000000 0.2000000000000000 Zr
atom_frac 0.2000000000000000 0.1000000000000000 0.2000000000000000 Zr
atom_frac 0.4000000000000000 0.1000000000000000 0.2000000000000000 Zr
atom_frac 0.6000000000000001 0.1000000000000000 0.2000000000000000 Zr
atom_frac 0.8000000000000000 0.1000000000000000 0.2000000000000000 Zr
atom_frac 0.0000000000000000 0.3000000000000000 0.2000000000000000 Zr
atom_frac 0.2000000000000000 0.3000000000000000 0.2000000000000000 Zr
atom_frac 0.4000000000000000 0.3000000000000000 0.2000000000000000 Zr
atom_frac 0.6000000000000001 0.3000000000000000 0.2000000000000000 Zr
atom_frac 0.8000000000000000 0.3000000000000000 0.2000000000000000 Zr
atom_frac 0.0000000000000000 0.5000000000000000 0.2000000000000000 Zr
atom_frac 0.2000000000000000 0.5000000000000000 0.2000000000000000 Zr
atom_frac 0.4000000000000000 0.5000000000000000 0.2000000000000000 Zr
atom_frac 0.6000000000000001 0.5000000000000000 0.2000000000000000 Zr
atom_frac 0.8000000000000000 0.5000000000000000 0.2000000000000000 Zr
atom_frac 0.0000000000000000 0.7000000000000001 0.2000000000000000 Zr
atom_frac 0.2000000000000000 0.7000000000000001 0.2000000000000000 Zr
atom_frac 0.4000000000000000 0.7000000000000001 0.2000000000000000 Zr
atom_frac 0.6000000000000001 0.7000000000000001 0.2000000000000000 Zr
atom_frac 0.8000000000000000 0.7000000000000001 0.2000000000000000 Zr
atom_frac 0.0000000000000000 0.9000000000000000 0.2000000000000000 Zr
atom_frac 0.2000000000000000 0.9000000000000000 0.2000000000000000 Zr
atom_frac 0.4000000000000000 0.9000000000000000 0.2000000000000000 Zr
atom_frac 0.6000000000000001 0.9000000000000000 0.2000000000000000 Zr
atom_frac 0.8000000000000000 0.9000000000000000 0.2000000000000000 Zr
atom_frac 0.0000000000000000 0.1000000000000000 0.4000000000000000 Zr
atom_frac 0.2000000000000000 0.1000000000000000 0.4000000000000000 Zr
atom_frac 0.4000000000000000 0.1000000000000000 0.4000000000000000 Zr
atom_frac 0.6000000000000001 0.1000000000000000 0.4000000000000000 Zr
atom_frac 0.8000000000000000 0.1000000000000000 0.4000000000000000 Zr
atom_frac 0.0000000000000000 0.3000000000000000 0.4000000000000000 Zr
atom_frac 0.2000000000000000 0.3000000000000000 0.4000000000000000 Zr
atom_frac 0.4000000000000000 0.3000000000000000 0.4000000000000000 Zr
atom_frac 0.6000000000000001 0.3000000000000000 0.4000000000000000 Zr
atom_frac 0.8000000000000000 0.3000000000000000 0.4000000000000000 Zr
atom_frac 0.0000000000000000 0.5000000000000000 0.4000000000000000 Zr
atom_frac 0.2000000000000000 0.5000000000000000 0.4000000000000000 Zr
atom_frac 0.4000000000000000 0.5000000000000000 0.4000000000000000 Zr
atom_frac 0.6000000000000001 0.5000000000000000 0.4000000000000000 Zr
atom_frac 0.8000000000000000 0.5000000000000000 0.4000000000000000 Zr
atom_frac 0.0000000000000000 0.7000000000000001 0.4000000000000000 Zr
atom_frac 0.2000000000000000 0.7000000000000001 0.4000000000000000 Zr
atom_frac 0.4000000000000000 0.7000000000000001 0.4000000000000000 Zr
atom_frac 0.6000000000000001 0.7000000000000001 0.4000000000000000 Zr
atom_frac 0.8000000000000000 0.7000000000000001 0.4000000000000000 Zr
atom_frac 0.0000000000000000 0.9000000000000000 0.4000000000000000 Zr
atom_frac 0.2000000000000000 0.9000000000000000 0.4000000000000000 Zr
atom_frac 0.4000000000000000 0.9000000000000000 0.4000000000000000 Zr
atom_frac 0.6000000000000001 0.9000000000000000 0.4000000000000000 Zr
atom_frac 0.8000000000000000 0.9000000000000000 0.4000000000000000 Zr
atom_frac 0.0000000000000000 0.1000000000000000 0.6000000000000001 Zr
atom_frac 0.2000000000000000 0.1000000000000000 0.6000000000000001 Zr
atom_frac 0.4000000000000000 0.1000000000000000 0.6000000000000001 Zr
atom_frac 0.6000000000000001 0.1000000000000000 0.6000000000000001 Zr
atom_frac 0.8000000000000000 0.1000000000000000 0.6000000000000001 Zr
atom_frac 0.0000000000000000 0.3000000000000000 0.6000000000000001 Zr
atom_frac 0.2000000000000000 0.3000000000000000 0.6000000000000001 Zr
atom_frac 0.4000000000000000 0.3000000000000000 0.6000000000000001 Zr
atom_frac 0.6000000000000001 0.3000000000000000 0.6000000000000001 Zr
atom_frac 0.8000000000000000 0.3000000000000000 0.6000000000000001 Zr
atom_frac 0.0000000000000000 0.5000000000000000 0.6000000000000001 Zr
atom_frac 0.2000000000000000 0.5000000000000000 0.6000000000000001 Zr
atom_frac 0.4000000000000000 0.5000000000000000 0.6000000000000001 Zr
atom_frac 0.6000000000000001 0.5000000000000000 0.6000000000000001 Zr
atom_frac 0.8000000000000000 0.5000000000000000 0.6000000000000001 Zr
atom_frac 0.0000000000000000 0.7000000000000001 0.6000000000000001 Zr
atom_frac 0.2000000000000000 0.7000000000000001 0.6000000000000001 Zr
atom_frac 0.4000000000000000 0.7000000000000001 0.6000000000000001 Zr
atom_frac 0.6000000000000001 0.7000000000000001 0.6000000000000001 Zr
atom_frac 0.8000000000000000 0.7000000000000001 0.6000000000000001 Zr
atom_frac 0.0000000000000000 0.9000000000000000 0.6000000000000001 Zr
atom_frac 0.2000000000000000 0.9000000000000000 0.6000000000000001 Zr
atom_frac 0.4000000000000000 0.9000000000000000 0.6000000000000001 Zr
atom_frac 0.6000000000000001 0.9000000000000000 0.6000000000000001 Zr
atom_frac 0.8000000000000000 0.9000000000000000 0.6000000000000001 Zr
atom_frac 0.0000000000000000 0.1000000000000000 0.8000000000000000 Zr
atom_frac 0.2000000000000000 0.1000000000000000 0.8000000000000000 Zr
atom_frac 0.4000000000000000 0.1000000000000000 0.8000000000000000 Zr
atom_frac 0.6000000000000001 0.1000000000000000 0.8000000000000000 Zr
atom_frac 0.8000000000000000 0.1000000000000000 0.8000000000000000 Zr
atom_frac 0.0000000000000000 0.3000000000000000 0.8000000000000000 Zr
atom_frac 0.2000000000000000 0.3000000000000000 0.8000000000000000 Zr
atom_frac 0.4000000000000000 0.3000000000000000 0.8000000000000000 Zr
atom_frac 0.6000000000000001 0.3000000000000000 0.8000000000000000 Zr
atom_frac 0.8000000000000000 0.3000000000000000 0.8000000000000000 Zr
atom_frac 0.0000000000000000 0.5000000000000000 0.8000000000000000 Zr
atom_frac 0.2000000000000000 0.5000000000000000 0.8000000000000000 Zr
atom_frac 0.4000000000000000 0.5000000000000000 0.8000000000000000 Zr
atom_frac 0.6000000000000001 0.5000000000000000 0.8000000000000000 Zr
atom_frac 0.8000000000000000 0.5000000000000000 0.8000000000000000 Zr
atom_frac 0.0000000000000000 0.7000000000000001 0.8000000000000000 Zr
atom_frac 0.2000000000000000 0.7000000000000001 0.8000000000000000 Zr
atom_frac 0.4000000000000000 0.7000000000000001 0.8000000000000000 Zr
atom_frac 0.6000000000000001 0.7000000000000001 0.8000000000000000 Zr
atom_frac 0.8000000000000000 0.7000000000000001 0.8000000000000000 Zr
atom_frac 0.0000000000000000 0.9000000000000000 0.8000000000000000 Zr
atom_frac 0.2000000000000000 0.9000000000000000 0.8000000000000000 Zr
atom_frac 0.4000000000000000 0.9000000000000000 0.8000000000000000 Zr
atom_frac 0.6000000000000001 0.9000000000000000 0.8000000000000000 Zr
atom_frac 0.8000000000000000 0.9000000000000000 0.8000000000000000 Zr
atom_frac 0.0000000000000000 0.0000000000000000 0.1000000000000000 Zr
atom_frac 0.2000000000000000 0.0000000000000000 0.1000000000000000 Zr
atom_frac 0.4000000000000000 0.0000000000000000 0.1000000000000000 Zr
atom_frac 0.6000000000000001 0.0000000000000000 0.1000000000000000 Zr
atom_frac 0.8000000000000000 0.0000000000000000 0.1000000000000000 Zr
atom_frac 0.0000000000000000 0.2000000000000000 0.1000000000000000 Zr
atom_frac 0.2000000000000000 0.2000000000000000 0.1000000000000000 Zr
atom_frac 0.4000000000000000 0.2000000000000000 0.1000000000000000 Zr
atom_frac 0.6000000000000001 0.2000000000000000 0.1000000000000000 Zr
atom_frac 0.8000000000000000 0.2000000000000000 0.1000000000000000 Zr
atom_frac 0.0000000000000000 0.4000000000000000 0.1000000000000000 Zr
atom_frac 0.2000000000000000 0.4000000000000000 0.1000000000000000 Zr
atom_frac 0.4000000000000000 0.4000000000000000 0.1000000000000000 Zr
atom_frac 0.6000000000000001 0.4000000000000000 0.1000000000000000 Zr
atom_frac 0.8000000000000000 0.4000000000000000 0.1000000000000000 Zr
atom_frac 0.0000000000000000 0.6000000000000001 0.1000000000000000 Zr
atom_frac 0.2000000000000000 0.6000000000000001 0.1000000000000000 Zr
atom_frac 0.4000000000000000 0.6000000000000001 0.1000000000000000 Zr
atom_frac 0.6000000000000001 0.6000000000000001 0.1000000000000000 Zr
atom_frac 0.8000000000000000 0.6000000000000001 0.1000000000000000 Zr
atom_frac 0.0000000000000000 0.8000000000000000 0.1000000000000000 Zr
atom_frac 0.2000000000000000 0.8000000000000000 0.1000000000000000 Zr
atom_frac 0.4000000000000000 0.8000000000000000 0.1000000000000000 Zr
atom_frac 0.6000000000000001 0.8000000000000000 0.1000000000000000 Zr
atom_frac 0.8000000000000000 0.8000000000000000 0.1000000000000000 Zr
atom_frac 0.0000000000000000 0.0000000000000000 0.3000000000000000 Zr
atom_frac 0.2000000000000000 0.0000000000000000 0.3000000000000000 Zr
atom_frac 0.4000000000000000 0.0000000000000000 0.3000000000000000 Zr
atom_frac 0.6000000000000001 0.0000000000000000 0.3000000000000000 Zr
atom_frac 0.8000000000000000 0.0000000000000000 0.3000000000000000 Zr
atom_frac 0.0000000000000000 0.2000000000000000 0.3000000000000000 Zr
atom_frac 0.2000000000000000 0.2000000000000000 0.3000000000000000 Zr
atom_frac 0.4000000000000000 0.2000000000000000 0.3000000000000000 Zr
atom_frac 0.6000000000000001 0.2000000000000000 0.3000000000000000 Zr
atom_frac 0.8000000000000000 0.2000000000000000 0.3000000000000000 Zr
atom_frac 0.0000000000000000 0.4000000000000000 0.3000000000000000 Zr
atom_frac 0.2000000000000000 0.4000000000000000 0.3000000000000000 Zr
atom_frac 0.4000000000000000 0.4000000000000000 0.3000000000000000 Zr
atom_frac 0.6000000000000001 0.4000000000000000 0.3000000000000000 Zr
atom_frac 0.8000000000000000 0.4000000000000000 0.3000000000000000 Zr
atom_frac 0.0000000000000000 0.6000000000000001 0.3000000000000000 Zr
atom_frac 0.2000000000000000 0.6000000000000001 0.3000000000000000 Zr
atom_frac 0.4000000000000000 0.6000000000000001 0.3000000000000000 Zr
atom_frac 0.6000000000000001 0.6000000000000001 0.3000000000000000 Zr
atom_frac 0.8000000000000000 0.6000000000000001 0.3000000000000000 Zr
atom_frac 0.0000000000000000 0.8000000000000000 0.3000000000000000 Zr
atom_frac 0.2000000000000000 0.8000000000000000 0.3000000000000000 Zr
atom_frac 0.4000000000000000 0.8000000000000000 0.3000000000000000 Zr
atom_frac 0.6000000000000001 0.8000000000000000 0.3000000000000000 Zr
atom_frac 0.8000000000000000 0.8000000000000000 0.3000000000000000 Zr
atom_frac 0.0000000000000000 0.0000000000000000 0.5000000000000000 Zr
atom_frac 0.2000000000000000 0.0000000000000000 0.5000000000000000 Zr
atom_frac 0.4000000000000000 0.0000000000000000 0.5000000000000000 Zr
atom_frac 0.6000000000000001 0.0000000000000000 0.5000000000000000 Zr
atom_frac 0.8000000000000000 0.0000000000000000 0.5000000000000000 Zr
atom_frac 0.0000000000000000 0.2000000000000000 0.5000000000000000 Zr
atom_frac 0.2000000000000000 0.2000000000000000 0.5000000000000000 Zr
atom_frac 0.4000000000000000 0.2000000000000000 0.5000000000000000 Zr
atom_frac 0.6000000000000001 0.2000000000000000 0.5000000000000000 Zr
atom_frac 0.8000000000000000 0.2000000000000000 0.5000000000000000 Zr
atom_frac 0.0000000000000000 0.4000000000000000 0.5000000000000000 Zr
atom_frac 0.2000000000000000 0.4000000000000000 0.5000000000000000 Zr
atom_frac 0.4000000000000000 0.4000000000000000 0.5000000000000000 Zr
atom_frac 0.6000000000000001 0.4000000000000000 0.5000000000000000 Zr
atom_frac 0.8000000000000000 0.4000000000000000 0.5000000000000000 Zr
atom_frac 0.0000000000000000 0.6000000000000001 0.5000000000000000 Zr
atom_frac 0.2000000000000000 0.6000000000000001 0.5000000000000000 Zr
atom_frac 0.4000000000000000 0.6000000000000001 0.5000000000000000 Zr
atom_frac 0.6000000000000001 0.6000000000000001 0.5000000000000000 Zr
atom_frac 0.8000000000000000 0.6000000000000001 0.5000000000000000 Zr
atom_frac 0.0000000000000000 0.8000000000000000 0.5000000000000000 Zr
atom_frac 0.2000000000000000 0.8000000000000000 0.5000000000000000 Zr
atom_frac 0.4000000000000000 0.8000000000000000 0.5000000000000000 Zr
atom_frac 0.6000000000000001 0.8000000000000000 0.5000000000000000 Zr
atom_frac 0.8000000000000000 0.8000000000000000 0.5000000000000000 Zr
atom_frac 0.0000000000000000 0.0000000000000000 0.7000000000000001 Zr
atom_frac 0.2000000000000000 0.0000000000000000 0.7000000000000001 Zr
atom_frac 0.4000000000000000 0.0000000000000000 0.7000000000000001 Zr
atom_frac 0.6000000000000001 0.0000000000000000 0.7000000000000001 Zr
atom_frac 0.8000000000000000 0.0000000000000000 0.7000000000000001 Zr
atom_frac 0.0000000000000000 0.2000000000000000 0.7000000000000001 Zr
atom_frac 0.2000000000000000 0.2000000000000000 0.7000000000000001 Zr
atom_frac 0.4000000000000000 0.2000000000000000 0.7000000000000001 Zr
atom_frac 0.6000000000000001 0.2000000000000000 0.7000000000000001 Zr
atom_frac 0.8000000000000000 0.2000000000000000 0.7000000000000001 Zr
atom_frac 0.0000000000000000 0.4000000000000000 0.7000000000000001 Zr
atom_frac 0.2000000000000000 0.4000000000000000 0.7000000000000001 Zr
atom_frac 0.4000000000000000 0.4000000000000000 0.7000000000000001 Zr
atom_frac 0.6000000000000001 0.4000000000000000 0.7000000000000001 Zr
atom_frac 0.8000000000000000 0.4000000000000000 0.7000000000000001 Zr
atom_frac 0.0000000000000000 0.6000000000000001 0.7000000000000001 Zr
atom_frac 0.2000000000000000 0.6000000000000001 0.7000000000000001 Zr
atom_frac 0.4000000000000000 0.6000000000000001 0.7000000000000001 Zr
atom_frac 0.6000000000000001 0.6000000000000001 0.7000000000000001 Zr
atom_frac 0.8000000000000000 0.6000000000000001 0.7000000000000001 Zr
atom_frac 0.0000000000000000 0.8000000000000000 0.7000000000000001 Zr
atom_frac 0.2000000000000000 0.8000000000000000 0.7000000000000001 Zr
atom_frac 0.4000000000000000 0.8000000000000000 0.7000000000000001 Zr
atom_frac 0.6000000000000001 0.8000000000000000 0.7000000000000001 Zr
atom_frac 0.8000000000000000 0.8000000000000000 0.7000000000000001 Zr
atom_frac 0.0000000000000000 0.0000000000000000 0.9000000000000000 Zr
atom_frac 0.2000000000000000 0.0000000000000000 0.9000000000000000 Zr
atom_frac 0.4000000000000000 0.0000000000000000 0.9000000000000000 Zr
atom_frac 0.6000000000000001 0.0000000000000000 0.9000000000000000 Zr
atom_frac 0.8000000000000000 0.0000000000000000 0.9000000000000000 Zr
atom_frac 0.0000000000000000 0.2000000000000000 0.9000000000000000 Zr
atom_frac 0.2000000000000000 0.2000000000000000 0.9000000000000000 Zr
atom_frac 0.4000000000000000 0.2000000000000000 0.9000000000000000 Zr
atom_frac 0.6000000000000001 0.2000000000000000 0.9000000000000000 Zr
atom_frac 0.8000000000000000 0.2000000000000000 0.9000000000000000 Zr
atom_frac 0.0000000000000000 0.4000000000000000 0.9000000000000000 Zr
atom_frac 0.2000000000000000 0.4000000000000000 0.9000000000000000 Zr
atom_frac 0.4000000000000000 0.4000000000000000 0.9000000000000000 Zr
atom_frac 0.6000000000000001 0.4000000000000000 0.9000000000000000 Zr
atom_frac 0.8000000000000000 0.4000000000000000 0.9000000000000000 Zr
atom_frac 0.0000000000000000 0.6000000000000001 0.9000000000000000 Zr
atom_frac 0.2000000000000000 0.6000000000000001 0.9000000000000000 Zr
atom_frac 0.4000000000000000 0.6000000000000001 0.9000000000000000 Zr
atom_frac 0.6000000000000001 0.6000000000000001 0.9000000000000000 Zr
atom_frac 0.8000000000000000 0.6000000000000001 0.9000000000000000 Zr
atom_frac 0.0000000000000000 0.8000000000000000 0.9000000000000000 Zr
atom_frac 0.2000000000000000 0.8000000000000000 0.9000000000000000 Zr
atom_frac 0.4000000000000000 0.8000000000000000 0.9000000000000000 Zr
atom_frac 0.6000000000000001 0.8000000000000000 0.9000000000000000 Zr
atom_frac 0.8000000000000000 0.8000000000000000 0.9000000000000000 Zr
atom_frac 0.1000000000000000 0.1000000000000000 0.1000000000000000 Zr
atom_frac 0.3000000000000000 0.1000000000000000 0.1000000000000000 Zr
atom_frac 0.5000000000000000 0.1000000000000000 0.1000000000000000 Zr
atom_frac 0.7000000000000001 0.1000000000000000 0.1000000000000000 Zr
atom_frac 0.9000000000000000 0.1000000000000000 0.1000000000000000 Zr
atom_frac 0.1000000000000000 0.3000000000000000 0.1000000000000000 Zr
atom_frac 0.3000000000000000 0.3000000000000000 0.1000000000000000 Zr
atom_frac 0.5000000000000000 0.3000000000000000 0.1000000000000000 Zr
atom_frac 0.7000000000000001 0.3000000000000000 0.1000000000000000 Zr
atom_frac 0.9000000000000000 0.3000000000000000 0.1000000000000000 Zr
atom_frac 0.1000000000000000 0.5000000000000000 0.1000000000000000 Zr
atom_frac 0.3000000000000000 0.5000000000000000 0.1000000000000000 Zr
atom_frac 0.5000000000000000 0.5000000000000000 0.1000000000000000 Zr
atom_frac 0.7000000000000001 0.5000000000000000 0.1000000000000000 Zr
atom_frac 0.9000000000000000 0.5000000000000000 0.1000000000000000 Zr
atom_frac 0.1000000000000000 0.7000000000000001 0.1000000000000000 Zr
atom_frac 0.3000000000000000 0.7000000000000001 0.1000000000000000 Zr
atom_frac 0.5000000000000000 0.7000000000000001 0.1000000000000000 Zr
atom_frac 0.7000000000000001 0.7000000000000001 0.1000000000000000 Zr
atom_frac 0.9000000000000000 0.7000000000000001 0.1000000000000000 Zr
atom_frac 0.1000000000000000 0.9000000000000000 0.1000000000000000 Zr
atom_frac 0.3000000000000000 0.9000000000000000 0.1000000000000000 Zr
atom_frac 0.5000000000000000 0.9000000000000000 0.1000000000000000 Zr
atom_frac 0.7000000000000001 0.9000000000000000 0.1000000000000000 Zr
atom_frac 0.9000000000000000 0.9000000000000000 0.1000000000000000 Zr
atom_frac 0.1000000000000000 0.1000000000000000 0.3000000000000000 Zr
atom_frac 0.3000000000000000 0.1000000000000000 0.3000000000000000 Zr
atom_frac 0.5000000000000000 0.1000000000000000 0.3000000000000000 Zr
atom_frac 0.7000000000000001 0.1000000000000000 0.3000000000000000 Zr
atom_frac 0.9000000000000000 0.1000000000000000 0.3000000000000000 Zr
atom_frac 0.1000000000000000 0.3000000000000000 0.3000000000000000 Zr
atom_frac 0.3000000000000000 0.3000000000000000 0.3000000000000000 Zr
atom_frac 0.5000000000000000 0.3000000000000000 0.3000000000000000 Zr
atom_frac 0.7000000000000001 0.3000000000000000 0.3000000000000000 Zr
atom_frac 0.9000000000000000 0.3000000000000000 0.3000000000000000 Zr
atom_frac 0.1000000000000000 0.5000000000000000 0.3000000000000000 Zr
atom_frac 0.3000000000000000 0.5000000000000000 0.3000000000000000 Zr
atom_frac 0.5000000000000000 0.5000000000000000 0.3000000000000000 Zr
atom_frac 0.7000000000000001 0.5000000000000000 0.3000000000000000 Zr
atom_frac 0.9000000000000000 0.5000000000000000 0.3000000000000000 Zr
atom_frac 0.1000000000000000 0.7000000000000001 0.3000000000000000 Zr
atom_frac 0.3000000000000000 0.7000000000000001 0.3000000000000000 Zr
atom_frac 0.5000000000000000 0.7000000000000001 0.3000000000000000 Zr