#=======================================================
# FHI-aims file: 1900_geometry.in.primitive.supercell_2592.0010K
# Created using the Atomic Simulation Environment (ASE)
# Sat Feb 18 23:46:06 2023

# Additional information:
#  created from MB distrubtion
#  T = 10.0 K
#  quantum:             False
#  deterministic:       False
#  plus_minus:          False
#  gauge_eigenvectors:  False
#  Random seed:         105531024
#  Sample number:       1
#=======================================================
lattice_vector 31.0829670329670371 0.0000000000000000 0.0000000000000000 
lattice_vector 0.0000000000000000 31.0829670329670371 0.0000000000000000 
lattice_vector 0.0000000000000000 0.0000000000000000 31.8741758241758255 
atom 2.5902472527472522 0.0000000000000000 0.0000000000000000 Zr
    velocity -0.3206364562344228 0.3007553984459602 0.4938908782887944
atom 7.7707417582417593 0.0000000000000000 0.0000000000000000 Zr
    velocity -0.4049387319928482 -0.4566197415738464 -0.3932454565899515
atom 12.9512362637362664 0.0000000000000000 0.0000000000000000 Zr
    velocity 0.0340481687460037 -0.1127206779073208 0.0531835947706565
atom 18.1317307692307743 0.0000000000000000 0.0000000000000000 Zr
    velocity 0.4222679232054050 -0.5057304697408518 0.0106176075936136
atom 23.3122252747252823 0.0000000000000000 0.0000000000000000 Zr
    velocity 0.1840576525566938 -0.0721924421502517 0.0351677207116678
atom 28.4927197802197867 0.0000000000000000 0.0000000000000000 Zr
    velocity -0.2069512984534669 0.0355956520766466 0.3289487814833184
atom 2.5902472527472522 5.1804945054945080 0.0000000000000000 Zr
    velocity 0.4802685452562974 -0.0454157527694332 -0.2520052289876844
atom 7.7707417582417593 5.1804945054945080 0.0000000000000000 Zr
    velocity 0.0243408629238339 -0.4680402350426342 -0.4516020927392996
atom 12.9512362637362664 5.1804945054945080 0.0000000000000000 Zr
    velocity 0.3582386074877755 0.0781945701428021 -0.0949156895325751
atom 18.1317307692307743 5.1804945054945080 0.0000000000000000 Zr
    velocity -0.3304810349984312 0.3544964696922900 0.2427568715346145
atom 23.3122252747252823 5.1804945054945080 0.0000000000000000 Zr
    velocity 0.5025642498423470 -0.8449189518357514 -0.0515960541073752
atom 28.4927197802197867 5.1804945054945080 0.0000000000000000 Zr
    velocity -0.3374459139539958 0.3805271991767164 0.9689120146378399
atom 2.5902472527472522 10.3609890109890159 0.0000000000000000 Zr
    velocity -0.0431351478283063 0.0596414570220738 0.2542342438649896
atom 7.7707417582417593 10.3609890109890159 0.0000000000000000 Zr
    velocity 0.0930630282196016 -0.0880254140776182 0.2853914974972880
atom 12.9512362637362664 10.3609890109890159 0.0000000000000000 Zr
    velocity -0.0566962030118262 -0.1712252512161857 -0.4497729794422361
atom 18.1317307692307743 10.3609890109890159 0.0000000000000000 Zr
    velocity -0.5773007806555882 0.1857061368637295 0.0529168238688927
atom 23.3122252747252823 10.3609890109890159 0.0000000000000000 Zr
    velocity -0.4392904848256994 -0.2883721258676921 0.0908649630204978
atom 28.4927197802197867 10.3609890109890159 0.0000000000000000 Zr
    velocity 0.0141756119122516 -0.0792413255457537 -0.0631317372188121
atom 2.5902472527472522 15.5414835164835186 0.0000000000000000 Zr
    velocity -0.3590033188716175 0.1463581876085698 -0.4562283634924611
atom 7.7707417582417593 15.5414835164835186 0.0000000000000000 Zr
    velocity -0.2762773247927985 -0.2556200146170534 -0.3405855294980276
atom 12.9512362637362664 15.5414835164835186 0.0000000000000000 Zr
    velocity 0.2126373912098013 -0.1228736868303929 -0.3593097711798384
atom 18.1317307692307743 15.5414835164835186 0.0000000000000000 Zr
    velocity 0.0407893607746425 0.2659557958711327 0.4160018581223919
atom 23.3122252747252823 15.5414835164835186 0.0000000000000000 Zr
    velocity 0.4138938611395372 -0.0693802735540478 0.0636285859757824
atom 28.4927197802197867 15.5414835164835186 0.0000000000000000 Zr
    velocity 0.0257954626880731 -0.3823507595139717 0.0256263184085684
atom 2.5902472527472522 20.7219780219780283 0.0000000000000000 Zr
    velocity -0.2041511498132349 0.6686332320713850 -0.7349406877406767
atom 7.7707417582417593 20.7219780219780283 0.0000000000000000 Zr
    velocity -0.3449048143668079 -0.1689087369705621 0.5488350769842703
atom 12.9512362637362664 20.7219780219780283 0.0000000000000000 Zr
    velocity -0.0279026013682002 0.2061089433245340 -0.2902193737694493
atom 18.1317307692307743 20.7219780219780283 0.0000000000000000 Zr
    velocity 0.2349973457520981 0.2726274993937603 -0.0262748935148294
atom 23.3122252747252823 20.7219780219780283 0.0000000000000000 Zr
    velocity 0.1427538147769293 -0.0691198124857361 -0.0732387985830849
atom 28.4927197802197867 20.7219780219780283 0.0000000000000000 Zr
    velocity -0.0040773873889411 0.2096939772706113 -0.3922770789128897
atom 2.5902472527472522 25.9024725274725327 0.0000000000000000 Zr
    velocity -0.0708916068580016 0.2619252456411791 -0.5791752699111510
atom 7.7707417582417593 25.9024725274725327 0.0000000000000000 Zr
    velocity -0.1754341090629782 -0.3415192603839414 0.1805016754957192
atom 12.9512362637362664 25.9024725274725327 0.0000000000000000 Zr
    velocity 0.0700609420678002 -0.3106775356026229 -0.1865364506334202
atom 18.1317307692307743 25.9024725274725327 0.0000000000000000 Zr
    velocity 0.0705122224763187 -0.3188144920796773 0.1705517269198149
atom 23.3122252747252823 25.9024725274725327 0.0000000000000000 Zr
    velocity -0.6895261291287087 -0.3376690330476060 -0.1515384118942818
atom 28.4927197802197867 25.9024725274725327 0.0000000000000000 Zr
    velocity -0.3388463250554822 -0.3126372678416010 0.0852826460766632
atom 2.5902472527472522 0.0000000000000000 5.3123626373626394 Zr
    velocity -0.0459649039707933 0.0450566154805755 0.0692600656822644
atom 7.7707417582417593 0.0000000000000000 5.3123626373626394 Zr
    velocity 0.1246823108522603 0.0313956103739341 0.0978432227229692
atom 12.9512362637362664 0.0000000000000000 5.3123626373626394 Zr
    velocity -0.2873198349375764 -0.2440029293686574 0.3024205778452849
atom 18.1317307692307743 0.0000000000000000 5.3123626373626394 Zr
    velocity 0.2376866152683308 -0.1498917674356261 -0.2292059863848196
atom 23.3122252747252823 0.0000000000000000 5.3123626373626394 Zr
    velocity -0.3780262805997461 0.5435887831608732 0.2636597326652256
atom 28.4927197802197867 0.0000000000000000 5.3123626373626394 Zr
    velocity 0.1576174625300087 -0.0383402642286999 0.0564936893179381
atom 2.5902472527472522 5.1804945054945080 5.3123626373626394 Zr
    velocity 0.4210798233637368 0.3396655088365617 -0.0247363845413863
atom 7.7707417582417593 5.1804945054945080 5.3123626373626394 Zr
    velocity -0.0677803228784877 -0.1949427037207415 -0.1605501542984528
atom 12.9512362637362664 5.1804945054945080 5.3123626373626394 Zr
    velocity 0.0984721751154909 -0.1340418147725040 0.1291495585857871
atom 18.1317307692307743 5.1804945054945080 5.3123626373626394 Zr
    velocity 0.2865693737826470 -0.0260528519020985 -0.2120050895981961
atom 23.3122252747252823 5.1804945054945080 5.3123626373626394 Zr
    velocity 0.5558055571384100 0.2058202053721958 0.1672190435676744
atom 28.4927197802197867 5.1804945054945080 5.3123626373626394 Zr
    velocity 0.0504208131403893 0.2697241906075131 -0.1897432760679591
atom 2.5902472527472522 10.3609890109890159 5.3123626373626394 Zr
    velocity -0.3826619979224593 0.2920252507955907 -0.0545232068035975
atom 7.7707417582417593 10.3609890109890159 5.3123626373626394 Zr
    velocity 0.2663950922306758 -0.3007542329556596 -0.4563241118095401
atom 12.9512362637362664 10.3609890109890159 5.3123626373626394 Zr
    velocity -0.2565968820873991 0.1002412171413185 -0.3383763725227873
atom 18.1317307692307743 10.3609890109890159 5.3123626373626394 Zr
    velocity 0.1448503502186465 0.2850728465901630 -0.0106425017872079
atom 23.3122252747252823 10.3609890109890159 5.3123626373626394 Zr
    velocity -0.1591078781937527 -0.4226328343868645 -0.3850470697795482
atom 28.4927197802197867 10.3609890109890159 5.3123626373626394 Zr
    velocity -0.4021095226599983 -0.3068423577002961 0.3252086686310400
atom 2.5902472527472522 15.5414835164835186 5.3123626373626394 Zr
    velocity -0.2469601442958181 -0.2203272670769876 -0.4764488528876369
atom 7.7707417582417593 15.5414835164835186 5.3123626373626394 Zr
    velocity 0.1012915731383427 -0.4215318230087496 -0.1779545120139812
atom 12.9512362637362664 15.5414835164835186 5.3123626373626394 Zr
    velocity -0.0465599183413920 -0.1351013457546200 -0.6365450747106984
atom 18.1317307692307743 15.5414835164835186 5.3123626373626394 Zr
    velocity 0.6526638414393708 0.3687715153444744 0.2346001595719139
atom 23.3122252747252823 15.5414835164835186 5.3123626373626394 Zr
    velocity 0.2610541657595482 0.3683881668760400 -0.3793963078301614
atom 28.4927197802197867 15.5414835164835186 5.3123626373626394 Zr
    velocity -0.0669833493728404 0.2403112203825373 -0.3046040952690799
atom 2.5902472527472522 20.7219780219780283 5.3123626373626394 Zr
    velocity -0.1797907874004302 -0.0989202542945874 0.2936734190995697
atom 7.7707417582417593 20.7219780219780283 5.3123626373626394 Zr
    velocity -0.2315022403892734 0.1005600792925779 0.3738952472977464
atom 12.9512362637362664 20.7219780219780283 5.3123626373626394 Zr
    velocity 0.1833372785292852 -0.0710015066479823 0.4581584201095398
atom 18.1317307692307743 20.7219780219780283 5.3123626373626394 Zr
    velocity -0.3095403137068025 -0.1985181954648188 -0.0576699337816529
atom 23.3122252747252823 20.7219780219780283 5.3123626373626394 Zr
    velocity 0.2539211296664249 -0.1511449420030330 -0.2457072212424224
atom 28.4927197802197867 20.7219780219780283 5.3123626373626394 Zr
    velocity 0.0838906562350498 -0.3976215382745823 0.6453563274227121
atom 2.5902472527472522 25.9024725274725327 5.3123626373626394 Zr
    velocity -0.1413386882980316 -0.3086008349968460 -0.3268687753915446
atom 7.7707417582417593 25.9024725274725327 5.3123626373626394 Zr
    velocity 0.1592348656677618 -0.2087873483662943 0.0482095632129138
atom 12.9512362637362664 25.9024725274725327 5.3123626373626394 Zr
    velocity 0.0074011112479038 0.3241363583850993 0.2059304143957263
atom 18.1317307692307743 25.9024725274725327 5.3123626373626394 Zr
    velocity -0.2539620732486847 0.4162809674874774 -0.0868475364220386
atom 23.3122252747252823 25.9024725274725327 5.3123626373626394 Zr
    velocity -0.2427684831457756 -0.3373594993749301 0.2074377623014028
atom 28.4927197802197867 25.9024725274725327 5.3123626373626394 Zr
    velocity -0.0879588166748681 -0.5333402032294285 0.1567497150719090
atom 2.5902472527472522 0.0000000000000000 10.6247252747252752 Zr
    velocity -0.1224084380224197 -0.0179788676012882 0.0567981793698429
atom 7.7707417582417593 0.0000000000000000 10.6247252747252752 Zr
    velocity -0.0193687433883280 -0.0712549472997814 -0.2285775825368007
atom 12.9512362637362664 0.0000000000000000 10.6247252747252752 Zr
    velocity 0.1281213760328288 -0.3006314733155198 -0.2690363936976781
atom 18.1317307692307743 0.0000000000000000 10.6247252747252752 Zr
    velocity 0.0951879427108733 0.3812228828401200 -0.7473764474885747
atom 23.3122252747252823 0.0000000000000000 10.6247252747252752 Zr
    velocity 0.3068352993858265 0.1007462467932250 -0.1305270838984404
atom 28.4927197802197867 0.0000000000000000 10.6247252747252752 Zr
    velocity 0.0501573401696244 0.0752401933387523 -0.1573656590836147
atom 2.5902472527472522 5.1804945054945080 10.6247252747252752 Zr
    velocity -0.2649665784106962 -0.5990777414039798 0.1785942936813454
atom 7.7707417582417593 5.1804945054945080 10.6247252747252752 Zr
    velocity -0.1378151780037227 0.0029821392361198 -0.0706726122615735
atom 12.9512362637362664 5.1804945054945080 10.6247252747252752 Zr
    velocity -0.2566864856622876 -0.1434861795971989 -0.3329737983948260
atom 18.1317307692307743 5.1804945054945080 10.6247252747252752 Zr
    velocity -0.5009141330588534 0.1988471647483535 -0.5145506701452078
atom 23.3122252747252823 5.1804945054945080 10.6247252747252752 Zr
    velocity -0.0064593331236356 0.0946073279542707 -0.0723379289664033
atom 28.4927197802197867 5.1804945054945080 10.6247252747252752 Zr
    velocity -0.3821531453571044 0.1793941660073987 -0.4057997891903181
atom 2.5902472527472522 10.3609890109890159 10.6247252747252752 Zr
    velocity 0.3082772337398846 0.0699716223213872 -0.3270772836098285
atom 7.7707417582417593 10.3609890109890159 10.6247252747252752 Zr
    velocity 0.3735119036887089 0.1941406097093620 -0.0172648111990190
atom 12.9512362637362664 10.3609890109890159 10.6247252747252752 Zr
    velocity -0.2658677968694200 -0.1373640068003104 -0.5075450603143095
atom 18.1317307692307743 10.3609890109890159 10.6247252747252752 Zr
    velocity -0.1313823459765776 -0.3915192885506706 0.2659659121437603
atom 23.3122252747252823 10.3609890109890159 10.6247252747252752 Zr
    velocity -0.1434822368687727 -0.7034917728944272 -0.6819470481506138
atom 28.4927197802197867 10.3609890109890159 10.6247252747252752 Zr
    velocity 0.6416330720030773 0.1870795370481359 0.1398268315774328
atom 2.5902472527472522 15.5414835164835186 10.6247252747252752 Zr
    velocity 0.4064506705186571 0.1077435395157661 0.1932268361362968
atom 7.7707417582417593 15.5414835164835186 10.6247252747252752 Zr
    velocity -0.3113316422589689 -0.3531346350979368 -0.1911450699463633
atom 12.9512362637362664 15.5414835164835186 10.6247252747252752 Zr
    velocity -0.2889370005740562 0.2892952701053962 0.1312122874136691
atom 18.1317307692307743 15.5414835164835186 10.6247252747252752 Zr
    velocity 0.5243260026308169 0.3651028289168805 0.1207117218339520
atom 23.3122252747252823 15.5414835164835186 10.6247252747252752 Zr
    velocity -0.6056236959509073 -0.0571906330974016 0.0032202955741593
atom 28.4927197802197867 15.5414835164835186 10.6247252747252752 Zr
    velocity 0.2454083381594300 -0.0194236206760607 -0.0779007282735248
atom 2.5902472527472522 20.7219780219780283 10.6247252747252752 Zr
    velocity -0.3610461748378160 0.1259019920235308 0.0029962289150566
atom 7.7707417582417593 20.7219780219780283 10.6247252747252752 Zr
    velocity -0.5728324330637012 0.0424516683631578 -0.0254099258212392
atom 12.9512362637362664 20.7219780219780283 10.6247252747252752 Zr
    velocity -0.0213043539233917 -0.5041967416470354 0.7563335648451709
atom 18.1317307692307743 20.7219780219780283 10.6247252747252752 Zr
    velocity 0.2099668659391243 0.0584696869677476 0.1589745827027927
atom 23.3122252747252823 20.7219780219780283 10.6247252747252752 Zr
    velocity -0.2690992756266745 0.3535490848640014 -0.4602450294820456
atom 28.4927197802197867 20.7219780219780283 10.6247252747252752 Zr
    velocity -0.4945387396467985 -0.0143247979289098 0.0879992051534376
atom 2.5902472527472522 25.9024725274725327 10.6247252747252752 Zr
    velocity -0.1406981122991843 0.2062087460017986 -0.4399040681655104
atom 7.7707417582417593 25.9024725274725327 10.6247252747252752 Zr
    velocity 0.0243565929905039 0.0388556007235164 -0.0083495651456805
atom 12.9512362637362664 25.9024725274725327 10.6247252747252752 Zr
    velocity 0.0030142690479463 -0.0584607980025034 0.0355516011802795
atom 18.1317307692307743 25.9024725274725327 10.6247252747252752 Zr
    velocity 0.2837792432474353 0.4780335211425153 0.3243144025273092
atom 23.3122252747252823 25.9024725274725327 10.6247252747252752 Zr
    velocity -0.0195530728545500 0.1590084528901565 -0.1398934958893478
atom 28.4927197802197867 25.9024725274725327 10.6247252747252752 Zr
    velocity 0.2235903618847584 0.2567897291346935 0.2599961495007888
atom 2.5902472527472522 0.0000000000000000 15.9370879120879092 Zr
    velocity -0.4013675326699591 0.1313577593191288 -0.2282546124060322
atom 7.7707417582417593 0.0000000000000000 15.9370879120879092 Zr
    velocity -0.5296672238842680 -0.2065686741136410 -0.0162449776844543
atom 12.9512362637362664 0.0000000000000000 15.9370879120879092 Zr
    velocity 0.1165868240382251 -0.3358304991264627 0.1826931203107662
atom 18.1317307692307743 0.0000000000000000 15.9370879120879092 Zr
    velocity 0.1739123893786090 0.0302007696904526 0.2325123404091710
atom 23.3122252747252823 0.0000000000000000 15.9370879120879092 Zr
    velocity 0.5184236548231309 -0.1060103230867730 0.2473842431215940
atom 28.4927197802197867 0.0000000000000000 15.9370879120879092 Zr
    velocity 0.1106356931854745 -0.0182210339056709 0.3544385909244205
atom 2.5902472527472522 5.1804945054945080 15.9370879120879092 Zr
    velocity 0.0721249188168835 -0.4376213905894011 0.4551153499288202
atom 7.7707417582417593 5.1804945054945080 15.9370879120879092 Zr
    velocity -0.4455008342151818 0.3821598127222761 -0.5291839989259667
atom 12.9512362637362664 5.1804945054945080 15.9370879120879092 Zr
    velocity -0.1436502023104288 0.1699038728048258 -0.2831589320416260
atom 18.1317307692307743 5.1804945054945080 15.9370879120879092 Zr
    velocity -0.3200441316908106 0.2517870008841114 -0.1635225567876900
atom 23.3122252747252823 5.1804945054945080 15.9370879120879092 Zr
    velocity -0.1158503596053501 0.1838703353976878 -0.0617873569381051
atom 28.4927197802197867 5.1804945054945080 15.9370879120879092 Zr
    velocity -0.0213725625041231 -0.1228092710027759 0.3998016453290128
atom 2.5902472527472522 10.3609890109890159 15.9370879120879092 Zr
    velocity -0.5969629135928393 -0.1540977069739442 0.0667233622321087
atom 7.7707417582417593 10.3609890109890159 15.9370879120879092 Zr
    velocity -0.3955443006627439 -0.2023471872766619 -0.3977964862601018
atom 12.9512362637362664 10.3609890109890159 15.9370879120879092 Zr
    velocity -0.5169078689733108 -0.1558555355100459 -0.0690151822447818
atom 18.1317307692307743 10.3609890109890159 15.9370879120879092 Zr
    velocity -0.3679710587838680 0.0696559032401815 0.2141727080988324
atom 23.3122252747252823 10.3609890109890159 15.9370879120879092 Zr
    velocity 0.0541797394647467 -0.1190575290843638 0.3639878742209864
atom 28.4927197802197867 10.3609890109890159 15.9370879120879092 Zr
    velocity -0.2492920862234932 0.0423439220360948 0.2820246274919845
atom 2.5902472527472522 15.5414835164835186 15.9370879120879092 Zr
    velocity 0.3481465565351700 -0.2500177723430961 -0.3666767089732497
atom 7.7707417582417593 15.5414835164835186 15.9370879120879092 Zr
    velocity 0.2281182602646583 -0.2166999306474176 -0.2264132457330960
atom 12.9512362637362664 15.5414835164835186 15.9370879120879092 Zr
    velocity -0.0493623205258125 -0.3117110007227829 -0.3574668013538537
atom 18.1317307692307743 15.5414835164835186 15.9370879120879092 Zr
    velocity 0.8798107230020480 -0.3607511689853667 0.2263968782252654
atom 23.3122252747252823 15.5414835164835186 15.9370879120879092 Zr
    velocity 0.2883962331683384 0.1214467625433624 0.2894171782917951
atom 28.4927197802197867 15.5414835164835186 15.9370879120879092 Zr
    velocity -0.4542987275848581 0.4683774486429408 0.3038531717292244
atom 2.5902472527472522 20.7219780219780283 15.9370879120879092 Zr
    velocity -0.2634422723602590 0.3595414864301387 0.0780292352456021
atom 7.7707417582417593 20.7219780219780283 15.9370879120879092 Zr
    velocity -0.5328977712677132 0.2625857627473808 -0.0913454982456928
atom 12.9512362637362664 20.7219780219780283 15.9370879120879092 Zr
    velocity 0.0212630083634995 0.0885810110480747 -0.3697263785452857
atom 18.1317307692307743 20.7219780219780283 15.9370879120879092 Zr
    velocity 0.2824401312707067 0.2539929296360785 -0.1448791641589084
atom 23.3122252747252823 20.7219780219780283 15.9370879120879092 Zr
    velocity -0.1180081614372575 -0.5414575477564311 0.5290159284387826
atom 28.4927197802197867 20.7219780219780283 15.9370879120879092 Zr
    velocity -0.2379309905361105 0.3393311750468180 -0.2213305293557332
atom 2.5902472527472522 25.9024725274725327 15.9370879120879092 Zr
    velocity -0.1445890650075423 0.0912104524708274 0.2395996980978028
atom 7.7707417582417593 25.9024725274725327 15.9370879120879092 Zr
    velocity -0.0409606451448572 0.3905834631296642 0.1385576612080866
atom 12.9512362637362664 25.9024725274725327 15.9370879120879092 Zr
    velocity -0.2653710860843470 -0.1371983170303885 0.0960341277735291
atom 18.1317307692307743 25.9024725274725327 15.9370879120879092 Zr
    velocity -0.3228224789653068 0.0309643737546697 0.4542351290496878
atom 23.3122252747252823 25.9024725274725327 15.9370879120879092 Zr
    velocity -0.2133216987693334 0.2691182161891039 0.2606123182845768
atom 28.4927197802197867 25.9024725274725327 15.9370879120879092 Zr
    velocity -0.1079764787446991 -0.2630802065344479 0.2378294942874589
atom 2.5902472527472522 0.0000000000000000 21.2494505494505503 Zr
    velocity -0.4651652262902616 -0.2603850858239924 -0.1412389069546168
atom 7.7707417582417593 0.0000000000000000 21.2494505494505503 Zr
    velocity -0.1059682551294257 0.1759916596452233 0.3941984344909207
atom 12.9512362637362664 0.0000000000000000 21.2494505494505503 Zr
    velocity -0.4255726192683821 0.2812691615525021 -0.1084617267506085
atom 18.1317307692307743 0.0000000000000000 21.2494505494505503 Zr
    velocity 0.5968933052152573 -0.0041469558214043 0.5025143033839636
atom 23.3122252747252823 0.0000000000000000 21.2494505494505503 Zr
    velocity -0.2714409218606973 -0.2152423759086907 0.0109272435439601
atom 28.4927197802197867 0.0000000000000000 21.2494505494505503 Zr
    velocity 0.2445277062372806 0.7142217818066525 0.4617646442062401
atom 2.5902472527472522 5.1804945054945080 21.2494505494505503 Zr
    velocity -0.0528051723305769 0.0777808731900143 0.0472902731771859
atom 7.7707417582417593 5.1804945054945080 21.2494505494505503 Zr
    velocity -0.3254319525178322 0.5752120357310901 0.1234817700644999
atom 12.9512362637362664 5.1804945054945080 21.2494505494505503 Zr
    velocity -0.1244165524239465 -0.0923649111193113 -0.0773752172212692
atom 18.1317307692307743 5.1804945054945080 21.2494505494505503 Zr
    velocity -0.3062086565652987 -0.1368509607829382 0.1087352564362680
atom 23.3122252747252823 5.1804945054945080 21.2494505494505503 Zr
    velocity 0.1564140442189884 -0.1864345233259545 -0.0290085525005405
atom 28.4927197802197867 5.1804945054945080 21.2494505494505503 Zr
    velocity -0.2418108526315950 -0.2436760397670785 0.3894460316875900
atom 2.5902472527472522 10.3609890109890159 21.2494505494505503 Zr
    velocity 0.0589554444622071 -0.0004511759914089 -0.1210906987587415
atom 7.7707417582417593 10.3609890109890159 21.2494505494505503 Zr
    velocity 0.3057482975792352 -0.6374074852217979 0.0667918230381319
atom 12.9512362637362664 10.3609890109890159 21.2494505494505503 Zr
    velocity -0.0667634869781290 -0.3344376857814475 0.0215969806196248
atom 18.1317307692307743 10.3609890109890159 21.2494505494505503 Zr
    velocity -0.1029244476640144 0.5720591655314315 0.2924593144784653
atom 23.3122252747252823 10.3609890109890159 21.2494505494505503 Zr
    velocity -0.3152356862314267 0.1304684675837122 -0.0464428786728769
atom 28.4927197802197867 10.3609890109890159 21.2494505494505503 Zr
    velocity -0.3236405545850702 0.2065327616675853 -0.2540840060470492
atom 2.5902472527472522 15.5414835164835186 21.2494505494505503 Zr
    velocity 0.1463904468918127 0.5204119731079137 -0.0043879206482507
atom 7.7707417582417593 15.5414835164835186 21.2494505494505503 Zr
    velocity -0.2562740102967679 -0.2497842058831659 0.2896429605322992
atom 12.9512362637362664 15.5414835164835186 21.2494505494505503 Zr
    velocity -0.2556504821180355 0.4159988264650052 -0.8928833682580746
atom 18.1317307692307743 15.5414835164835186 21.2494505494505503 Zr
    velocity -0.2090925946017543 0.3184450110734706 -0.2691177002950145
atom 23.3122252747252823 15.5414835164835186 21.2494505494505503 Zr
    velocity 0.3113738093397191 -0.2303285352016192 -0.2582829910334388
atom 28.4927197802197867 15.5414835164835186 21.2494505494505503 Zr
    velocity -0.0473774797937983 -0.4076033244197905 0.2235482108267260
atom 2.5902472527472522 20.7219780219780283 21.2494505494505503 Zr
    velocity 0.3394273516382115 0.2886379648447527 -0.0056936038420315
atom 7.7707417582417593 20.7219780219780283 21.2494505494505503 Zr
    velocity -0.2647976337994100 -0.3297231165378933 -0.5905082010333100
atom 12.9512362637362664 20.7219780219780283 21.2494505494505503 Zr
    velocity 0.6128375401989706 -0.1655396088450924 -0.2200133261526130
atom 18.1317307692307743 20.7219780219780283 21.2494505494505503 Zr
    velocity -0.5204852194710115 -0.1592340421352395 0.7705266250210049
atom 23.3122252747252823 20.7219780219780283 21.2494505494505503 Zr
    velocity 0.3137574099804190 0.5932172605083571 -0.5126514004411762
atom 28.4927197802197867 20.7219780219780283 21.2494505494505503 Zr
    velocity -0.1080250542464444 0.1620828177132502 -0.0375883177759369
atom 2.5902472527472522 25.9024725274725327 21.2494505494505503 Zr
    velocity -0.4743834773874689 -0.0997837456387236 -0.3221401750913885
atom 7.7707417582417593 25.9024725274725327 21.2494505494505503 Zr
    velocity -0.2491961565888725 0.3799135999450907 -0.1060270646761092
atom 12.9512362637362664 25.9024725274725327 21.2494505494505503 Zr
    velocity 0.2642681737417816 0.5928781258824347 0.0231551777650498
atom 18.1317307692307743 25.9024725274725327 21.2494505494505503 Zr
    velocity 0.4597625769883038 -0.3772478252269303 0.2537976035543607
atom 23.3122252747252823 25.9024725274725327 21.2494505494505503 Zr
    velocity -0.2407623666943865 -0.1766386414168177 0.2335780427254485
atom 28.4927197802197867 25.9024725274725327 21.2494505494505503 Zr
    velocity -0.3095757792333101 0.0255362039693402 -0.1316027322864309
atom 2.5902472527472522 0.0000000000000000 26.5618131868131861 Zr
    velocity -0.4592085139548719 -0.0786495792457289 0.0042408933161983
atom 7.7707417582417593 0.0000000000000000 26.5618131868131861 Zr
    velocity 0.5705722735037767 0.1164063033735049 0.2423936450812687
atom 12.9512362637362664 0.0000000000000000 26.5618131868131861 Zr
    velocity 0.3014132940689629 -0.4608377460937305 0.1939316667449774
atom 18.1317307692307743 0.0000000000000000 26.5618131868131861 Zr
    velocity 0.1619329134014711 -0.3581940204507371 -0.4382246926562167
atom 23.3122252747252823 0.0000000000000000 26.5618131868131861 Zr
    velocity -0.1961090285463654 0.3450783041699066 0.2241243935020910
atom 28.4927197802197867 0.0000000000000000 26.5618131868131861 Zr
    velocity 0.6707166148502951 0.0831259470065606 -0.5678095583769687
atom 2.5902472527472522 5.1804945054945080 26.5618131868131861 Zr
    velocity 0.0850131592193454 0.5745166715300809 -0.1281852645201353
atom 7.7707417582417593 5.1804945054945080 26.5618131868131861 Zr
    velocity 0.1621648283204571 0.3486230915587860 -0.1317050989489949
atom 12.9512362637362664 5.1804945054945080 26.5618131868131861 Zr
    velocity -0.3875032381961288 0.5860593090120837 -0.1231372380294306
atom 18.1317307692307743 5.1804945054945080 26.5618131868131861 Zr
    velocity 0.2877516331011247 0.1156053534061245 0.1902782857128654
atom 23.3122252747252823 5.1804945054945080 26.5618131868131861 Zr
    velocity 0.1015527243625517 0.4857120940756711 0.3400133658898615
atom 28.4927197802197867 5.1804945054945080 26.5618131868131861 Zr
    velocity -0.0385042211871349 -0.2023883550780218 -0.4296776121186202
atom 2.5902472527472522 10.3609890109890159 26.5618131868131861 Zr
    velocity -0.0664610235958074 -0.7445292006023222 -0.3714579179596740
atom 7.7707417582417593 10.3609890109890159 26.5618131868131861 Zr
    velocity -0.4050702700752337 -0.0483457582473958 0.2831265292847634
atom 12.9512362637362664 10.3609890109890159 26.5618131868131861 Zr
    velocity 0.1882128783906831 -0.0994470056479049 0.1051268453728648
atom 18.1317307692307743 10.3609890109890159 26.5618131868131861 Zr
    velocity -0.0461978921473268 0.0150372676750805 -0.2482961233705356
atom 23.3122252747252823 10.3609890109890159 26.5618131868131861 Zr
    velocity 0.5654653669876961 0.1676619739060703 -0.2172751003742606
atom 28.4927197802197867 10.3609890109890159 26.5618131868131861 Zr
    velocity -0.2469205997645481 0.2567613018881575 0.1704404036837216
atom 2.5902472527472522 15.5414835164835186 26.5618131868131861 Zr
    velocity -0.0599501184327892 0.0522236500493122 0.4317442055615845
atom 7.7707417582417593 15.5414835164835186 26.5618131868131861 Zr
    velocity 0.2634858155317112 0.4547224607329292 0.1018627885181470
atom 12.9512362637362664 15.5414835164835186 26.5618131868131861 Zr
    velocity -0.1418623222838947 0.2335475307646185 0.0577533066637223
atom 18.1317307692307743 15.5414835164835186 26.5618131868131861 Zr
    velocity 0.1134418361792056 -0.1356003137162048 0.2759042278725226
atom 23.3122252747252823 15.5414835164835186 26.5618131868131861 Zr
    velocity -0.0043442496239798 -0.3464409530955089 0.1010823236244650
atom 28.4927197802197867 15.5414835164835186 26.5618131868131861 Zr
    velocity 0.2573637785779803 0.3673489674597656 0.1211695866839212
atom 2.5902472527472522 20.7219780219780283 26.5618131868131861 Zr
    velocity -0.5465886705693638 0.0107919784881345 -0.2411099694497898
atom 7.7707417582417593 20.7219780219780283 26.5618131868131861 Zr
    velocity 0.4247949019651163 0.1522334919165048 0.0430042167983676
atom 12.9512362637362664 20.7219780219780283 26.5618131868131861 Zr
    velocity 0.2313635094044191 0.1633140198595586 0.3128290364206548
atom 18.1317307692307743 20.7219780219780283 26.5618131868131861 Zr
    velocity -0.3586480936518694 -0.0819761675594695 -0.2885586863020777
atom 23.3122252747252823 20.7219780219780283 26.5618131868131861 Zr
    velocity 0.1864066236985822 -0.3950591268404900 0.1726699228841318
atom 28.4927197802197867 20.7219780219780283 26.5618131868131861 Zr
    velocity -0.1634768529449714 0.5887847819165816 -0.1485218821662759
atom 2.5902472527472522 25.9024725274725327 26.5618131868131861 Zr
    velocity -0.3966704328296849 0.2161396712564320 0.2499893723265287