#=======================================================
# FHI-aims file: 2000_geometry.in.primitive.supercell_1500.0010K
# Created using the Atomic Simulation Environment (ASE)
# Thu Jan 26 12:09:02 2023

# Additional information:
#  created from MB distrubtion
#  T = 10.0 K
#  quantum:             False
#  deterministic:       False
#  plus_minus:          False
#  gauge_eigenvectors:  False
#  Random seed:         91318309
#  Sample number:       1
#=======================================================
lattice_vector 25.9388736263736277 0.0000000000000000 0.0000000000000000 
lattice_vector 0.0000000000000000 25.9388736263736277 0.0000000000000000 
lattice_vector 0.0000000000000000 0.0000000000000000 26.6050824175824197 
atom 2.5938873626373629 0.0000000000000000 0.0000000000000000 Zr
    velocity -0.1428982119960648 -0.2044438089899676 -0.2661803449406833
atom 7.7816620879120881 0.0000000000000000 0.0000000000000000 Zr
    velocity 0.3308049119311698 0.1935369026410244 -0.2156224889666400
atom 12.9694368131868139 0.0000000000000000 0.0000000000000000 Zr
    velocity 0.4419627333016661 -0.0869847647253871 0.2864728751934855
atom 18.1572115384615422 0.0000000000000000 0.0000000000000000 Zr
    velocity 0.1662822367591640 -0.4855194839083442 0.0691874358129772
atom 23.3449862637362671 0.0000000000000000 0.0000000000000000 Zr
    velocity 0.2534404792913106 -0.2380454776294018 -0.2152274922684672
atom 2.5938873626373629 5.1877747252747257 0.0000000000000000 Zr
    velocity -0.0876174637947116 0.1470500664461752 0.0582452488867432
atom 7.7816620879120881 5.1877747252747257 0.0000000000000000 Zr
    velocity 0.5648285340311319 0.2778496272558602 0.1053490309556921
atom 12.9694368131868139 5.1877747252747257 0.0000000000000000 Zr
    velocity -0.0234123753633478 -0.0277579561910994 -0.1314773467309406
atom 18.1572115384615422 5.1877747252747257 0.0000000000000000 Zr
    velocity 0.5677398919172666 0.0965070697351406 0.5698588258740119
atom 23.3449862637362671 5.1877747252747257 0.0000000000000000 Zr
    velocity -0.0885169875218889 -0.0336283938973977 -0.4094334082885127
atom 2.5938873626373629 10.3755494505494514 0.0000000000000000 Zr
    velocity 0.0000436959308604 -0.1725980652452487 0.1624763099744050
atom 7.7816620879120881 10.3755494505494514 0.0000000000000000 Zr
    velocity 0.3023799906619159 -0.0967800049238164 -0.3967170474915356
atom 12.9694368131868139 10.3755494505494514 0.0000000000000000 Zr
    velocity -0.1798076613509552 -0.1632984932937690 0.5064859878052940
atom 18.1572115384615422 10.3755494505494514 0.0000000000000000 Zr
    velocity 0.0968117358425534 -0.1952521738834400 -0.2352725087776507
atom 23.3449862637362671 10.3755494505494514 0.0000000000000000 Zr
    velocity 0.1338825693157648 0.3156911925439809 -0.2235499145402391
atom 2.5938873626373629 15.5633241758241780 0.0000000000000000 Zr
    velocity -0.0350075800813171 -0.0327560507211445 0.4062432316283011
atom 7.7816620879120881 15.5633241758241780 0.0000000000000000 Zr
    velocity 0.5644438942184620 0.5248149643553492 0.0796117273561680
atom 12.9694368131868139 15.5633241758241780 0.0000000000000000 Zr
    velocity -0.2786073721808359 -0.3437203131794856 -0.4073334440247851
atom 18.1572115384615422 15.5633241758241780 0.0000000000000000 Zr
    velocity 0.1617982146408533 -0.2651973466329097 0.3273493505727585
atom 23.3449862637362671 15.5633241758241780 0.0000000000000000 Zr
    velocity -0.0091828673389281 -0.0231530738972858 -0.0025943412829140
atom 2.5938873626373629 20.7510989010989029 0.0000000000000000 Zr
    velocity 0.0321706610428512 0.3526527015498990 -0.1842044059899868
atom 7.7816620879120881 20.7510989010989029 0.0000000000000000 Zr
    velocity 0.1172856797086512 -0.2535655879450798 -0.0409599622747315
atom 12.9694368131868139 20.7510989010989029 0.0000000000000000 Zr
    velocity 0.1295980885269300 0.1503559852387273 -0.1627711116582345
atom 18.1572115384615422 20.7510989010989029 0.0000000000000000 Zr
    velocity 0.0810082573246665 0.1939342152165092 0.3080294981592842
atom 23.3449862637362671 20.7510989010989029 0.0000000000000000 Zr
    velocity 0.4657873816137650 0.4059096811441377 -0.4160015557185637
atom 2.5938873626373629 0.0000000000000000 5.3210164835164839 Zr
    velocity -0.1626882847323025 0.1253656913751090 -0.1534617239386985
atom 7.7816620879120881 0.0000000000000000 5.3210164835164839 Zr
    velocity 0.4691738568386705 0.0537164721210514 -0.7037917372772804
atom 12.9694368131868139 0.0000000000000000 5.3210164835164839 Zr
    velocity 0.1963793003748139 -0.1206845850963169 0.2351700953565086
atom 18.1572115384615422 0.0000000000000000 5.3210164835164839 Zr
    velocity 0.1817241631781447 0.3809653497793352 0.1269360981445015
atom 23.3449862637362671 0.0000000000000000 5.3210164835164839 Zr
    velocity 0.0735128815213465 0.1707014937944127 0.1099534089712981
atom 2.5938873626373629 5.1877747252747257 5.3210164835164839 Zr
    velocity 0.4707793859133065 0.1302704666953563 -0.1603128955065469
atom 7.7816620879120881 5.1877747252747257 5.3210164835164839 Zr
    velocity 0.0101654412047600 -0.2072470589887958 -0.1101556648365655
atom 12.9694368131868139 5.1877747252747257 5.3210164835164839 Zr
    velocity -0.2275552633676061 -0.2103552620199712 -0.1614154537340236
atom 18.1572115384615422 5.1877747252747257 5.3210164835164839 Zr
    velocity -0.0237554770605532 -0.0270732647571169 -0.1309627515815985
atom 23.3449862637362671 5.1877747252747257 5.3210164835164839 Zr
    velocity -0.0770211033743916 -0.5119989452857803 -0.1189792428595943
atom 2.5938873626373629 10.3755494505494514 5.3210164835164839 Zr
    velocity -0.7676602043210349 -0.2862705061585745 -0.2829631514531703
atom 7.7816620879120881 10.3755494505494514 5.3210164835164839 Zr
    velocity -0.1524617293722299 -0.1481556324204897 0.3989640852686113
atom 12.9694368131868139 10.3755494505494514 5.3210164835164839 Zr
    velocity -0.3859877335878507 0.0687864125277742 -0.1912671775906098
atom 18.1572115384615422 10.3755494505494514 5.3210164835164839 Zr
    velocity 0.1421530543764975 -0.0201117671898138 -0.1282675874516398
atom 23.3449862637362671 10.3755494505494514 5.3210164835164839 Zr
    velocity 0.2112419370436316 -0.1790006339044286 -0.0909792037276048
atom 2.5938873626373629 15.5633241758241780 5.3210164835164839 Zr
    velocity -0.0731136457458045 -0.1561162096423392 0.3317183731788707
atom 7.7816620879120881 15.5633241758241780 5.3210164835164839 Zr
    velocity 0.7327721621944407 -0.1861167498167952 -0.3562536817646851
atom 12.9694368131868139 15.5633241758241780 5.3210164835164839 Zr
    velocity -0.0263183450734545 -0.0763875095341426 -0.0343446963945750
atom 18.1572115384615422 15.5633241758241780 5.3210164835164839 Zr
    velocity 0.2262963298126076 0.2315119964124554 -0.1602961846877136
atom 23.3449862637362671 15.5633241758241780 5.3210164835164839 Zr
    velocity 0.3131887267180074 -0.5167303904145746 0.0053284920292972
atom 2.5938873626373629 20.7510989010989029 5.3210164835164839 Zr
    velocity 0.0199645896395538 -0.1220379243250480 -0.2096476638903718
atom 7.7816620879120881 20.7510989010989029 5.3210164835164839 Zr
    velocity 0.1371756832848361 -0.4820297645222283 0.2439219196201371
atom 12.9694368131868139 20.7510989010989029 5.3210164835164839 Zr
    velocity -0.1665700200554240 0.0983997017656429 0.1327728237616181
atom 18.1572115384615422 20.7510989010989029 5.3210164835164839 Zr
    velocity 0.3286580100395147 0.2545930576683440 0.1832481503517492
atom 23.3449862637362671 20.7510989010989029 5.3210164835164839 Zr
    velocity -0.1529328686248982 -0.2730140915445600 0.0490945429323153
atom 2.5938873626373629 0.0000000000000000 10.6420329670329679 Zr
    velocity -0.3411171414402021 -0.1527017983988086 -0.0100766660222807
atom 7.7816620879120881 0.0000000000000000 10.6420329670329679 Zr
    velocity -0.5453553619007404 -0.0446402474711026 0.4306191181710095
atom 12.9694368131868139 0.0000000000000000 10.6420329670329679 Zr
    velocity 0.2782287085059043 -0.0523436533577348 -0.3413976470185141
atom 18.1572115384615422 0.0000000000000000 10.6420329670329679 Zr
    velocity 0.4296153133720786 -0.2531654353308507 0.3658623552743820
atom 23.3449862637362671 0.0000000000000000 10.6420329670329679 Zr
    velocity -0.2047139830290382 0.2546283815237093 -0.0548610391193591
atom 2.5938873626373629 5.1877747252747257 10.6420329670329679 Zr
    velocity 0.3519571954298015 -0.3467593461082227 0.5169352441080729
atom 7.7816620879120881 5.1877747252747257 10.6420329670329679 Zr
    velocity -0.2855589324398193 -0.2542115733696705 0.2370406121556022
atom 12.9694368131868139 5.1877747252747257 10.6420329670329679 Zr
    velocity 0.2701336376922076 -0.4903327902280834 0.1297577776057708
atom 18.1572115384615422 5.1877747252747257 10.6420329670329679 Zr
    velocity -0.1265549370241995 0.0409548635090654 -0.3346476608359241
atom 23.3449862637362671 5.1877747252747257 10.6420329670329679 Zr
    velocity 0.2202494861324041 0.2647932190974105 -0.0348634281431379
atom 2.5938873626373629 10.3755494505494514 10.6420329670329679 Zr
    velocity 0.5080032162794819 0.3880836261448253 0.7204492880447635
atom 7.7816620879120881 10.3755494505494514 10.6420329670329679 Zr
    velocity 0.2024336802360231 -0.2850213274472986 -0.0256072832010447
atom 12.9694368131868139 10.3755494505494514 10.6420329670329679 Zr
    velocity 0.1715264393021947 0.1562754218303038 0.2210480784008221
atom 18.1572115384615422 10.3755494505494514 10.6420329670329679 Zr
    velocity 0.4448257022347984 0.2239961355303136 -0.5039220097839230
atom 23.3449862637362671 10.3755494505494514 10.6420329670329679 Zr
    velocity 0.0706383010193594 0.4419956125423516 0.2384365993200425
atom 2.5938873626373629 15.5633241758241780 10.6420329670329679 Zr
    velocity 0.3276445301239328 -0.3830056217081946 -0.1957564000570923
atom 7.7816620879120881 15.5633241758241780 10.6420329670329679 Zr
    velocity 0.2765653398287075 0.4214160967317372 -0.0405021155527906
atom 12.9694368131868139 15.5633241758241780 10.6420329670329679 Zr
    velocity -0.3208014134046536 0.0652193734950027 -0.1121827726480093
atom 18.1572115384615422 15.5633241758241780 10.6420329670329679 Zr
    velocity 0.4087082959936318 0.0198634431268650 -0.5087426036878667
atom 23.3449862637362671 15.5633241758241780 10.6420329670329679 Zr
    velocity 0.3028755289552220 0.1906996258405601 -0.3450794773270339
atom 2.5938873626373629 20.7510989010989029 10.6420329670329679 Zr
    velocity -0.2523936003660052 -0.2452315945061907 -0.1947205704043073
atom 7.7816620879120881 20.7510989010989029 10.6420329670329679 Zr
    velocity 0.1429569233991754 0.1044823203574009 -0.3650222597089831
atom 12.9694368131868139 20.7510989010989029 10.6420329670329679 Zr
    velocity 0.1711519030016873 -0.3038479628232586 0.4311693195715842
atom 18.1572115384615422 20.7510989010989029 10.6420329670329679 Zr
    velocity -0.3132346367373693 -0.3000396561127385 0.2222437324161792
atom 23.3449862637362671 20.7510989010989029 10.6420329670329679 Zr
    velocity 0.2499395946345975 -0.0223570498575344 0.1524362226124710
atom 2.5938873626373629 0.0000000000000000 15.9630494505494518 Zr
    velocity -0.1060599844147319 -0.2208554606542133 -0.0047131907795592
atom 7.7816620879120881 0.0000000000000000 15.9630494505494518 Zr
    velocity 0.5467944471334265 -0.2809571326105025 -0.2219456524761827
atom 12.9694368131868139 0.0000000000000000 15.9630494505494518 Zr
    velocity -0.0471090650614220 -0.4652600116200376 -0.1258774483079196
atom 18.1572115384615422 0.0000000000000000 15.9630494505494518 Zr
    velocity -0.2618513882184486 0.1700127983503573 -0.3945881102673723
atom 23.3449862637362671 0.0000000000000000 15.9630494505494518 Zr
    velocity 0.3682409685015576 -0.0829570257000578 0.6875196311964140
atom 2.5938873626373629 5.1877747252747257 15.9630494505494518 Zr
    velocity 0.1861574436965636 0.1786593450749013 -0.0883011183316213
atom 7.7816620879120881 5.1877747252747257 15.9630494505494518 Zr
    velocity -0.1326014090549788 -0.1985762807657421 -0.0040736813949309
atom 12.9694368131868139 5.1877747252747257 15.9630494505494518 Zr
    velocity -0.4652575208997525 -0.5157045839156184 -0.0955788294874308
atom 18.1572115384615422 5.1877747252747257 15.9630494505494518 Zr
    velocity 0.3253154221099302 -0.3946545885090897 -0.2203748013555708
atom 23.3449862637362671 5.1877747252747257 15.9630494505494518 Zr
    velocity -0.0940572888400274 0.1173097543073924 -0.3953904432907790
atom 2.5938873626373629 10.3755494505494514 15.9630494505494518 Zr
    velocity -0.1670176652380914 -0.3844083569349716 -0.0042650142155024
atom 7.7816620879120881 10.3755494505494514 15.9630494505494518 Zr
    velocity -0.4207838115007724 -0.4338473853313075 0.1333995360229324
atom 12.9694368131868139 10.3755494505494514 15.9630494505494518 Zr
    velocity 0.1402065913223399 -0.1068281629157268 -0.3040737249205468
atom 18.1572115384615422 10.3755494505494514 15.9630494505494518 Zr
    velocity 0.1829612017567553 -0.1650988481509262 -0.2834991862042086
atom 23.3449862637362671 10.3755494505494514 15.9630494505494518 Zr
    velocity 0.4131392938186880 0.0287028982249043 0.3295470253678157
atom 2.5938873626373629 15.5633241758241780 15.9630494505494518 Zr
    velocity 0.3089919670092722 -0.5192767328890463 0.3864802999491454
atom 7.7816620879120881 15.5633241758241780 15.9630494505494518 Zr
    velocity -0.1372592848312362 -0.2523861879113960 0.1366836254950034
atom 12.9694368131868139 15.5633241758241780 15.9630494505494518 Zr
    velocity -0.7150631870290606 -0.2452607180429087 -0.0642434563469075
atom 18.1572115384615422 15.5633241758241780 15.9630494505494518 Zr
    velocity -0.0465848261620168 -0.1324272142500460 0.1242001125666209
atom 23.3449862637362671 15.5633241758241780 15.9630494505494518 Zr
    velocity 0.0250562208175262 -0.3950951396341278 0.3768769976857897
atom 2.5938873626373629 20.7510989010989029 15.9630494505494518 Zr
    velocity 0.2640686605113722 0.5835647961603698 0.0477163569491992
atom 7.7816620879120881 20.7510989010989029 15.9630494505494518 Zr
    velocity 0.0364911807248574 -0.3716026224025828 0.1241918412825988
atom 12.9694368131868139 20.7510989010989029 15.9630494505494518 Zr
    velocity -0.0371328825423793 -0.0997991731891661 -0.4962415708001447
atom 18.1572115384615422 20.7510989010989029 15.9630494505494518 Zr
    velocity 0.6176632178603972 -0.0741151642280527 0.1472634510193633
atom 23.3449862637362671 20.7510989010989029 15.9630494505494518 Zr
    velocity 0.1281990673000732 0.0712278734155718 0.1002351726416189
atom 2.5938873626373629 0.0000000000000000 21.2840659340659357 Zr
    velocity -0.1829159278161284 0.1704781251351671 0.1809240549044238
atom 7.7816620879120881 0.0000000000000000 21.2840659340659357 Zr
    velocity -0.1285908315564090 -0.1495933455800985 0.1075679326124827
atom 12.9694368131868139 0.0000000000000000 21.2840659340659357 Zr
    velocity 0.1960862726954655 -0.2265606441844522 -0.3994686812902705
atom 18.1572115384615422 0.0000000000000000 21.2840659340659357 Zr
    velocity 0.2333346857732473 0.1594990888323405 -0.1809295468853035
atom 23.3449862637362671 0.0000000000000000 21.2840659340659357 Zr
    velocity 0.0928055329804619 -0.3310931215420510 0.4405468060125782
atom 2.5938873626373629 5.1877747252747257 21.2840659340659357 Zr
    velocity -0.4176766929213804 -0.6265561479292353 0.1930843946045830
atom 7.7816620879120881 5.1877747252747257 21.2840659340659357 Zr
    velocity 0.1673909799472482 -0.3591937631869565 -0.5716143575819618
atom 12.9694368131868139 5.1877747252747257 21.2840659340659357 Zr
    velocity 0.4975798176072979 0.1980546452463429 -0.0125446964774119
atom 18.1572115384615422 5.1877747252747257 21.2840659340659357 Zr
    velocity 0.2627310156528100 -0.0024559684424822 0.0229544079546142
atom 23.3449862637362671 5.1877747252747257 21.2840659340659357 Zr
    velocity 0.2812565600313527 0.0317318738756910 0.1712605003742174
atom 2.5938873626373629 10.3755494505494514 21.2840659340659357 Zr
    velocity 0.8177411848788033 -0.0331880752301209 -0.1106260713275560
atom 7.7816620879120881 10.3755494505494514 21.2840659340659357 Zr
    velocity -0.4614150248458709 -0.0889673627361748 -0.1177492095667950
atom 12.9694368131868139 10.3755494505494514 21.2840659340659357 Zr
    velocity -0.1768506586176274 0.0011779328500870 0.2635059458544363
atom 18.1572115384615422 10.3755494505494514 21.2840659340659357 Zr
    velocity 0.1527249406134772 -0.2471290054635395 0.1943179228485128
atom 23.3449862637362671 10.3755494505494514 21.2840659340659357 Zr
    velocity 0.3608278738722545 0.1579089743641499 0.0519540907404326
atom 2.5938873626373629 15.5633241758241780 21.2840659340659357 Zr
    velocity 0.0411039792821442 0.1391002562421753 -0.0861315361202260
atom 7.7816620879120881 15.5633241758241780 21.2840659340659357 Zr
    velocity 0.1316319401773569 0.2196139836099986 -0.1310939005177330
atom 12.9694368131868139 15.5633241758241780 21.2840659340659357 Zr
    velocity 0.2599049853120458 0.0802089353921253 -0.1353406520727192
atom 18.1572115384615422 15.5633241758241780 21.2840659340659357 Zr
    velocity -0.3208524431507025 -0.1102654871738128 0.5602068398730281
atom 23.3449862637362671 15.5633241758241780 21.2840659340659357 Zr
    velocity -0.0414006796478973 0.5960223520503880 -0.6478856689971669
atom 2.5938873626373629 20.7510989010989029 21.2840659340659357 Zr
    velocity -0.3439502677437306 0.2397723792839305 -0.3766485646774703
atom 7.7816620879120881 20.7510989010989029 21.2840659340659357 Zr
    velocity -0.0275554696144440 -0.3518859756689371 -0.2549377209293571
atom 12.9694368131868139 20.7510989010989029 21.2840659340659357 Zr
    velocity -0.0845649258898683 0.2012686485880904 0.5500315025275224
atom 18.1572115384615422 20.7510989010989029 21.2840659340659357 Zr
    velocity 0.3487183262402496 0.1572023297306060 -0.0598680689343199
atom 23.3449862637362671 20.7510989010989029 21.2840659340659357 Zr
    velocity 0.0151363260524904 0.2991617014338107 -0.2062455747135363
atom 0.0000000000000000 2.5938873626373629 0.0000000000000000 Zr
    velocity 0.0190387267178577 -0.2835051450218974 -0.5794671682813715
atom 5.1877747252747257 2.5938873626373629 0.0000000000000000 Zr
    velocity 0.0979257776589984 0.1421737357698912 0.1942063916313680
atom 10.3755494505494514 2.5938873626373629 0.0000000000000000 Zr
    velocity 0.4449698863914477 0.1965509106930396 -0.2082494644357424
atom 15.5633241758241780 2.5938873626373629 0.0000000000000000 Zr
    velocity 0.1734799861478431 -0.1880365868525000 0.0160345305667748
atom 20.7510989010989029 2.5938873626373629 0.0000000000000000 Zr
    velocity 0.1085625541687624 0.2243091205914222 -0.0095556562000655
atom 0.0000000000000000 7.7816620879120881 0.0000000000000000 Zr
    velocity 0.1541623678071876 -0.1279582380261578 -0.2821844814075405
atom 5.1877747252747257 7.7816620879120881 0.0000000000000000 Zr
    velocity 0.0846880882776719 0.3149782749246472 -0.2069177255972183
atom 10.3755494505494514 7.7816620879120881 0.0000000000000000 Zr
    velocity 0.5034845211171989 0.0311130498171968 0.3710370322788167
atom 15.5633241758241780 7.7816620879120881 0.0000000000000000 Zr
    velocity 0.1811173468937786 0.0569484042102607 0.0042524352416502
atom 20.7510989010989029 7.7816620879120881 0.0000000000000000 Zr
    velocity 0.1510409641988604 0.2720446278221748 0.0657072385918884
atom 0.0000000000000000 12.9694368131868139 0.0000000000000000 Zr
    velocity -0.2532215313121063 -1.1028168516928425 0.1715343633427754
atom 5.1877747252747257 12.9694368131868139 0.0000000000000000 Zr
    velocity -0.5299626122711151 0.5315278237041455 0.3346088103618265
atom 10.3755494505494514 12.9694368131868139 0.0000000000000000 Zr
    velocity -0.2527412724192488 0.1057793417670661 0.2351537126156278
atom 15.5633241758241780 12.9694368131868139 0.0000000000000000 Zr
    velocity 0.2246937585696479 0.3311021910000468 0.0198542799963298
atom 20.7510989010989029 12.9694368131868139 0.0000000000000000 Zr
    velocity 0.2471012909901701 0.2126086744954005 0.0249578155371175
atom 0.0000000000000000 18.1572115384615422 0.0000000000000000 Zr
    velocity 0.2211309487990264 -0.6664094447268845 0.0893285328051456
atom 5.1877747252747257 18.1572115384615422 0.0000000000000000 Zr
    velocity -0.1771492098128481 -0.0506080287303714 -0.1205172580088846
atom 10.3755494505494514 18.1572115384615422 0.0000000000000000 Zr
    velocity 0.1365175675098711 0.3092934551800786 -0.1134488640513194
atom 15.5633241758241780 18.1572115384615422 0.0000000000000000 Zr
    velocity -0.1844051228410173 0.0933523522690016 -0.0820762432700349
atom 20.7510989010989029 18.1572115384615422 0.0000000000000000 Zr
    velocity 0.1569160595733530 0.1605166006267070 0.3377460824211215
atom 0.0000000000000000 23.3449862637362671 0.0000000000000000 Zr
    velocity 0.2728585251105005 -0.1416066929605891 -0.0326717758851799
atom 5.1877747252747257 23.3449862637362671 0.0000000000000000 Zr
    velocity -0.2194096885730208 -0.0327068453949051 -0.1819509889374771
atom 10.3755494505494514 23.3449862637362671 0.0000000000000000 Zr
    velocity 0.1183488253666540 -0.0115271885546337 0.5036354897376512
atom 15.5633241758241780 23.3449862637362671 0.0000000000000000 Zr
    velocity -0.3416875040727145 -0.2109341956213657 0.2372176622237111
atom 20.7510989010989029 23.3449862637362671 0.0000000000000000 Zr
    velocity 0.0040681176132907 -0.0267197224426762 -0.5331609216837665
atom 0.0000000000000000 2.5938873626373629 5.3210164835164839 Zr
    velocity -0.3398636740357854 0.2285694251031836 0.1269071649790029
atom 5.1877747252747257 2.5938873626373629 5.3210164835164839 Zr
    velocity -0.1062265150939690 -0.2620393944207183 -0.1079267867943860
atom 10.3755494505494514 2.5938873626373629 5.3210164835164839 Zr
    velocity 0.0190869816502519 -0.2182229417740663 0.0484041995036181
atom 15.5633241758241780 2.5938873626373629 5.3210164835164839 Zr
    velocity 0.4474749657096521 0.3131120871029398 -0.6400083802053466
atom 20.7510989010989029 2.5938873626373629 5.3210164835164839 Zr
    velocity -0.3369021814478579 -0.3329904794018650 -0.0320367177500097
atom 0.0000000000000000 7.7816620879120881 5.3210164835164839 Zr
    velocity 0.5050984852052872 -0.0354763895011020 0.1368458505489961
atom 5.1877747252747257 7.7816620879120881 5.3210164835164839 Zr
    velocity -0.0525392835189692 0.1651935038693433 0.5969619079075138
atom 10.3755494505494514 7.7816620879120881 5.3210164835164839 Zr
    velocity -0.3692074070274661 -0.2937446227507987 0.3108521815242447
atom 15.5633241758241780 7.7816620879120881 5.3210164835164839 Zr
    velocity 0.5417642516764724 -0.1253297652339189 0.3937415283320491
atom 20.7510989010989029 7.7816620879120881 5.3210164835164839 Zr
    velocity -0.3897405073727788 -0.0971757533092119 -0.3213155779359435
atom 0.0000000000000000 12.9694368131868139 5.3210164835164839 Zr
    velocity 0.1928264602781869 0.1217970344943765 0.4336600420887917
atom 5.1877747252747257 12.9694368131868139 5.3210164835164839 Zr
    velocity -0.2943395825258235 0.5101602202694564 -0.0837519340058820
atom 10.3755494505494514 12.9694368131868139 5.3210164835164839 Zr
    velocity -0.0171173903932018 0.2937420606699992 -0.1958837716217658
atom 15.5633241758241780 12.9694368131868139 5.3210164835164839 Zr
    velocity 0.1468101070171212 -0.0574204907669923 0.1558050548484711
atom 20.7510989010989029 12.9694368131868139 5.3210164835164839 Zr
    velocity 0.5664868374669989 0.5572244759260769 0.2437324585894396
atom 0.0000000000000000 18.1572115384615422 5.3210164835164839 Zr
    velocity 0.2619140395120697 -0.4497658503366446 0.0667514454327587
atom 5.1877747252747257 18.1572115384615422 5.3210164835164839 Zr
    velocity 0.2816539807014224 0.0476557481351652 0.1861168712502573
atom 10.3755494505494514 18.1572115384615422 5.3210164835164839 Zr
    velocity 0.2795110090603307 -0.3204342733739055 -0.2003025710899195
atom 15.5633241758241780 18.1572115384615422 5.3210164835164839 Zr
    velocity 0.0855630410372888 -0.2259413728597146 0.1500719830651147
atom 20.7510989010989029 18.1572115384615422 5.3210164835164839 Zr
    velocity -0.0433940617894196 0.4483413418217677 0.2672503504756975
atom 0.0000000000000000 23.3449862637362671 5.3210164835164839 Zr
    velocity 0.2751515205558044 -0.0698918424840081 0.0770614635954421
atom 5.1877747252747257 23.3449862637362671 5.3210164835164839 Zr
    velocity -0.7109722455797380 0.0364637227271344 0.3152785601652695
atom 10.3755494505494514 23.3449862637362671 5.3210164835164839 Zr
    velocity 0.4055703451363126 -0.0536008205720209 0.5609484141824470
atom 15.5633241758241780 23.3449862637362671 5.3210164835164839 Zr
    velocity 0.3775674353659921 0.0188010403970530 0.3772804666802319
atom 20.7510989010989029 23.3449862637362671 5.3210164835164839 Zr
    velocity 0.6739685577204702 0.0182627973186764 0.1941129813281507
atom 0.0000000000000000 2.5938873626373629 10.6420329670329679 Zr
    velocity -0.4337091354387526 -0.0661777102383125 0.1031353999238110
atom 5.1877747252747257 2.5938873626373629 10.6420329670329679 Zr
    velocity 0.3106644143998274 -0.0402004687656249 0.0943756201016394
atom 10.3755494505494514 2.5938873626373629 10.6420329670329679 Zr
    velocity 0.0492670183162510 -0.3063012456487103 0.3066517808760160
atom 15.5633241758241780 2.5938873626373629 10.6420329670329679 Zr
    velocity 0.0590576778575879 -0.0036927391256443 -0.1145131423631003
atom 20.7510989010989029 2.5938873626373629 10.6420329670329679 Zr
    velocity 0.0325748368450291 0.2709580827454847 0.0375606733385490
atom 0.0000000000000000 7.7816620879120881 10.6420329670329679 Zr
    velocity 0.1072431263616391 0.3193033768924400 0.5240406037448940
atom 5.1877747252747257 7.7816620879120881 10.6420329670329679 Zr
    velocity -0.0486185107002152 -0.5349466037443059 -0.3191775795590966
atom 10.3755494505494514 7.7816620879120881 10.6420329670329679 Zr
    velocity -0.2057559017384497 0.3217364559231734 -0.3466648900834879
atom 15.5633241758241780 7.7816620879120881 10.6420329670329679 Zr
    velocity -0.3258023833659476 0.1138351792722469 -0.1645320631333146
atom 20.7510989010989029 7.7816620879120881 10.6420329670329679 Zr
    velocity 0.7472062690147306 0.5272595022032476 -0.0412347531647738
atom 0.0000000000000000 12.9694368131868139 10.6420329670329679 Zr
    velocity 0.7981994669637107 0.0607123782694288 0.3726238465754912
atom 5.1877747252747257 12.9694368131868139 10.6420329670329679 Zr
    velocity -0.2098997428034004 0.0056156495962069 -0.2035022502452184
atom 10.3755494505494514 12.9694368131868139 10.6420329670329679 Zr
    velocity -0.0529287947581715 0.6314935503468176 -0.3447290319633279
atom 15.5633241758241780 12.9694368131868139 10.6420329670329679 Zr
    velocity 0.3356823590287566 -0.4240791425423884 0.3441659068821128
atom 20.7510989010989029 12.9694368131868139 10.6420329670329679 Zr
    velocity -0.1468095017755058 -0.3569506797432954 0.0860296937920422
atom 0.0000000000000000 18.1572115384615422 10.6420329670329679 Zr
    velocity -0.0730316553978774 0.4211201640748318 0.0570759958879339
atom 5.1877747252747257 18.1572115384615422 10.6420329670329679 Zr
    velocity 0.1308597808856953 0.2036484976575520 0.2698606799513394
atom 10.3755494505494514 18.1572115384615422 10.6420329670329679 Zr
    velocity -0.2338765148996570 -0.1345157655034251 0.6905893904547807
atom 15.5633241758241780 18.1572115384615422 10.6420329670329679 Zr
    velocity 0.2791270822848684 0.5699448604776984 -0.3467122698056473
atom 20.7510989010989029 18.1572115384615422 10.6420329670329679 Zr
    velocity -0.1866120257513019 -0.9315076139761462 0.3270571690841501
atom 0.0000000000000000 23.3449862637362671 10.6420329670329679 Zr
    velocity 0.2428892228964189 0.0704836579336330 -0.4506771953166315
atom 5.1877747252747257 23.3449862637362671 10.6420329670329679 Zr
    velocity -0.0901326718006493 0.4250955966440693 -0.0877835630323848
atom 10.3755494505494514 23.3449862637362671 10.6420329670329679 Zr
    velocity 0.1273189638417516 0.0318496955177921 -0.2028564476015258
atom 15.5633241758241780 23.3449862637362671 10.6420329670329679 Zr
    velocity -0.1410661089039273 -0.3848520812516134 0.2403360696713023
atom 20.7510989010989029 23.3449862637362671 10.6420329670329679 Zr
    velocity 0.4289292797239512 0.6458481092103461 -0.0339591868935092
atom 0.0000000000000000 2.5938873626373629 15.9630494505494518 Zr
    velocity -0.2628509169913292 0.2673714260803403 -0.0269956856882626
atom 5.1877747252747257 2.5938873626373629 15.9630494505494518 Zr
    velocity -0.1594744447375447 -0.3682093488809370 0.5864744376296939
atom 10.3755494505494514 2.5938873626373629 15.9630494505494518 Zr
    velocity -0.2401082846193154 -0.0463655364865014 -0.0163565429291272
atom 15.5633241758241780 2.5938873626373629 15.9630494505494518 Zr
    velocity -0.2159743650477715 -0.4257530150640105 -0.2701720937290844
atom 20.7510989010989029 2.5938873626373629 15.9630494505494518 Zr
    velocity -0.0325966471671080 0.4055646695005812 -0.1671229647009929
atom 0.0000000000000000 7.7816620879120881 15.9630494505494518 Zr
    velocity 0.3238094200058009 0.2454976344644475 0.6983914499602166
atom 5.1877747252747257 7.7816620879120881 15.9630494505494518 Zr
    velocity -0.0295803930153722 -0.4273690506370351 0.1782876750514970
atom 10.3755494505494514 7.7816620879120881 15.9630494505494518 Zr
    velocity 0.2848778837087181 -0.2598147751546863 0.1793959527770982
atom 15.5633241758241780 7.7816620879120881 15.9630494505494518 Zr
    velocity 0.0352915284941848 0.2626228429514886 0.3532624266167323
atom 20.7510989010989029 7.7816620879120881 15.9630494505494518 Zr
    velocity -0.1193229829400998 -0.9029612786954001 0.2646918469964999
atom 0.0000000000000000 12.9694368131868139 15.9630494505494518 Zr
    velocity -0.2539474706846175 0.2902030150502128 0.1434548130023393
atom 5.1877747252747257 12.9694368131868139 15.9630494505494518 Zr