#=======================================================
# FHI-aims file: 2100_geometry.in.primitive.supercell_2592.0010K
# Created using the Atomic Simulation Environment (ASE)
# Mon Oct 31 16:19:09 2022

# Additional information:
#  created from MB distrubtion
#  T = 10.0 K
#  quantum:             False
#  deterministic:       False
#  plus_minus:          False
#  gauge_eigenvectors:  False
#  Random seed:         527081967
#  Sample number:       1
#=======================================================
lattice_vector 31.1760989010989036 0.0000000000000000 0.0000000000000000 
lattice_vector 0.0000000000000000 31.1760989010989036 0.0000000000000000 
lattice_vector 0.0000000000000000 0.0000000000000000 31.9796703296703306 
atom 2.5980082417582411 0.0000000000000000 0.0000000000000000 Zr
    velocity 0.4339660293110015 0.2304370235818860 -0.6004857315158998
atom 7.7940247252747259 0.0000000000000000 0.0000000000000000 Zr
    velocity 0.0224099230865022 -0.4321594818362586 -0.2278740966484187
atom 12.9900412087912063 0.0000000000000000 0.0000000000000000 Zr
    velocity 0.1404696159858778 -0.1334978945777149 -0.0304184109195193
atom 18.1860576923076920 0.0000000000000000 0.0000000000000000 Zr
    velocity -0.1936972029296695 -0.1392176934300609 -0.2408629158511596
atom 23.3820741758241795 0.0000000000000000 0.0000000000000000 Zr
    velocity 0.2873685377213415 0.6409264198625316 -0.1307880741463125
atom 28.5780906593406563 0.0000000000000000 0.0000000000000000 Zr
    velocity 0.3920639790401352 -0.3128928035678052 -0.4626523110431888
atom 2.5980082417582411 5.1960164835164857 0.0000000000000000 Zr
    velocity -0.1281841487407890 -0.3968432296640138 -0.0750874704124050
atom 7.7940247252747259 5.1960164835164857 0.0000000000000000 Zr
    velocity 0.0821569696895042 -0.1082893793560957 -0.2249360783604998
atom 12.9900412087912063 5.1960164835164857 0.0000000000000000 Zr
    velocity -0.0685386893525558 -0.1161311602530672 -0.0731237564325003
atom 18.1860576923076920 5.1960164835164857 0.0000000000000000 Zr
    velocity -0.0717764683727425 -0.3860175968401097 0.1589753024270890
atom 23.3820741758241795 5.1960164835164857 0.0000000000000000 Zr
    velocity -0.1540565085961861 -0.0006764027479953 -0.5110756013202905
atom 28.5780906593406563 5.1960164835164857 0.0000000000000000 Zr
    velocity 0.3830862710004213 0.2237977303854617 -0.1962979276718193
atom 2.5980082417582411 10.3920329670329679 0.0000000000000000 Zr
    velocity -0.4361801353477631 -0.3464500712958431 0.3398277926027347
atom 7.7940247252747259 10.3920329670329679 0.0000000000000000 Zr
    velocity -0.0407563965432635 0.0365553225988158 0.2722898394678165
atom 12.9900412087912063 10.3920329670329679 0.0000000000000000 Zr
    velocity -0.0955145121119285 -0.1702681560284158 -0.3192498670203836
atom 18.1860576923076920 10.3920329670329679 0.0000000000000000 Zr
    velocity 0.0680676880150603 0.4401218185806570 -0.0167417421586419
atom 23.3820741758241795 10.3920329670329679 0.0000000000000000 Zr
    velocity 0.4261041630984418 0.0519332978319252 0.5843070191458720
atom 28.5780906593406563 10.3920329670329679 0.0000000000000000 Zr
    velocity 0.2107626492804650 0.0314029249486409 -0.0937783275094491
atom 2.5980082417582411 15.5880494505494482 0.0000000000000000 Zr
    velocity -0.1467789488762129 0.1060427529983635 -0.0732183787261499
atom 7.7940247252747259 15.5880494505494482 0.0000000000000000 Zr
    velocity -0.0592956204327154 -0.2685691273556994 -0.1293430976543259
atom 12.9900412087912063 15.5880494505494482 0.0000000000000000 Zr
    velocity 0.2491662044079357 0.1326263400065812 0.1047574760469041
atom 18.1860576923076920 15.5880494505494482 0.0000000000000000 Zr
    velocity 0.1861050466608779 0.3442712429446769 -0.0337719003974777
atom 23.3820741758241795 15.5880494505494482 0.0000000000000000 Zr
    velocity -0.0107841232706399 0.1304222661902699 0.3379032492913935
atom 28.5780906593406563 15.5880494505494482 0.0000000000000000 Zr
    velocity 0.2677391699025973 0.1705068150849696 0.0140348791873479
atom 2.5980082417582411 20.7840659340659357 0.0000000000000000 Zr
    velocity 0.1199098307880605 0.4976074019814608 0.2167236533717740
atom 7.7940247252747259 20.7840659340659357 0.0000000000000000 Zr
    velocity 0.2304417441774374 -0.3090929311029653 -0.1841817818572235
atom 12.9900412087912063 20.7840659340659357 0.0000000000000000 Zr
    velocity -0.3544059731187826 -0.1215248521635601 -0.1030108020972804
atom 18.1860576923076920 20.7840659340659357 0.0000000000000000 Zr
    velocity 0.1495946359036802 -0.0673151007051205 0.1282769076178438
atom 23.3820741758241795 20.7840659340659357 0.0000000000000000 Zr
    velocity 0.3070481558039030 -0.1394935970339985 0.2448388685064500
atom 28.5780906593406563 20.7840659340659357 0.0000000000000000 Zr
    velocity -0.1229733741818088 0.3273282529465428 0.1510764360827809
atom 2.5980082417582411 25.9800824175824125 0.0000000000000000 Zr
    velocity -0.4992726683939478 -0.3381193589136455 -0.0061939356539650
atom 7.7940247252747259 25.9800824175824125 0.0000000000000000 Zr
    velocity 0.1134909976462028 0.3547063296533923 0.3558021073590925
atom 12.9900412087912063 25.9800824175824125 0.0000000000000000 Zr
    velocity -0.0145228229711778 -0.0920968993544007 0.2313003475027259
atom 18.1860576923076920 25.9800824175824125 0.0000000000000000 Zr
    velocity 0.2769724498495436 -0.3141992214134789 0.1347833226249484
atom 23.3820741758241795 25.9800824175824125 0.0000000000000000 Zr
    velocity 0.0479291855640068 -0.0287982370729780 -0.0395025544197172
atom 28.5780906593406563 25.9800824175824125 0.0000000000000000 Zr
    velocity -0.0368342368282705 -0.0653104485998083 -0.0971104255115672
atom 2.5980082417582411 0.0000000000000000 5.3299450549450569 Zr
    velocity -0.2064229552449957 -0.0799744985754896 -0.2471838092887354
atom 7.7940247252747259 0.0000000000000000 5.3299450549450569 Zr
    velocity 0.0550619359592895 0.2816324699993255 -0.8921913290370717
atom 12.9900412087912063 0.0000000000000000 5.3299450549450569 Zr
    velocity 0.6692342749172527 -0.2930385409874642 0.0806310832660579
atom 18.1860576923076920 0.0000000000000000 5.3299450549450569 Zr
    velocity -0.4386306235922633 0.4049406209933726 0.0532328946792316
atom 23.3820741758241795 0.0000000000000000 5.3299450549450569 Zr
    velocity -0.0422410215284375 -0.1673171428118138 0.4906973383633509
atom 28.5780906593406563 0.0000000000000000 5.3299450549450569 Zr
    velocity -0.4098887295315325 -0.1659579160473398 0.6035503862985092
atom 2.5980082417582411 5.1960164835164857 5.3299450549450569 Zr
    velocity -0.5587232476311571 0.2879254807141267 -0.2124080914229892
atom 7.7940247252747259 5.1960164835164857 5.3299450549450569 Zr
    velocity 0.3804379284985488 -0.1101379985739265 0.1123382629196140
atom 12.9900412087912063 5.1960164835164857 5.3299450549450569 Zr
    velocity 0.3257936505126045 -0.3365108405995100 -0.4807139642048459
atom 18.1860576923076920 5.1960164835164857 5.3299450549450569 Zr
    velocity -0.4824918923298137 0.2450502452778790 -0.4611208382447555
atom 23.3820741758241795 5.1960164835164857 5.3299450549450569 Zr
    velocity -0.0876582689910273 -0.2300105346694302 0.1879289235526634
atom 28.5780906593406563 5.1960164835164857 5.3299450549450569 Zr
    velocity 0.1910764103265525 0.3246909683131044 -0.6248219500163179
atom 2.5980082417582411 10.3920329670329679 5.3299450549450569 Zr
    velocity -0.0283554254524003 -0.3254766126991667 -0.1300601406839014
atom 7.7940247252747259 10.3920329670329679 5.3299450549450569 Zr
    velocity -0.1119809412861337 -0.2294051424195656 -0.0563685977588957
atom 12.9900412087912063 10.3920329670329679 5.3299450549450569 Zr
    velocity 0.2883248479359228 0.1281899510287350 0.1517211094745172
atom 18.1860576923076920 10.3920329670329679 5.3299450549450569 Zr
    velocity -0.4675333286725085 -0.2508268045254863 0.1627230307159573
atom 23.3820741758241795 10.3920329670329679 5.3299450549450569 Zr
    velocity -0.3748273103305976 0.8839462428977969 -0.7074214300234209
atom 28.5780906593406563 10.3920329670329679 5.3299450549450569 Zr
    velocity -0.1209788383829908 -0.6761888555568516 0.3282571913862067
atom 2.5980082417582411 15.5880494505494482 5.3299450549450569 Zr
    velocity 0.0574177091114747 0.3502612049630839 -0.8851465718905605
atom 7.7940247252747259 15.5880494505494482 5.3299450549450569 Zr
    velocity -0.0702602303397672 0.1231606396916632 0.2653977918708048
atom 12.9900412087912063 15.5880494505494482 5.3299450549450569 Zr
    velocity 0.0359529420894612 0.1070835012652428 0.3951410864818635
atom 18.1860576923076920 15.5880494505494482 5.3299450549450569 Zr
    velocity -0.2604148357687948 0.2447086298610639 -0.2555948920085795
atom 23.3820741758241795 15.5880494505494482 5.3299450549450569 Zr
    velocity -0.2279264570740254 -0.4360126013787345 -0.0825098593253286
atom 28.5780906593406563 15.5880494505494482 5.3299450549450569 Zr
    velocity 0.1798811181363332 0.5311645822595509 -0.0296038592415293
atom 2.5980082417582411 20.7840659340659357 5.3299450549450569 Zr
    velocity -0.3294715870854912 -0.2280921853625444 -0.1505556965658981
atom 7.7940247252747259 20.7840659340659357 5.3299450549450569 Zr
    velocity 0.5737665955936325 -0.0382172254119494 0.0647919193895790
atom 12.9900412087912063 20.7840659340659357 5.3299450549450569 Zr
    velocity -0.1009376369703654 -0.3712413592059171 -0.2419205208110155
atom 18.1860576923076920 20.7840659340659357 5.3299450549450569 Zr
    velocity -0.1459966881725674 -0.0131006840181110 -0.0240525480081599
atom 23.3820741758241795 20.7840659340659357 5.3299450549450569 Zr
    velocity 0.2587623105846565 -0.3726202898043169 0.3362203610627559
atom 28.5780906593406563 20.7840659340659357 5.3299450549450569 Zr
    velocity -0.2101980451027791 0.4222099302065835 -0.3801734134449746
atom 2.5980082417582411 25.9800824175824125 5.3299450549450569 Zr
    velocity 0.6663781036121164 0.8411876826656922 0.0800652636616550
atom 7.7940247252747259 25.9800824175824125 5.3299450549450569 Zr
    velocity 0.1753671568742374 -0.3554708112065736 0.3136499231023837
atom 12.9900412087912063 25.9800824175824125 5.3299450549450569 Zr
    velocity 0.1671421182974736 -0.1242447953818461 -0.1002095968092621
atom 18.1860576923076920 25.9800824175824125 5.3299450549450569 Zr
    velocity -0.2541363404754275 -0.0359135540117372 0.1577972751046126
atom 23.3820741758241795 25.9800824175824125 5.3299450549450569 Zr
    velocity -0.4698535764901920 0.0326851372357752 -0.3830087688213297
atom 28.5780906593406563 25.9800824175824125 5.3299450549450569 Zr
    velocity 0.1159715223905410 -0.2445593956888423 0.1059758886777790
atom 2.5980082417582411 0.0000000000000000 10.6598901098901138 Zr
    velocity -0.3171906141464332 -0.2841727503403279 -0.6176920341230611
atom 7.7940247252747259 0.0000000000000000 10.6598901098901138 Zr
    velocity 0.2298157842723172 -0.3885733848372047 0.2245452138133122
atom 12.9900412087912063 0.0000000000000000 10.6598901098901138 Zr
    velocity 0.0799024700589391 0.1233141946279764 -0.6366242747028048
atom 18.1860576923076920 0.0000000000000000 10.6598901098901138 Zr
    velocity 0.0537014987011505 -0.2521207796623808 0.1786747216575942
atom 23.3820741758241795 0.0000000000000000 10.6598901098901138 Zr
    velocity 0.4183233555367612 -0.3014238828954416 -0.1960900985780392
atom 28.5780906593406563 0.0000000000000000 10.6598901098901138 Zr
    velocity -0.2820342004628408 0.6160864331603295 -0.2803403124671232
atom 2.5980082417582411 5.1960164835164857 10.6598901098901138 Zr
    velocity -0.4281298035872115 -0.4068256002533547 0.1314435506403774
atom 7.7940247252747259 5.1960164835164857 10.6598901098901138 Zr
    velocity 0.2574768299063891 -0.1522239195890657 0.5609151140988397
atom 12.9900412087912063 5.1960164835164857 10.6598901098901138 Zr
    velocity 0.0432812259151554 -0.4942743059631903 0.0605461145094636
atom 18.1860576923076920 5.1960164835164857 10.6598901098901138 Zr
    velocity -0.2673788523925559 -0.2730458425736426 0.1191081791438339
atom 23.3820741758241795 5.1960164835164857 10.6598901098901138 Zr
    velocity 0.2270470631084429 0.5694037016149125 -0.2436719678543345
atom 28.5780906593406563 5.1960164835164857 10.6598901098901138 Zr
    velocity -0.0809812046039798 0.1281520225701734 0.2420646307902097
atom 2.5980082417582411 10.3920329670329679 10.6598901098901138 Zr
    velocity 0.2891557850590060 -0.1149350486743064 0.6184534537724804
atom 7.7940247252747259 10.3920329670329679 10.6598901098901138 Zr
    velocity 0.4345574965071237 -0.2655209309723600 -0.0459990237684459
atom 12.9900412087912063 10.3920329670329679 10.6598901098901138 Zr
    velocity -0.2727946987550189 0.0834188245887505 -0.3304190293482500
atom 18.1860576923076920 10.3920329670329679 10.6598901098901138 Zr
    velocity -0.1270515579115865 0.3788248406728677 0.6176260658356360
atom 23.3820741758241795 10.3920329670329679 10.6598901098901138 Zr
    velocity -0.3526296446367707 0.0464779993674975 -0.3204230461638137
atom 28.5780906593406563 10.3920329670329679 10.6598901098901138 Zr
    velocity -0.2611001201307878 -0.0918465746473543 -0.0184543008233557
atom 2.5980082417582411 15.5880494505494482 10.6598901098901138 Zr
    velocity -0.4057120306913438 0.1454307138929334 -0.2333446230079073
atom 7.7940247252747259 15.5880494505494482 10.6598901098901138 Zr
    velocity 0.3143159351481651 0.3131719334145846 -0.1319772418398797
atom 12.9900412087912063 15.5880494505494482 10.6598901098901138 Zr
    velocity 0.0707452234708489 0.2821999152684918 -0.4821972416361772
atom 18.1860576923076920 15.5880494505494482 10.6598901098901138 Zr
    velocity 0.4115891782080794 -0.0852453667771330 -0.0980384552412169
atom 23.3820741758241795 15.5880494505494482 10.6598901098901138 Zr
    velocity 0.3926972606504738 0.5255537023013438 -0.2132365793391134
atom 28.5780906593406563 15.5880494505494482 10.6598901098901138 Zr
    velocity -0.1660923537968713 0.1524523824433596 0.0940240922846641
atom 2.5980082417582411 20.7840659340659357 10.6598901098901138 Zr
    velocity 0.3105060448345656 0.0571612681707590 -0.3176179583523492
atom 7.7940247252747259 20.7840659340659357 10.6598901098901138 Zr
    velocity 0.7022306112412734 0.4511229067054810 -0.1523284340778318
atom 12.9900412087912063 20.7840659340659357 10.6598901098901138 Zr
    velocity -0.0253202639494527 -0.0175931182430641 0.2649178084476447
atom 18.1860576923076920 20.7840659340659357 10.6598901098901138 Zr
    velocity 0.0053389840866945 -0.2308773132328760 -0.3709511501238537
atom 23.3820741758241795 20.7840659340659357 10.6598901098901138 Zr
    velocity -0.2002606960529870 -0.0172982005207280 0.2341129796666819
atom 28.5780906593406563 20.7840659340659357 10.6598901098901138 Zr
    velocity 0.2572858009345992 0.2968630399044943 0.2908943035509458
atom 2.5980082417582411 25.9800824175824125 10.6598901098901138 Zr
    velocity -0.1631551540770313 -0.0284837176830667 0.2886202021120048
atom 7.7940247252747259 25.9800824175824125 10.6598901098901138 Zr
    velocity 0.3563139973621084 0.2381933977944571 -0.3460181991075104
atom 12.9900412087912063 25.9800824175824125 10.6598901098901138 Zr
    velocity 0.1614402556445928 -0.2486542712913095 -0.4050055238607885
atom 18.1860576923076920 25.9800824175824125 10.6598901098901138 Zr
    velocity -0.3671394754389395 -0.0483516225216275 -0.2004704091063512
atom 23.3820741758241795 25.9800824175824125 10.6598901098901138 Zr
    velocity 0.4478316591895741 0.2482616268161204 0.2366879344500422
atom 28.5780906593406563 25.9800824175824125 10.6598901098901138 Zr
    velocity -0.3153881466256640 0.1148228282747440 -0.3984311103982028
atom 2.5980082417582411 0.0000000000000000 15.9898351648351653 Zr
    velocity -0.1228894996977592 -0.1165793248060998 0.0233222178791965
atom 7.7940247252747259 0.0000000000000000 15.9898351648351653 Zr
    velocity -0.1402374997847624 0.0868240204230300 -0.2546541930353975
atom 12.9900412087912063 0.0000000000000000 15.9898351648351653 Zr
    velocity 0.0825806120344581 -0.1146765501777692 -0.4771064100904236
atom 18.1860576923076920 0.0000000000000000 15.9898351648351653 Zr
    velocity -0.0026783247777024 0.3789368005340357 0.2651532621986142
atom 23.3820741758241795 0.0000000000000000 15.9898351648351653 Zr
    velocity 0.0754865935448038 -0.2046726830935879 0.1326169840363316
atom 28.5780906593406563 0.0000000000000000 15.9898351648351653 Zr
    velocity -0.2317727232693886 -0.3333380979656512 -0.2525418789734598
atom 2.5980082417582411 5.1960164835164857 15.9898351648351653 Zr
    velocity -0.0827132996866011 -0.1276165259454473 0.0908317459834925
atom 7.7940247252747259 5.1960164835164857 15.9898351648351653 Zr
    velocity 0.0903958277388777 -0.1450035534349006 -0.0225395692121444
atom 12.9900412087912063 5.1960164835164857 15.9898351648351653 Zr
    velocity -0.1645322766423354 -0.5624090161713261 0.0755543192026258
atom 18.1860576923076920 5.1960164835164857 15.9898351648351653 Zr
    velocity 0.3524997147934742 -0.0152519253887655 -0.0339021238614649
atom 23.3820741758241795 5.1960164835164857 15.9898351648351653 Zr
    velocity -0.0667518560640014 0.0461859061588032 0.0132291791061473
atom 28.5780906593406563 5.1960164835164857 15.9898351648351653 Zr
    velocity 0.4785639908751529 0.2069561078500255 -0.1871498101591967
atom 2.5980082417582411 10.3920329670329679 15.9898351648351653 Zr
    velocity -0.2682655323456009 -0.1108291694315169 0.5319164343647657
atom 7.7940247252747259 10.3920329670329679 15.9898351648351653 Zr
    velocity 0.3643401413916370 -0.0470160517672203 -0.2086578406670478
atom 12.9900412087912063 10.3920329670329679 15.9898351648351653 Zr
    velocity 0.4036018282918741 0.2054844037447842 -0.1198978648732572
atom 18.1860576923076920 10.3920329670329679 15.9898351648351653 Zr
    velocity -0.2716468161464585 -0.1930225627738523 0.2492552958939283
atom 23.3820741758241795 10.3920329670329679 15.9898351648351653 Zr
    velocity -0.1050426056156949 -0.2167576786820203 -0.2661802857158717
atom 28.5780906593406563 10.3920329670329679 15.9898351648351653 Zr
    velocity 0.0141794583581763 0.3120085101243534 -0.7094166127699303
atom 2.5980082417582411 15.5880494505494482 15.9898351648351653 Zr
    velocity 0.3267302990735334 -0.3318043955150529 0.1642988636332972
atom 7.7940247252747259 15.5880494505494482 15.9898351648351653 Zr
    velocity -0.2798872406246143 0.2894397834299937 0.5028197634724876
atom 12.9900412087912063 15.5880494505494482 15.9898351648351653 Zr
    velocity 0.3326435451582829 -0.3406445472287032 0.0923093880822655
atom 18.1860576923076920 15.5880494505494482 15.9898351648351653 Zr
    velocity 0.3197419970775427 0.6401882053482166 0.4921443914350557
atom 23.3820741758241795 15.5880494505494482 15.9898351648351653 Zr
    velocity 0.0821123368754681 0.1583117673178757 0.1622420504477334
atom 28.5780906593406563 15.5880494505494482 15.9898351648351653 Zr
    velocity 0.3929049622742388 -0.5563559334573352 0.2052158573781607
atom 2.5980082417582411 20.7840659340659357 15.9898351648351653 Zr
    velocity -0.4934102179097885 -0.0452677768252579 0.3136032997734252
atom 7.7940247252747259 20.7840659340659357 15.9898351648351653 Zr
    velocity -0.4056411825381361 -0.3761798746896142 0.3419872447917534
atom 12.9900412087912063 20.7840659340659357 15.9898351648351653 Zr
    velocity 0.0551077209492366 -0.4225198556609660 -0.0415449396222548
atom 18.1860576923076920 20.7840659340659357 15.9898351648351653 Zr
    velocity 0.0151581116929971 0.1067396081151525 0.2736762988959076
atom 23.3820741758241795 20.7840659340659357 15.9898351648351653 Zr
    velocity 0.2668079103962745 -0.5525741138280891 0.6850819907838038
atom 28.5780906593406563 20.7840659340659357 15.9898351648351653 Zr
    velocity -0.1265638373797333 -0.0137629424745794 0.5836212525254094
atom 2.5980082417582411 25.9800824175824125 15.9898351648351653 Zr
    velocity -0.7376412390672973 0.0709512091802320 0.0113060564333780
atom 7.7940247252747259 25.9800824175824125 15.9898351648351653 Zr
    velocity -0.0900938260571428 -0.1898154486045159 -0.0773208804331372
atom 12.9900412087912063 25.9800824175824125 15.9898351648351653 Zr
    velocity 0.1070775527210766 0.1031309564930229 0.0746697991877251
atom 18.1860576923076920 25.9800824175824125 15.9898351648351653 Zr
    velocity -0.0036555563898389 -0.5265256785045628 -0.2270184055263722
atom 23.3820741758241795 25.9800824175824125 15.9898351648351653 Zr
    velocity 0.0153318091214999 0.0559838920113553 0.3115305128931777
atom 28.5780906593406563 25.9800824175824125 15.9898351648351653 Zr
    velocity 0.0301765470124944 0.2783241109513393 0.3673550064192989
atom 2.5980082417582411 0.0000000000000000 21.3197802197802240 Zr
    velocity 0.3007376930780532 0.0448311710072017 -0.1265895109016564
atom 7.7940247252747259 0.0000000000000000 21.3197802197802240 Zr
    velocity 0.3670987969050610 -0.0841016979886858 -0.0988938760793994
atom 12.9900412087912063 0.0000000000000000 21.3197802197802240 Zr
    velocity -0.0047716736645729 -0.0475803910730439 0.2830615134518016
atom 18.1860576923076920 0.0000000000000000 21.3197802197802240 Zr
    velocity -0.1571239735502813 0.0266082312269960 -0.3087339530374263
atom 23.3820741758241795 0.0000000000000000 21.3197802197802240 Zr
    velocity -0.6655303485253572 0.6800598074517189 -0.5137641529165032
atom 28.5780906593406563 0.0000000000000000 21.3197802197802240 Zr
    velocity -0.6916391801801467 -0.1463577828047327 0.2895724643174032
atom 2.5980082417582411 5.1960164835164857 21.3197802197802240 Zr
    velocity 0.6541047872960035 -0.7588273752549882 -0.2859348655808859
atom 7.7940247252747259 5.1960164835164857 21.3197802197802240 Zr
    velocity -0.4069658130823137 0.2535060772472498 0.1535323112772412
atom 12.9900412087912063 5.1960164835164857 21.3197802197802240 Zr
    velocity -0.3429097832490849 0.2847295230032344 0.6426808170240620
atom 18.1860576923076920 5.1960164835164857 21.3197802197802240 Zr
    velocity -0.2092302239595664 -0.1446677551243537 0.0512657770714458
atom 23.3820741758241795 5.1960164835164857 21.3197802197802240 Zr
    velocity -0.4158992880760969 0.2453363636140524 -0.5240668980352438
atom 28.5780906593406563 5.1960164835164857 21.3197802197802240 Zr
    velocity -0.0276801316002395 -0.1557670176092827 -0.3406626504104486
atom 2.5980082417582411 10.3920329670329679 21.3197802197802240 Zr
    velocity -0.0484406427061115 0.2899451652401003 0.3301586202940084
atom 7.7940247252747259 10.3920329670329679 21.3197802197802240 Zr
    velocity 0.1386697432581318 -0.0691485876490336 0.1442417833090128
atom 12.9900412087912063 10.3920329670329679 21.3197802197802240 Zr
    velocity 0.2567995329689198 0.0394670921792845 0.0448831821807369
atom 18.1860576923076920 10.3920329670329679 21.3197802197802240 Zr
    velocity -0.0090380647711790 -0.1438028556978634 0.0739837368638253
atom 23.3820741758241795 10.3920329670329679 21.3197802197802240 Zr
    velocity 0.2482865164689069 -0.1206615362220586 -0.3242732232794702
atom 28.5780906593406563 10.3920329670329679 21.3197802197802240 Zr
    velocity 0.1828166678554494 -0.8192249993985904 0.4418870936870909
atom 2.5980082417582411 15.5880494505494482 21.3197802197802240 Zr
    velocity 0.5778252275420821 0.2767146098703590 -0.0020372335772228
atom 7.7940247252747259 15.5880494505494482 21.3197802197802240 Zr
    velocity -0.1382731137598987 -0.1677985765745178 -0.0555502275397067
atom 12.9900412087912063 15.5880494505494482 21.3197802197802240 Zr
    velocity -0.4264766517082947 -0.0778681613952041 0.0438741423700404
atom 18.1860576923076920 15.5880494505494482 21.3197802197802240 Zr
    velocity -0.3085759609428691 -0.0154328443651536 -0.3058987058290228
atom 23.3820741758241795 15.5880494505494482 21.3197802197802240 Zr
    velocity 0.0679873101670297 -0.3707924751018327 -0.0886155086577073
atom 28.5780906593406563 15.5880494505494482 21.3197802197802240 Zr
    velocity 0.3434121372051511 0.1883404644351277 0.6254569415827009
atom 2.5980082417582411 20.7840659340659357 21.3197802197802240 Zr
    velocity 0.2090069092915805 0.3332192929162131 0.5287244782902560
atom 7.7940247252747259 20.7840659340659357 21.3197802197802240 Zr
    velocity -0.3485988084011311 0.0922403217045585 0.2232974355640766
atom 12.9900412087912063 20.7840659340659357 21.3197802197802240 Zr
    velocity 0.0912376639688626 0.1169126144547380 0.2838135973077254
atom 18.1860576923076920 20.7840659340659357 21.3197802197802240 Zr
    velocity -0.3470053960886504 -0.0282995238543878 0.2657796417688332
atom 23.3820741758241795 20.7840659340659357 21.3197802197802240 Zr
    velocity -0.3028464158994609 -0.5932570520674361 0.1139098299974960
atom 28.5780906593406563 20.7840659340659357 21.3197802197802240 Zr
    velocity -0.4724563561458027 -0.1007763131154546 0.0966451624200026
atom 2.5980082417582411 25.9800824175824125 21.3197802197802240 Zr
    velocity -0.1975310718877928 -0.5428965991630883 -0.3763231607279087
atom 7.7940247252747259 25.9800824175824125 21.3197802197802240 Zr
    velocity 0.2250434890631771 -0.0688338200843065 0.2338385466620801
atom 12.9900412087912063 25.9800824175824125 21.3197802197802240 Zr
    velocity -0.7608895636573640 -0.1726794151791810 -0.5996066717703095
atom 18.1860576923076920 25.9800824175824125 21.3197802197802240 Zr
    velocity -0.0356180349258769 -0.3398436018189330 -0.5823493480003697
atom 23.3820741758241795 25.9800824175824125 21.3197802197802240 Zr
    velocity 0.3172297578129317 0.3390962957856891 -0.1847657263973802
atom 28.5780906593406563 25.9800824175824125 21.3197802197802240 Zr
    velocity 0.0136771574657516 0.0399808574914520 0.4836479564750691
atom 2.5980082417582411 0.0000000000000000 26.6497252747252737 Zr
    velocity 0.3499077564773145 0.5630429221154006 0.3671390642278624
atom 7.7940247252747259 0.0000000000000000 26.6497252747252737 Zr
    velocity 0.2151021379746287 -0.0861109467185716 -0.0442068958542083
atom 12.9900412087912063 0.0000000000000000 26.6497252747252737 Zr
    velocity -0.6332591636544429 -0.0985110315093728 0.5588346975497199
atom 18.1860576923076920 0.0000000000000000 26.6497252747252737 Zr
    velocity -0.5038249571063309 0.1425761128035558 -0.1662046743902192
atom 23.3820741758241795 0.0000000000000000 26.6497252747252737 Zr
    velocity -0.2562838478165624 -0.0695444789589467 0.0821579547435120
atom 28.5780906593406563 0.0000000000000000 26.6497252747252737 Zr
    velocity 0.2177467445288899 0.2585647613389269 0.2489294275438127
atom 2.5980082417582411 5.1960164835164857 26.6497252747252737 Zr
    velocity -0.3698116390546645 0.4270754180787095 0.2078703371544313
atom 7.7940247252747259 5.1960164835164857 26.6497252747252737 Zr
    velocity -0.5513004565260277 0.0734550879417181 -0.0771566384263090
atom 12.9900412087912063 5.1960164835164857 26.6497252747252737 Zr
    velocity 0.2770849392433293 0.0848268824178557 -0.1455848752081861
atom 18.1860576923076920 5.1960164835164857 26.6497252747252737 Zr
    velocity -0.1823032375128454 0.1681020165085805 -0.0733585434890400
atom 23.3820741758241795 5.1960164835164857 26.6497252747252737 Zr
    velocity -0.0974908265248524 0.4483185465921903 -0.4637359144561299
atom 28.5780906593406563 5.1960164835164857 26.6497252747252737 Zr
    velocity -0.0645290968096908 -0.3653681803094456 0.2810251641014308
atom 2.5980082417582411 10.3920329670329679 26.6497252747252737 Zr
    velocity -0.4641623235583022 0.0059684040776249 0.1343193439426284
atom 7.7940247252747259 10.3920329670329679 26.6497252747252737 Zr
    velocity 0.2125596344123263 0.8079341840771792 0.3933301223500446
atom 12.9900412087912063 10.3920329670329679 26.6497252747252737 Zr
    velocity 0.1583922987806893 -0.2106013467526672 0.4109771824413624
atom 18.1860576923076920 10.3920329670329679 26.6497252747252737 Zr
    velocity -0.2140533547433356 -0.1815003301933803 0.2551675869783002
atom 23.3820741758241795 10.3920329670329679 26.6497252747252737 Zr
    velocity -0.3462792245924899 -0.3316805452785113 0.1078554144244911
atom 28.5780906593406563 10.3920329670329679 26.6497252747252737 Zr
    velocity -0.3346207822988114 -0.3139983670956668 -0.2598635359894818
atom 2.5980082417582411 15.5880494505494482 26.6497252747252737 Zr
    velocity -0.0481725896221013 0.2760895473292315 -0.3670086717908109
atom 7.7940247252747259 15.5880494505494482 26.6497252747252737 Zr
    velocity 0.0620135609741067 -0.1288027065996477 0.0068104184105796
atom 12.9900412087912063 15.5880494505494482 26.6497252747252737 Zr
    velocity -0.1641565697445422 0.2570786732449420 -0.0719937741269650
atom 18.1860576923076920 15.5880494505494482 26.6497252747252737 Zr
    velocity -0.1513242792271242 -0.4675098840156771 -0.2801460162250543
atom 23.3820741758241795 15.5880494505494482 26.6497252747252737 Zr
    velocity 0.1260758632949283 -0.0551777819815373 -0.1277955994401776
atom 28.5780906593406563 15.5880494505494482 26.6497252747252737 Zr
    velocity -0.3342729064966972 -0.6189157879627412 -0.0736341488650812
atom 2.5980082417582411 20.7840659340659357 26.6497252747252737 Zr
    velocity 0.5764037229083409 -0.4380526957201384 -0.0814327322083721
atom 7.7940247252747259 20.7840659340659357 26.6497252747252737 Zr
    velocity -0.0863911974245175 0.3827441006001575 0.2498337329823089
atom 12.9900412087912063 20.7840659340659357 26.6497252747252737 Zr
    velocity 0.6412746184838272 0.6221452114397165 -0.1799470416185154
atom 18.1860576923076920 20.7840659340659357 26.6497252747252737 Zr
    velocity -0.2858911940041668 0.2356592225212405 -0.0700174761418771
atom 23.3820741758241795 20.7840659340659357 26.6497252747252737 Zr
    velocity -0.1755984850968673 0.0221629019403771 -0.1066312878894758
atom 28.5780906593406563 20.7840659340659357 26.6497252747252737 Zr
    velocity 0.2470066556645975 0.3057729509416836 -0.6989591977075412
atom 2.5980082417582411 25.9800824175824125 26.6497252747252737 Zr
    velocity 0.1539996690641437 0.1978470511131541 -0.0343475494223382