#=======================================================
# FHI-aims file: 2100_geometry.in.primitive.supercell_1500.0010K
# Created using the Atomic Simulation Environment (ASE)
# Thu Jan  5 12:12:40 2023

# Additional information:
#  created from MB distrubtion
#  T = 10.0 K
#  quantum:             False
#  deterministic:       False
#  plus_minus:          False
#  gauge_eigenvectors:  False
#  Random seed:         1997021219
#  Sample number:       1
#=======================================================
lattice_vector 25.9800824175824197 0.0000000000000000 0.0000000000000000 
lattice_vector 0.0000000000000000 25.9800824175824197 0.0000000000000000 
lattice_vector 0.0000000000000000 0.0000000000000000 26.6497252747252773 
atom 2.5980082417582420 0.0000000000000000 0.0000000000000000 Zr
    velocity -0.3093123173843237 -0.5122818672707038 -0.4436962781839470
atom 7.7940247252747259 0.0000000000000000 0.0000000000000000 Zr
    velocity 0.0283093348723695 0.2327927102938287 -0.4205890754473730
atom 12.9900412087912098 0.0000000000000000 0.0000000000000000 Zr
    velocity -0.3755541556582908 -0.3138267844654348 0.1614561551765999
atom 18.1860576923076955 0.0000000000000000 0.0000000000000000 Zr
    velocity -0.6886735692759814 -0.4017056782208074 0.0773118537628856
atom 23.3820741758241795 0.0000000000000000 0.0000000000000000 Zr
    velocity 0.2556428850198165 -0.2302348659829114 0.0338888844767470
atom 2.5980082417582420 5.1960164835164839 0.0000000000000000 Zr
    velocity -0.0860232243663526 0.3975505476914184 -0.0383164419798633
atom 7.7940247252747259 5.1960164835164839 0.0000000000000000 Zr
    velocity 0.3415761149416628 0.0400121090870853 -0.6976103956610236
atom 12.9900412087912098 5.1960164835164839 0.0000000000000000 Zr
    velocity 0.1569160844141918 0.1862482199732431 -0.6347355517075236
atom 18.1860576923076955 5.1960164835164839 0.0000000000000000 Zr
    velocity 0.3609314512070303 0.4547154739643764 0.3905998503116998
atom 23.3820741758241795 5.1960164835164839 0.0000000000000000 Zr
    velocity 0.5681547617345933 -0.3768792139716611 0.0915833787906639
atom 2.5980082417582420 10.3920329670329679 0.0000000000000000 Zr
    velocity 0.0078484638381833 -0.1015650723582866 -0.2192403700755617
atom 7.7940247252747259 10.3920329670329679 0.0000000000000000 Zr
    velocity 0.2619793888593175 -0.2042991217658861 -0.0655544190541695
atom 12.9900412087912098 10.3920329670329679 0.0000000000000000 Zr
    velocity 0.1793783977726476 -0.1107557396385871 -0.0273283352253579
atom 18.1860576923076955 10.3920329670329679 0.0000000000000000 Zr
    velocity 0.0078191826244709 0.5730245507175674 0.5275509550071417
atom 23.3820741758241795 10.3920329670329679 0.0000000000000000 Zr
    velocity 0.2993475805053878 -0.5241864943047563 -0.0773187337624632
atom 2.5980082417582420 15.5880494505494536 0.0000000000000000 Zr
    velocity 0.2283725790954434 -0.3668080884095101 -0.1967189021793158
atom 7.7940247252747259 15.5880494505494536 0.0000000000000000 Zr
    velocity 0.2043512091695231 0.1447243803465229 0.0074721531185561
atom 12.9900412087912098 15.5880494505494536 0.0000000000000000 Zr
    velocity -0.1658209535336933 0.2170296826167425 0.2284284344623375
atom 18.1860576923076955 15.5880494505494536 0.0000000000000000 Zr
    velocity 0.1178494743578218 -0.1638601580809507 0.4898916195193312
atom 23.3820741758241795 15.5880494505494536 0.0000000000000000 Zr
    velocity -0.1925911648681057 0.0932407483995556 0.2002973470513306
atom 2.5980082417582420 20.7840659340659357 0.0000000000000000 Zr
    velocity -0.1349852613522256 0.1088672946333648 0.0399062527324216
atom 7.7940247252747259 20.7840659340659357 0.0000000000000000 Zr
    velocity -0.1677813545962514 0.0248285340056286 0.2159047967889791
atom 12.9900412087912098 20.7840659340659357 0.0000000000000000 Zr
    velocity 0.0675813255841130 0.2021713725944910 -0.5735686301340248
atom 18.1860576923076955 20.7840659340659357 0.0000000000000000 Zr
    velocity 0.1641480516934677 0.3302109672369596 -0.2456043478128781
atom 23.3820741758241795 20.7840659340659357 0.0000000000000000 Zr
    velocity -0.4467865720443325 0.0298240264101643 -0.1796630231872782
atom 2.5980082417582420 0.0000000000000000 5.3299450549450560 Zr
    velocity 0.0090195506888148 0.0404236421565015 -0.1291121717315220
atom 7.7940247252747259 0.0000000000000000 5.3299450549450560 Zr
    velocity -0.3618821491290868 0.0659313728050760 -0.2924909631107444
atom 12.9900412087912098 0.0000000000000000 5.3299450549450560 Zr
    velocity -0.1656190620895234 0.5779128438658202 0.3015427303039861
atom 18.1860576923076955 0.0000000000000000 5.3299450549450560 Zr
    velocity 0.0282994790106519 -0.1011944114231852 0.5652109338644522
atom 23.3820741758241795 0.0000000000000000 5.3299450549450560 Zr
    velocity 0.3946618801943588 0.4207655197532100 -0.1048265736673688
atom 2.5980082417582420 5.1960164835164839 5.3299450549450560 Zr
    velocity -0.0333939619351184 0.1513355002806810 -0.3918093430250721
atom 7.7940247252747259 5.1960164835164839 5.3299450549450560 Zr
    velocity -0.2573926261333838 0.0452791824610978 -0.0252106298996225
atom 12.9900412087912098 5.1960164835164839 5.3299450549450560 Zr
    velocity 0.0200629772872536 -0.0913726186626108 0.2468155581268806
atom 18.1860576923076955 5.1960164835164839 5.3299450549450560 Zr
    velocity -0.2569908936542012 0.0807961123725558 0.2192000191211670
atom 23.3820741758241795 5.1960164835164839 5.3299450549450560 Zr
    velocity -0.0529215377342913 -0.2775375578690584 -0.1290680549091557
atom 2.5980082417582420 10.3920329670329679 5.3299450549450560 Zr
    velocity -0.4217338929094997 0.4870778489299909 -0.3286971379065886
atom 7.7940247252747259 10.3920329670329679 5.3299450549450560 Zr
    velocity 0.1793737115880538 -0.0421018290600066 -0.5514235732077983
atom 12.9900412087912098 10.3920329670329679 5.3299450549450560 Zr
    velocity 0.1809619063543004 0.5249603219943966 -0.2270193044260093
atom 18.1860576923076955 10.3920329670329679 5.3299450549450560 Zr
    velocity -0.3669547442662826 0.3365877475187345 -0.0360083529855359
atom 23.3820741758241795 10.3920329670329679 5.3299450549450560 Zr
    velocity 0.3157537970768411 0.1150958775889088 -0.4911135563234080
atom 2.5980082417582420 15.5880494505494536 5.3299450549450560 Zr
    velocity 0.0845346925763368 0.3413536205759256 0.3908200157475431
atom 7.7940247252747259 15.5880494505494536 5.3299450549450560 Zr
    velocity 0.1966586070905465 0.1808823724756541 -0.3554470997314229
atom 12.9900412087912098 15.5880494505494536 5.3299450549450560 Zr
    velocity -0.1514949435371832 -0.2832827432175988 0.1984866687374978
atom 18.1860576923076955 15.5880494505494536 5.3299450549450560 Zr
    velocity -0.3559845608257306 -0.2854168338729949 0.0851524877529690
atom 23.3820741758241795 15.5880494505494536 5.3299450549450560 Zr
    velocity 0.0416002775509521 0.1695185149787796 0.3208826108621838
atom 2.5980082417582420 20.7840659340659357 5.3299450549450560 Zr
    velocity -0.4018128220686892 0.4792051052510355 -0.0463599458638127
atom 7.7940247252747259 20.7840659340659357 5.3299450549450560 Zr
    velocity -0.2162971168935583 0.1185697886730749 0.1519296179038505
atom 12.9900412087912098 20.7840659340659357 5.3299450549450560 Zr
    velocity 0.1378560867101403 -0.4331030831501153 -0.0904943266285918
atom 18.1860576923076955 20.7840659340659357 5.3299450549450560 Zr
    velocity 0.0805636802108847 0.5600410984955693 0.5432095301009907
atom 23.3820741758241795 20.7840659340659357 5.3299450549450560 Zr
    velocity -0.1211658672969169 -0.4370419225677339 0.0598815062151277
atom 2.5980082417582420 0.0000000000000000 10.6598901098901138 Zr
    velocity -0.4652765987277327 0.0956760344930939 -0.3030205191475490
atom 7.7940247252747259 0.0000000000000000 10.6598901098901138 Zr
    velocity -0.0168938768834182 -0.0295861050407793 0.1614262904653659
atom 12.9900412087912098 0.0000000000000000 10.6598901098901138 Zr
    velocity -0.4119023809559164 -0.6902574628166083 -0.3453145723562418
atom 18.1860576923076955 0.0000000000000000 10.6598901098901138 Zr
    velocity -0.0999404761369231 -0.1907120586962899 0.1518358890460049
atom 23.3820741758241795 0.0000000000000000 10.6598901098901138 Zr
    velocity 0.3628386918998140 0.1301021188787359 -0.0801222080202108
atom 2.5980082417582420 5.1960164835164839 10.6598901098901138 Zr
    velocity 0.5371372568327395 0.4016661744421345 0.0790571271826652
atom 7.7940247252747259 5.1960164835164839 10.6598901098901138 Zr
    velocity -0.0483577121590959 -0.0277626564676012 -0.2781627014275999
atom 12.9900412087912098 5.1960164835164839 10.6598901098901138 Zr
    velocity 0.0165950878775916 0.1649398236954113 0.2404557152521584
atom 18.1860576923076955 5.1960164835164839 10.6598901098901138 Zr
    velocity 0.2512905654550842 -0.2808837201458503 -0.0775575376500563
atom 23.3820741758241795 5.1960164835164839 10.6598901098901138 Zr
    velocity -0.4628146234765323 0.1369051453803190 0.0864233899864913
atom 2.5980082417582420 10.3920329670329679 10.6598901098901138 Zr
    velocity 0.0731203825405878 -0.4565499844959958 0.0057098485008560
atom 7.7940247252747259 10.3920329670329679 10.6598901098901138 Zr
    velocity 0.2422792995761309 -0.1121098062419467 -0.0840162057570693
atom 12.9900412087912098 10.3920329670329679 10.6598901098901138 Zr
    velocity -0.3374715339279231 0.1640233847361074 -0.2479966134289871
atom 18.1860576923076955 10.3920329670329679 10.6598901098901138 Zr
    velocity 0.2203904789839329 -0.2408718552747145 0.3248583165245274
atom 23.3820741758241795 10.3920329670329679 10.6598901098901138 Zr
    velocity -0.2069010488088512 0.4239940968698739 0.0836868788816239
atom 2.5980082417582420 15.5880494505494536 10.6598901098901138 Zr
    velocity -0.0142748927980169 -0.3268934553965788 -0.2284549279143797
atom 7.7940247252747259 15.5880494505494536 10.6598901098901138 Zr
    velocity 0.3206446221375402 -0.3013797109248272 0.0483072382489665
atom 12.9900412087912098 15.5880494505494536 10.6598901098901138 Zr
    velocity -0.2857930518271984 0.0853818150882172 -0.2833744312173618
atom 18.1860576923076955 15.5880494505494536 10.6598901098901138 Zr
    velocity 0.4385388791938856 -0.1179409168057040 0.0165188722209328
atom 23.3820741758241795 15.5880494505494536 10.6598901098901138 Zr
    velocity -0.1176525762113644 -0.1334102117456775 -0.1353683685922877
atom 2.5980082417582420 20.7840659340659357 10.6598901098901138 Zr
    velocity 0.1646674767185113 0.2732105616418525 -0.2109241805028531
atom 7.7940247252747259 20.7840659340659357 10.6598901098901138 Zr
    velocity 0.1959674660964113 0.0563386398793107 -0.1886800095878459
atom 12.9900412087912098 20.7840659340659357 10.6598901098901138 Zr
    velocity -0.0715480800133562 0.6263585080571668 -0.1953100398315576
atom 18.1860576923076955 20.7840659340659357 10.6598901098901138 Zr
    velocity 0.0354505732815455 -0.0015794802227723 -0.3216231219425643
atom 23.3820741758241795 20.7840659340659357 10.6598901098901138 Zr
    velocity -0.3714450164100428 0.3147935214916771 -0.0130390241042670
atom 2.5980082417582420 0.0000000000000000 15.9898351648351689 Zr
    velocity -0.0774177134788483 0.2664610145897746 0.2086720795164771
atom 7.7940247252747259 0.0000000000000000 15.9898351648351689 Zr
    velocity -0.5141134888859556 0.1747521320390655 0.1654367629124794
atom 12.9900412087912098 0.0000000000000000 15.9898351648351689 Zr
    velocity 0.2835972664708084 0.1279526449789138 0.1135371549210452
atom 18.1860576923076955 0.0000000000000000 15.9898351648351689 Zr
    velocity -0.3762522728494977 -0.1514562895975746 0.1609997737759123
atom 23.3820741758241795 0.0000000000000000 15.9898351648351689 Zr
    velocity 0.3656535855110117 0.1770370765565936 0.0266562843657276
atom 2.5980082417582420 5.1960164835164839 15.9898351648351689 Zr
    velocity -0.0902047102628806 -0.0427949234142643 0.1931129514100129
atom 7.7940247252747259 5.1960164835164839 15.9898351648351689 Zr
    velocity 0.4830870665664445 0.3089020686500681 -0.1025334350844763
atom 12.9900412087912098 5.1960164835164839 15.9898351648351689 Zr
    velocity -0.0349726652322681 -0.5572383477658074 -0.6106814831436328
atom 18.1860576923076955 5.1960164835164839 15.9898351648351689 Zr
    velocity 0.1916438067192099 -0.2660092795374004 0.2510960292899859
atom 23.3820741758241795 5.1960164835164839 15.9898351648351689 Zr
    velocity 0.5507163516306877 -0.1775743841915841 -0.0837998639934867
atom 2.5980082417582420 10.3920329670329679 15.9898351648351689 Zr
    velocity 0.0993650110654262 -0.1196038927820300 0.1591079077337533
atom 7.7940247252747259 10.3920329670329679 15.9898351648351689 Zr
    velocity -0.3220120833306243 0.7230361835945999 -0.2942265144562879
atom 12.9900412087912098 10.3920329670329679 15.9898351648351689 Zr
    velocity 0.6077567453284743 -0.3537342926028631 -0.1400429241540632
atom 18.1860576923076955 10.3920329670329679 15.9898351648351689 Zr
    velocity -0.3897458883017328 0.0318035756851158 0.1294546475493353
atom 23.3820741758241795 10.3920329670329679 15.9898351648351689 Zr
    velocity -0.0286754997347579 -0.5045514786186682 -0.1571932600245826
atom 2.5980082417582420 15.5880494505494536 15.9898351648351689 Zr
    velocity -0.1558360978610307 -0.7077202848270390 0.3310467459760968
atom 7.7940247252747259 15.5880494505494536 15.9898351648351689 Zr
    velocity -0.3117020409864826 -0.3767536835840076 0.1552660968825092
atom 12.9900412087912098 15.5880494505494536 15.9898351648351689 Zr
    velocity 0.2541052606144155 0.1472890765608859 0.1855301784181176
atom 18.1860576923076955 15.5880494505494536 15.9898351648351689 Zr
    velocity 0.0988001239594601 -0.0643181037050381 -0.2437599074070627
atom 23.3820741758241795 15.5880494505494536 15.9898351648351689 Zr
    velocity 0.1773166200776379 0.1819156389814513 -0.2634774652905315
atom 2.5980082417582420 20.7840659340659357 15.9898351648351689 Zr
    velocity -0.1856674455857269 -0.0133145495056003 -0.0123122453756930
atom 7.7940247252747259 20.7840659340659357 15.9898351648351689 Zr
    velocity 0.2233142322835766 -0.1870530669500860 0.4885211065932632
atom 12.9900412087912098 20.7840659340659357 15.9898351648351689 Zr
    velocity -0.0446711439075406 0.5550334836097489 0.2559902100938602
atom 18.1860576923076955 20.7840659340659357 15.9898351648351689 Zr
    velocity -0.0061819603564161 -0.0308539064447986 -0.3540488507341206
atom 23.3820741758241795 20.7840659340659357 15.9898351648351689 Zr
    velocity 0.2901852895987061 -0.4419795508310614 -0.5065056274057090
atom 2.5980082417582420 0.0000000000000000 21.3197802197802275 Zr
    velocity 0.2428993548389524 -0.2919124667047737 0.4376735870752896
atom 7.7940247252747259 0.0000000000000000 21.3197802197802275 Zr
    velocity 0.0776089993287141 -0.1481460776559219 0.3457814093569394
atom 12.9900412087912098 0.0000000000000000 21.3197802197802275 Zr
    velocity -0.3098794653724413 0.2705656079168999 -0.7888953766560189
atom 18.1860576923076955 0.0000000000000000 21.3197802197802275 Zr
    velocity -0.7378996619733101 0.1781619463019601 -0.2135463793902897
atom 23.3820741758241795 0.0000000000000000 21.3197802197802275 Zr
    velocity -0.3538738740025423 0.0628272923649472 0.2818381678091786
atom 2.5980082417582420 5.1960164835164839 21.3197802197802275 Zr
    velocity -0.2715079892134001 0.2077078587620680 0.1171963864545904
atom 7.7940247252747259 5.1960164835164839 21.3197802197802275 Zr
    velocity 0.2616973986712328 -0.0104665814266481 0.2744797050481524
atom 12.9900412087912098 5.1960164835164839 21.3197802197802275 Zr
    velocity -0.1904353793325031 -0.1971478966048808 0.0532310756641012
atom 18.1860576923076955 5.1960164835164839 21.3197802197802275 Zr
    velocity 0.3618482008587515 0.4718390720074422 0.2812132087416762
atom 23.3820741758241795 5.1960164835164839 21.3197802197802275 Zr
    velocity -0.2186084384039601 0.3853493959954759 0.1367295171439935
atom 2.5980082417582420 10.3920329670329679 21.3197802197802275 Zr
    velocity -0.1184555348920227 0.0504673946494483 -0.0804528533076449
atom 7.7940247252747259 10.3920329670329679 21.3197802197802275 Zr
    velocity 0.5570034769159108 0.2325272416419951 0.4710644520643644
atom 12.9900412087912098 10.3920329670329679 21.3197802197802275 Zr
    velocity -0.5778483125325455 -0.4920538656079028 -0.1598131382492979
atom 18.1860576923076955 10.3920329670329679 21.3197802197802275 Zr
    velocity 0.1005662041174323 -0.3464128284154347 0.1436983782870437
atom 23.3820741758241795 10.3920329670329679 21.3197802197802275 Zr
    velocity 0.2125994223628857 0.0760771777137912 0.0855110708106056
atom 2.5980082417582420 15.5880494505494536 21.3197802197802275 Zr
    velocity -0.0912995237637785 -0.3606461798574398 -0.0853167508823967
atom 7.7940247252747259 15.5880494505494536 21.3197802197802275 Zr
    velocity -0.1614688578673456 0.2363223892140279 0.1455273912479796
atom 12.9900412087912098 15.5880494505494536 21.3197802197802275 Zr
    velocity -0.2257971411676480 0.1436750992733109 -0.1609884677782530
atom 18.1860576923076955 15.5880494505494536 21.3197802197802275 Zr
    velocity 0.2829962161446389 0.0562977215222881 -0.0031042218198091
atom 23.3820741758241795 15.5880494505494536 21.3197802197802275 Zr
    velocity -0.1932217712234020 -0.0147355495812638 0.2840980109360868
atom 2.5980082417582420 20.7840659340659357 21.3197802197802275 Zr
    velocity 0.1466568939726091 0.1047190560957854 0.0190530402182442
atom 7.7940247252747259 20.7840659340659357 21.3197802197802275 Zr
    velocity 0.0418434396943121 0.1762463942006519 0.3042229667610239
atom 12.9900412087912098 20.7840659340659357 21.3197802197802275 Zr
    velocity -0.4705224354329214 -0.2594144915047688 0.0103370654539011
atom 18.1860576923076955 20.7840659340659357 21.3197802197802275 Zr
    velocity 0.7026898102375699 -0.0250675071865883 -0.0425921733822208
atom 23.3820741758241795 20.7840659340659357 21.3197802197802275 Zr
    velocity 0.5694399472752433 0.0472679576715813 0.1135484829193519
atom 0.0000000000000000 2.5980082417582420 0.0000000000000000 Zr
    velocity 0.0534262869906882 -0.5628771818637927 0.1765630837161594
atom 5.1960164835164839 2.5980082417582420 0.0000000000000000 Zr
    velocity -0.3562974608768401 -0.0013820125492713 -0.0314280201307340
atom 10.3920329670329679 2.5980082417582420 0.0000000000000000 Zr
    velocity -0.2438465242757656 0.0464580137549743 -0.1442786602187590
atom 15.5880494505494536 2.5980082417582420 0.0000000000000000 Zr
    velocity 0.0433761053973677 0.0404322788316246 -0.4037059568940380
atom 20.7840659340659357 2.5980082417582420 0.0000000000000000 Zr
    velocity 0.2500959887987448 -0.1928333224418643 -0.0631121911558098
atom 0.0000000000000000 7.7940247252747259 0.0000000000000000 Zr
    velocity 0.0747582513010885 -0.2471447901325192 0.3280943084802205
atom 5.1960164835164839 7.7940247252747259 0.0000000000000000 Zr
    velocity -0.0032590798479246 -0.0839538492281866 0.3537529421020014
atom 10.3920329670329679 7.7940247252747259 0.0000000000000000 Zr
    velocity -0.0934590657365957 -0.2650261475681490 0.0271612563220601
atom 15.5880494505494536 7.7940247252747259 0.0000000000000000 Zr
    velocity -0.5144042811442949 -0.0786051710704080 -0.4018717310874507
atom 20.7840659340659357 7.7940247252747259 0.0000000000000000 Zr
    velocity 0.1684429565539769 0.2409996941502061 0.1424021513981598
atom 0.0000000000000000 12.9900412087912098 0.0000000000000000 Zr
    velocity 0.2218354486944184 -0.2451883819100073 0.1934787378712489
atom 5.1960164835164839 12.9900412087912098 0.0000000000000000 Zr
    velocity 0.1242986933989856 0.3557202455201324 -0.1937331505670155
atom 10.3920329670329679 12.9900412087912098 0.0000000000000000 Zr
    velocity 0.0052645603836027 -0.3663864240490006 0.1693996502661244
atom 15.5880494505494536 12.9900412087912098 0.0000000000000000 Zr
    velocity 0.0415457501039285 0.3730828378407228 0.1749647585580872
atom 20.7840659340659357 12.9900412087912098 0.0000000000000000 Zr
    velocity -0.3467077473330151 0.2824934140508354 -0.0409918210621434
atom 0.0000000000000000 18.1860576923076955 0.0000000000000000 Zr
    velocity 0.3299888408112334 0.3353296930252890 -0.2592015286694642
atom 5.1960164835164839 18.1860576923076955 0.0000000000000000 Zr
    velocity 0.1273807540206036 -0.0768613622978379 0.0999110457221846
atom 10.3920329670329679 18.1860576923076955 0.0000000000000000 Zr
    velocity 0.2619014502213666 0.2091717243090503 0.1437938563272867
atom 15.5880494505494536 18.1860576923076955 0.0000000000000000 Zr
    velocity 0.1482496253681308 0.5485396710196256 0.0034983278118183
atom 20.7840659340659357 18.1860576923076955 0.0000000000000000 Zr
    velocity -0.2942919579720675 -0.2567303444040652 0.0659989798396294
atom 0.0000000000000000 23.3820741758241795 0.0000000000000000 Zr
    velocity 0.1608403159765114 0.1862099305697127 0.0398779332599414
atom 5.1960164835164839 23.3820741758241795 0.0000000000000000 Zr
    velocity 0.2447491670495070 -0.2795605169555051 -0.1193962344096114
atom 10.3920329670329679 23.3820741758241795 0.0000000000000000 Zr
    velocity 0.3920679514621989 0.4541583645317795 -0.0367829346118183
atom 15.5880494505494536 23.3820741758241795 0.0000000000000000 Zr
    velocity -0.5376704122205948 -0.2989451647098190 -0.2689651431896214
atom 20.7840659340659357 23.3820741758241795 0.0000000000000000 Zr
    velocity 0.3536189390282610 -0.1224807986223887 -0.0391016567986483
atom 0.0000000000000000 2.5980082417582420 5.3299450549450560 Zr
    velocity 0.2261378112035277 -0.0543185744952730 0.0999203945500105
atom 5.1960164835164839 2.5980082417582420 5.3299450549450560 Zr
    velocity 0.0291751360179285 -0.2935447774626218 0.2432067563001076
atom 10.3920329670329679 2.5980082417582420 5.3299450549450560 Zr
    velocity 0.4438372623352734 0.0686251216139347 -0.1866554096914004
atom 15.5880494505494536 2.5980082417582420 5.3299450549450560 Zr
    velocity 0.5545269123719034 0.7052063381473316 -0.0416434984258638
atom 20.7840659340659357 2.5980082417582420 5.3299450549450560 Zr
    velocity -0.1792137807213460 0.3500130205860190 -0.0686547337457981
atom 0.0000000000000000 7.7940247252747259 5.3299450549450560 Zr
    velocity -0.1440837180139839 0.5943350389291370 -0.1823117336257822
atom 5.1960164835164839 7.7940247252747259 5.3299450549450560 Zr
    velocity -0.2189091371660251 -0.2287998706762705 -0.3541573251434814
atom 10.3920329670329679 7.7940247252747259 5.3299450549450560 Zr
    velocity -0.1342406277747199 0.2495197385104742 0.0072987184472089
atom 15.5880494505494536 7.7940247252747259 5.3299450549450560 Zr
    velocity 0.2485640319741030 -0.0259522517862448 0.1281001127915675
atom 20.7840659340659357 7.7940247252747259 5.3299450549450560 Zr
    velocity -0.0108556984217032 0.1247678617307164 -0.8102997475311728
atom 0.0000000000000000 12.9900412087912098 5.3299450549450560 Zr
    velocity -0.2271889194443425 0.4384409491225818 0.2525569590763422
atom 5.1960164835164839 12.9900412087912098 5.3299450549450560 Zr
    velocity -0.2867256144223888 -0.0457582441736105 0.7405766722594123
atom 10.3920329670329679 12.9900412087912098 5.3299450549450560 Zr
    velocity -0.1039786688092929 0.4251013167318563 -0.1289260800006710
atom 15.5880494505494536 12.9900412087912098 5.3299450549450560 Zr
    velocity -0.5763089841800774 -0.2890779418110129 -0.1777862848489994
atom 20.7840659340659357 12.9900412087912098 5.3299450549450560 Zr
    velocity -0.0704704429811069 -0.0810819253271333 -0.2631349374452878
atom 0.0000000000000000 18.1860576923076955 5.3299450549450560 Zr
    velocity 0.6571063808352980 0.4887562964622041 0.0919587830359237
atom 5.1960164835164839 18.1860576923076955 5.3299450549450560 Zr
    velocity 0.3147927141889347 0.3089927199731348 -0.3389756049484221
atom 10.3920329670329679 18.1860576923076955 5.3299450549450560 Zr
    velocity 0.1028221720814184 -0.1472657657448729 0.1735586292454036
atom 15.5880494505494536 18.1860576923076955 5.3299450549450560 Zr
    velocity -0.0854629858967484 -0.3833855543203925 0.1297887096267078
atom 20.7840659340659357 18.1860576923076955 5.3299450549450560 Zr
    velocity 0.0018504205610418 -0.1527971706135703 0.0152715755272878
atom 0.0000000000000000 23.3820741758241795 5.3299450549450560 Zr
    velocity -0.5688553018240926 0.1214942097618018 0.6441950619653563
atom 5.1960164835164839 23.3820741758241795 5.3299450549450560 Zr
    velocity 0.1112034700022913 -0.3220171637343391 0.0969267786489446
atom 10.3920329670329679 23.3820741758241795 5.3299450549450560 Zr
    velocity -0.0916278086082589 0.1159250213622062 0.0502056212426748
atom 15.5880494505494536 23.3820741758241795 5.3299450549450560 Zr
    velocity 0.1748135578694388 -0.2817197727155352 0.0653004824015444
atom 20.7840659340659357 23.3820741758241795 5.3299450549450560 Zr
    velocity -0.2373926596211904 -0.1276775178725978 -0.2793232482019600
atom 0.0000000000000000 2.5980082417582420 10.6598901098901138 Zr
    velocity -0.1106596227519181 0.6304450204389936 -0.3662556094095652
atom 5.1960164835164839 2.5980082417582420 10.6598901098901138 Zr
    velocity -0.7213593272568878 -0.1711597356947523 -0.3965371634088404
atom 10.3920329670329679 2.5980082417582420 10.6598901098901138 Zr
    velocity -0.4025956359042086 0.0076262078966941 0.1612393095675287
atom 15.5880494505494536 2.5980082417582420 10.6598901098901138 Zr
    velocity 0.3899658485001309 -0.6603568689880974 0.0152783561506338
atom 20.7840659340659357 2.5980082417582420 10.6598901098901138 Zr
    velocity 0.2386301047810298 0.0427690373552518 0.1885505482307359
atom 0.0000000000000000 7.7940247252747259 10.6598901098901138 Zr
    velocity 0.2911719312598097 -0.0670062358204504 -0.0471484364124761
atom 5.1960164835164839 7.7940247252747259 10.6598901098901138 Zr
    velocity -0.1444017787098742 -0.0007626435519867 0.0671543338917280
atom 10.3920329670329679 7.7940247252747259 10.6598901098901138 Zr
    velocity 0.0233512764664820 -0.0813749766714883 0.0015378964226889
atom 15.5880494505494536 7.7940247252747259 10.6598901098901138 Zr
    velocity 0.1655865950476720 -0.1443698501316036 0.3153054004151362
atom 20.7840659340659357 7.7940247252747259 10.6598901098901138 Zr
    velocity 0.0843197642046905 0.1936681492138973 0.1420996549217821
atom 0.0000000000000000 12.9900412087912098 10.6598901098901138 Zr
    velocity 0.0851500314201308 -0.3063874772677888 0.3956375222414990
atom 5.1960164835164839 12.9900412087912098 10.6598901098901138 Zr
    velocity 0.1451093525791843 -0.8584426435031951 0.5519720677259592
atom 10.3920329670329679 12.9900412087912098 10.6598901098901138 Zr
    velocity -0.0166298095859399 0.0554582644862129 0.1044523293067932
atom 15.5880494505494536 12.9900412087912098 10.6598901098901138 Zr
    velocity -0.0628215281655564 0.5344043380749327 0.5622791556227348
atom 20.7840659340659357 12.9900412087912098 10.6598901098901138 Zr
    velocity -0.1349846612552685 0.2089844413689882 0.1319264565886249
atom 0.0000000000000000 18.1860576923076955 10.6598901098901138 Zr
    velocity -0.2452056028732306 -0.0895597016182796 -0.2395339703490820
atom 5.1960164835164839 18.1860576923076955 10.6598901098901138 Zr
    velocity -0.1561509866932396 -0.3926069647961909 -0.4310544650951867
atom 10.3920329670329679 18.1860576923076955 10.6598901098901138 Zr
    velocity 0.1988269369375258 0.0682247981773231 0.1115480148762566
atom 15.5880494505494536 18.1860576923076955 10.6598901098901138 Zr
    velocity -0.1913272863925965 0.7371360475069694 0.5961654596120682
atom 20.7840659340659357 18.1860576923076955 10.6598901098901138 Zr
    velocity 0.1080263489266783 -0.4224008212412323 -0.2803070607181659
atom 0.0000000000000000 23.3820741758241795 10.6598901098901138 Zr
    velocity -0.0530137994681773 0.1127283358149614 -0.3194096980659221
atom 5.1960164835164839 23.3820741758241795 10.6598901098901138 Zr
    velocity -0.3154690503552198 0.1096649511456659 0.1197494728721733
atom 10.3920329670329679 23.3820741758241795 10.6598901098901138 Zr
    velocity -0.7278133652966446 -0.1279628321846683 0.4651463717367814
atom 15.5880494505494536 23.3820741758241795 10.6598901098901138 Zr
    velocity 0.4555868270541790 0.1789842256973762 -0.2565364003162210
atom 20.7840659340659357 23.3820741758241795 10.6598901098901138 Zr
    velocity 0.3687644273688864 -0.0263916818000034 0.4777408437791867
atom 0.0000000000000000 2.5980082417582420 15.9898351648351689 Zr
    velocity 0.0122729080722130 -0.2812226161574632 -0.1577956337855105
atom 5.1960164835164839 2.5980082417582420 15.9898351648351689 Zr
    velocity -0.4366976003876981 0.1888639269492812 0.2941128289581680
atom 10.3920329670329679 2.5980082417582420 15.9898351648351689 Zr
    velocity 0.5001393713237525 0.3951982790737305 0.3222440752874658
atom 15.5880494505494536 2.5980082417582420 15.9898351648351689 Zr
    velocity -0.2890913307544147 0.2731485825117068 -0.3007891497111287
atom 20.7840659340659357 2.5980082417582420 15.9898351648351689 Zr
    velocity -0.2154280022329393 -0.3487552961341734 0.3470409464923852
atom 0.0000000000000000 7.7940247252747259 15.9898351648351689 Zr
    velocity 0.1411887828000100 -0.0792822670144600 -0.1414590219624562
atom 5.1960164835164839 7.7940247252747259 15.9898351648351689 Zr
    velocity -0.1120758511397440 0.4019364506305402 0.3761420293573485
atom 10.3920329670329679 7.7940247252747259 15.9898351648351689 Zr
    velocity 0.0702453661915030 -0.7594264102750213 0.6994205609238087
atom 15.5880494505494536 7.7940247252747259 15.9898351648351689 Zr
    velocity -0.0724073045139336 -0.3946487562595627 0.7378978760167874
atom 20.7840659340659357 7.7940247252747259 15.9898351648351689 Zr
    velocity 0.3818296864935737 -0.0892811017788394 -0.3538325582988299
atom 0.0000000000000000 12.9900412087912098 15.9898351648351689 Zr
    velocity 0.4663358181142902 -0.2902388325689025 0.2684820889700547
atom 5.1960164835164839 12.9900412087912098 15.9898351648351689 Zr