#=======================================================
# FHI-aims file: /raven/u/mlang/gknet-aims/verdi_tetragonal/relaxation/relaxation/geometry.in.next_step
# Created using the Atomic Simulation Environment (ASE)
# Thu Jul 21 14:52:29 2022

# Additional information:
#  Relaxed with BFGS, fmax=1.000 meV/AA
#  nsteps = 8
#  residual force  = 0.002671 meV/AA
#  residual stress = 0.650983 meV/AA
#=======================================================
lattice_vector 5.0757653459660004 0.0000000000000000 0.0000000000000000 
lattice_vector -0.0000000000000000 5.0757653459660004 -0.0000000000000000 
lattice_vector 0.0000000000000000 -0.0000000000000000 5.1866127039550003 
atom_frac 0.5000000000000000 0.0000000000000000 0.0000000000000000 Zr
atom_frac 0.0000000000000000 0.5000000000000000 0.0000000000000000 Zr
atom_frac 0.0000000000000000 0.0000000000000000 0.5000000000000000 Zr
atom_frac 0.5000000000000000 0.5000000000000000 0.5000000000000000 Zr
atom_frac 0.2500000000000000 0.7500000000000000 0.2008803989540000 O
atom_frac 0.7500000000000000 0.2500000000000000 0.2008803989540000 O
atom_frac 0.2500000000000000 0.7500000000000000 0.7008803989539999 O
atom_frac 0.7500000000000000 0.2500000000000000 0.7008803989539999 O
atom_frac 0.2500000000000000 0.2500000000000000 0.7991196010459999 O
atom_frac 0.7500000000000000 0.7500000000000000 0.7991196010459999 O
atom_frac 0.2500000000000000 0.2500000000000000 0.2991196010460000 O
atom_frac 0.7500000000000000 0.7500000000000000 0.2991196010460000 O
