#=======================================================
# FHI-aims file: 1900_geometry.in.primitive.supercell_1500.0010K
# Created using the Atomic Simulation Environment (ASE)
# Sat Feb 18 23:45:55 2023

# Additional information:
#  created from MB distrubtion
#  T = 10.0 K
#  quantum:             False
#  deterministic:       False
#  plus_minus:          False
#  gauge_eigenvectors:  False
#  Random seed:         185577510
#  Sample number:       1
#=======================================================
lattice_vector 25.9024725274725327 0.0000000000000000 0.0000000000000000 
lattice_vector 0.0000000000000000 25.9024725274725327 0.0000000000000000 
lattice_vector 0.0000000000000000 0.0000000000000000 26.5618131868131897 
atom 2.5902472527472535 0.0000000000000000 0.0000000000000000 Zr
    velocity -0.4907068121940195 -0.0356495361765224 -0.4694580385086286
atom 7.7707417582417593 0.0000000000000000 0.0000000000000000 Zr
    velocity 0.0226986169399118 0.1479816706724008 0.1633145254705599
atom 12.9512362637362664 0.0000000000000000 0.0000000000000000 Zr
    velocity 0.5921924005432372 -0.1993758762628782 -0.2450415383230804
atom 18.1317307692307743 0.0000000000000000 0.0000000000000000 Zr
    velocity 0.1870088550311197 0.5296533297746039 -0.3551580169178953
atom 23.3122252747252787 0.0000000000000000 0.0000000000000000 Zr
    velocity -0.2563398615575751 0.3547425717594905 0.0941186677398812
atom 2.5902472527472535 5.1804945054945071 0.0000000000000000 Zr
    velocity 0.3148965422656608 -0.2752852146027606 -0.0020819173940153
atom 7.7707417582417593 5.1804945054945071 0.0000000000000000 Zr
    velocity -0.7929561998156449 -0.4051394061622187 -0.2566635005540456
atom 12.9512362637362664 5.1804945054945071 0.0000000000000000 Zr
    velocity 0.2070498722350360 0.1039975234389583 -0.7525507734850324
atom 18.1317307692307743 5.1804945054945071 0.0000000000000000 Zr
    velocity -0.1778950421292782 0.3967977221577943 0.3552001362990502
atom 23.3122252747252787 5.1804945054945071 0.0000000000000000 Zr
    velocity -0.2621395729805276 -0.2213761880198282 -0.1465669776672838
atom 2.5902472527472535 10.3609890109890141 0.0000000000000000 Zr
    velocity -0.1949968282738961 -0.3833716590116430 0.1382421139283540
atom 7.7707417582417593 10.3609890109890141 0.0000000000000000 Zr
    velocity 0.5667790389801670 -0.1069883706801367 -0.4563856919582490
atom 12.9512362637362664 10.3609890109890141 0.0000000000000000 Zr
    velocity 0.4208298470601860 0.0010372536864023 -0.4064439209950745
atom 18.1317307692307743 10.3609890109890141 0.0000000000000000 Zr
    velocity -0.4889866686252023 -0.1935515917000519 -0.1746221154433822
atom 23.3122252747252787 10.3609890109890141 0.0000000000000000 Zr
    velocity -0.0176099467897901 -0.1929870006226047 0.5387830375770783
atom 2.5902472527472535 15.5414835164835221 0.0000000000000000 Zr
    velocity -0.1582593688614496 -0.3042619509277218 0.5116664128496049
atom 7.7707417582417593 15.5414835164835221 0.0000000000000000 Zr
    velocity -0.2329706313226743 -0.1537467412957857 0.0413963426759221
atom 12.9512362637362664 15.5414835164835221 0.0000000000000000 Zr
    velocity 0.3912744660049696 -0.1361120794043674 -0.0056285277776992
atom 18.1317307692307743 15.5414835164835221 0.0000000000000000 Zr
    velocity 0.4636466703314335 -0.3152210740668883 0.0222258918950598
atom 23.3122252747252787 15.5414835164835221 0.0000000000000000 Zr
    velocity -0.0352146447962343 -0.0901835998591284 -0.4870572826969499
atom 2.5902472527472535 20.7219780219780283 0.0000000000000000 Zr
    velocity -0.1716709987938140 0.0154562550339284 0.2141709176981281
atom 7.7707417582417593 20.7219780219780283 0.0000000000000000 Zr
    velocity 0.0260481650517094 0.2009042615024418 -0.0485944676248451
atom 12.9512362637362664 20.7219780219780283 0.0000000000000000 Zr
    velocity -0.1302960776262687 0.7489712925433986 0.1487497576634327
atom 18.1317307692307743 20.7219780219780283 0.0000000000000000 Zr
    velocity -0.9485930724461915 -0.1998636890809618 -0.7853962903918748
atom 23.3122252747252787 20.7219780219780283 0.0000000000000000 Zr
    velocity 0.1233108259878809 0.1966691664199701 -0.2699970563408066
atom 2.5902472527472535 0.0000000000000000 5.3123626373626385 Zr
    velocity 0.0413347294265632 -0.4723673252306683 0.4777265315980167
atom 7.7707417582417593 0.0000000000000000 5.3123626373626385 Zr
    velocity 0.0185871689087652 -0.1296268767636146 0.4060838190304180
atom 12.9512362637362664 0.0000000000000000 5.3123626373626385 Zr
    velocity -0.5063756927749790 -0.1084485587180983 0.3668214770838908
atom 18.1317307692307743 0.0000000000000000 5.3123626373626385 Zr
    velocity 0.4969414809400879 -0.0897027493493477 0.0973982425342957
atom 23.3122252747252787 0.0000000000000000 5.3123626373626385 Zr
    velocity -0.1026300796757655 0.1212467537757028 -0.1929026430938287
atom 2.5902472527472535 5.1804945054945071 5.3123626373626385 Zr
    velocity -0.1797027082454253 0.3329134483834030 0.0664457479505000
atom 7.7707417582417593 5.1804945054945071 5.3123626373626385 Zr
    velocity 0.1747764704680040 -0.2029526721348481 0.0435769091809673
atom 12.9512362637362664 5.1804945054945071 5.3123626373626385 Zr
    velocity 0.2191573245416452 -0.1028464001312537 0.2377358102198697
atom 18.1317307692307743 5.1804945054945071 5.3123626373626385 Zr
    velocity -0.4997345148670848 0.2571344769212445 0.0343676452046413
atom 23.3122252747252787 5.1804945054945071 5.3123626373626385 Zr
    velocity 0.6188117937681337 0.1054494685351719 -0.4364994652596429
atom 2.5902472527472535 10.3609890109890141 5.3123626373626385 Zr
    velocity -0.0892508649201016 -0.0115875685808476 0.6179706515169038
atom 7.7707417582417593 10.3609890109890141 5.3123626373626385 Zr
    velocity -0.2178439265695412 -0.0391873268652718 0.3813483516404745
atom 12.9512362637362664 10.3609890109890141 5.3123626373626385 Zr
    velocity -0.0768263414890998 0.0545980806353729 -0.4355033716061775
atom 18.1317307692307743 10.3609890109890141 5.3123626373626385 Zr
    velocity 0.0444085813567812 -0.3530841640612481 0.6613624376380183
atom 23.3122252747252787 10.3609890109890141 5.3123626373626385 Zr
    velocity -0.2765131348903762 0.0859345270415342 0.5861922840375073
atom 2.5902472527472535 15.5414835164835221 5.3123626373626385 Zr
    velocity 0.0552977304556327 0.1035214186372717 -0.4715040906942866
atom 7.7707417582417593 15.5414835164835221 5.3123626373626385 Zr
    velocity -0.3049347529752656 0.2481143024947629 -0.3482028507833994
atom 12.9512362637362664 15.5414835164835221 5.3123626373626385 Zr
    velocity -0.1424909352918852 -0.1932596421848340 0.0938106374913305
atom 18.1317307692307743 15.5414835164835221 5.3123626373626385 Zr
    velocity 0.2263119751858297 0.0903003346692332 0.3814101030652987
atom 23.3122252747252787 15.5414835164835221 5.3123626373626385 Zr
    velocity 0.2383996352174479 0.2451527253988161 -0.2987236707527474
atom 2.5902472527472535 20.7219780219780283 5.3123626373626385 Zr
    velocity -0.1993951642157885 0.0334782516461415 0.6647283273627095
atom 7.7707417582417593 20.7219780219780283 5.3123626373626385 Zr
    velocity 0.4334691721096157 0.0039822822632473 -0.4236871379773472
atom 12.9512362637362664 20.7219780219780283 5.3123626373626385 Zr
    velocity 0.0522040431371156 0.1568446161213435 -0.5154657393596603
atom 18.1317307692307743 20.7219780219780283 5.3123626373626385 Zr
    velocity -0.2687028081146037 0.4367001733787595 -0.0421066497839107
atom 23.3122252747252787 20.7219780219780283 5.3123626373626385 Zr
    velocity -0.4826889090716223 -0.1061223409855826 0.0461731477787565
atom 2.5902472527472535 0.0000000000000000 10.6247252747252769 Zr
    velocity 0.1949920139557953 -0.1755214245329492 -0.3197166918297442
atom 7.7707417582417593 0.0000000000000000 10.6247252747252769 Zr
    velocity 0.1501040709807042 0.1574856284851929 -0.1953045165960215
atom 12.9512362637362664 0.0000000000000000 10.6247252747252769 Zr
    velocity 0.2116352032327843 0.1316830405917767 -0.0572237722506263
atom 18.1317307692307743 0.0000000000000000 10.6247252747252769 Zr
    velocity 0.6299781919791797 -0.3663678823289087 0.3248821986526219
atom 23.3122252747252787 0.0000000000000000 10.6247252747252769 Zr
    velocity -0.0949805915501303 0.2788808370568766 -0.0586029223469081
atom 2.5902472527472535 5.1804945054945071 10.6247252747252769 Zr
    velocity -0.1704581960589851 -0.4880600158919111 -0.0463628706493638
atom 7.7707417582417593 5.1804945054945071 10.6247252747252769 Zr
    velocity -0.2173697084408800 -0.3978044720128637 0.2431123756121424
atom 12.9512362637362664 5.1804945054945071 10.6247252747252769 Zr
    velocity 0.0660036225351501 -0.3245138905699561 0.0707718734992797
atom 18.1317307692307743 5.1804945054945071 10.6247252747252769 Zr
    velocity 0.0659378185278994 -0.2145647112733498 -0.2087092997490504
atom 23.3122252747252787 5.1804945054945071 10.6247252747252769 Zr
    velocity -0.3022120611303605 -0.0908970533681032 0.0345669702098544
atom 2.5902472527472535 10.3609890109890141 10.6247252747252769 Zr
    velocity -0.0134938091431410 -0.1714956075763616 -0.1516631794649390
atom 7.7707417582417593 10.3609890109890141 10.6247252747252769 Zr
    velocity -0.0157941824889169 -0.0726542303965600 0.0387103162707079
atom 12.9512362637362664 10.3609890109890141 10.6247252747252769 Zr
    velocity -0.4602941294181481 0.2631586925561540 0.4630662962377244
atom 18.1317307692307743 10.3609890109890141 10.6247252747252769 Zr
    velocity 0.0879274537028876 0.1371136085741359 -0.1633216517110699
atom 23.3122252747252787 10.3609890109890141 10.6247252747252769 Zr
    velocity -0.2202387114367860 0.0334927970163940 0.1846412163451654
atom 2.5902472527472535 15.5414835164835221 10.6247252747252769 Zr
    velocity -0.0532893983344454 -0.0913107496687932 0.4932169817067667
atom 7.7707417582417593 15.5414835164835221 10.6247252747252769 Zr
    velocity -0.1412180834939538 0.1136386312605542 -0.3356462962536691
atom 12.9512362637362664 15.5414835164835221 10.6247252747252769 Zr
    velocity 0.4018096123057398 0.2796402530901404 -0.0823280334658839
atom 18.1317307692307743 15.5414835164835221 10.6247252747252769 Zr
    velocity 0.1758259809920957 0.1415797240118422 -0.1341198110263923
atom 23.3122252747252787 15.5414835164835221 10.6247252747252769 Zr
    velocity 0.0176225426332012 -0.2165188010193250 0.0124021275692242
atom 2.5902472527472535 20.7219780219780283 10.6247252747252769 Zr
    velocity 0.9173870034281997 0.0477253225989720 -0.1107099815583153
atom 7.7707417582417593 20.7219780219780283 10.6247252747252769 Zr
    velocity 0.1643732079772157 -0.0983928331462678 -0.0563874190706772
atom 12.9512362637362664 20.7219780219780283 10.6247252747252769 Zr
    velocity -0.2101222289646018 -0.1492647093496897 -0.1103484186461230
atom 18.1317307692307743 20.7219780219780283 10.6247252747252769 Zr
    velocity 0.0660989975924747 0.3698587310969824 0.0840983132847028
atom 23.3122252747252787 20.7219780219780283 10.6247252747252769 Zr
    velocity -0.0472221412606298 0.5118690919228258 0.4027436489197231
atom 2.5902472527472535 0.0000000000000000 15.9370879120879163 Zr
    velocity -0.4358847793651513 -0.0988390998902863 -0.2136631228727852
atom 7.7707417582417593 0.0000000000000000 15.9370879120879163 Zr
    velocity 0.0712115198917399 -0.3702475822533894 -0.2627987889206735
atom 12.9512362637362664 0.0000000000000000 15.9370879120879163 Zr
    velocity 0.1075550576392394 0.0768893107832191 0.7076160211554995
atom 18.1317307692307743 0.0000000000000000 15.9370879120879163 Zr
    velocity -0.1683205028969575 -0.2606357971152604 -0.1412621175072035
atom 23.3122252747252787 0.0000000000000000 15.9370879120879163 Zr
    velocity -0.0565989036374758 0.0559709087347338 0.1571331563840096
atom 2.5902472527472535 5.1804945054945071 15.9370879120879163 Zr
    velocity -0.3791050475917521 -0.0275417934506713 0.4264910755946722
atom 7.7707417582417593 5.1804945054945071 15.9370879120879163 Zr
    velocity -0.1831167249642315 -0.1458504790789912 -0.2372404330102883
atom 12.9512362637362664 5.1804945054945071 15.9370879120879163 Zr
    velocity 0.5369914965129516 -0.0829650632389397 -0.0032218739089199
atom 18.1317307692307743 5.1804945054945071 15.9370879120879163 Zr
    velocity -0.3511079777973775 0.1169124214798248 -0.0444524477401760
atom 23.3122252747252787 5.1804945054945071 15.9370879120879163 Zr
    velocity -0.1765630471772267 -0.0300815617629116 0.3652248931764663
atom 2.5902472527472535 10.3609890109890141 15.9370879120879163 Zr
    velocity -0.0490525596284625 0.4688289576353116 0.4570713763316290
atom 7.7707417582417593 10.3609890109890141 15.9370879120879163 Zr
    velocity 0.1403919802461608 0.2695796181295264 -0.1466107512794544
atom 12.9512362637362664 10.3609890109890141 15.9370879120879163 Zr
    velocity 0.0608385498471733 0.2037671143298169 -0.5063447915234011
atom 18.1317307692307743 10.3609890109890141 15.9370879120879163 Zr
    velocity 0.1224000119286075 -0.2634497618261503 0.0102029950584995
atom 23.3122252747252787 10.3609890109890141 15.9370879120879163 Zr
    velocity 0.5150724344928974 0.4520217514812778 0.2493214703817056
atom 2.5902472527472535 15.5414835164835221 15.9370879120879163 Zr
    velocity 0.0554630052442406 0.0297439247924490 -0.0962387168019087
atom 7.7707417582417593 15.5414835164835221 15.9370879120879163 Zr
    velocity 0.2298954785541322 0.0946941089320670 -0.0994556248934229
atom 12.9512362637362664 15.5414835164835221 15.9370879120879163 Zr
    velocity 0.0650872550562661 -0.4729145903100267 0.0080611385758494
atom 18.1317307692307743 15.5414835164835221 15.9370879120879163 Zr
    velocity 0.4594612372551414 -0.0678811822074507 -0.3488383736301159
atom 23.3122252747252787 15.5414835164835221 15.9370879120879163 Zr
    velocity -0.2809346253997956 -0.2189233952941164 -0.1015864970753576
atom 2.5902472527472535 20.7219780219780283 15.9370879120879163 Zr
    velocity 0.2948877802591280 0.5163119193334951 0.4169453412941994
atom 7.7707417582417593 20.7219780219780283 15.9370879120879163 Zr
    velocity 0.0585652589063742 0.0112382636099044 -0.3034244289353730
atom 12.9512362637362664 20.7219780219780283 15.9370879120879163 Zr
    velocity 0.1338423457942656 -0.3426786182727985 0.3112470038093610
atom 18.1317307692307743 20.7219780219780283 15.9370879120879163 Zr
    velocity 0.3352902374592397 -0.4047246979515022 0.3287618917443121
atom 23.3122252747252787 20.7219780219780283 15.9370879120879163 Zr
    velocity 0.0295521351282556 -0.2186439494440533 0.2412101016991971
atom 2.5902472527472535 0.0000000000000000 21.2494505494505539 Zr
    velocity 0.5141879142578138 -0.3911767664722611 0.3682211022473812
atom 7.7707417582417593 0.0000000000000000 21.2494505494505539 Zr
    velocity 0.1432336086541401 -0.1050044112941940 0.0355970555360196
atom 12.9512362637362664 0.0000000000000000 21.2494505494505539 Zr
    velocity 0.3828779342013529 -0.1368393729981761 0.1034899517839278
atom 18.1317307692307743 0.0000000000000000 21.2494505494505539 Zr
    velocity -0.2374283999452661 0.4800032883360049 -0.1370973796858241
atom 23.3122252747252787 0.0000000000000000 21.2494505494505539 Zr
    velocity -0.0085940972041319 0.0889701388916909 0.4014774257214896
atom 2.5902472527472535 5.1804945054945071 21.2494505494505539 Zr
    velocity -0.2830255577661821 -0.5387226425566325 -0.3656361473778231
atom 7.7707417582417593 5.1804945054945071 21.2494505494505539 Zr
    velocity -0.3201306217100869 0.4875796960763763 0.2354011070476884
atom 12.9512362637362664 5.1804945054945071 21.2494505494505539 Zr
    velocity 0.0454479582032613 -0.2236666943994941 0.0289963215220581
atom 18.1317307692307743 5.1804945054945071 21.2494505494505539 Zr
    velocity 0.0294421097575964 0.2969265294419549 0.4087375590560233
atom 23.3122252747252787 5.1804945054945071 21.2494505494505539 Zr
    velocity -0.6116506525461691 0.0391126436736961 0.1602817979164869
atom 2.5902472527472535 10.3609890109890141 21.2494505494505539 Zr
    velocity 0.2759856815785149 0.3744166299786839 0.2115784841516886
atom 7.7707417582417593 10.3609890109890141 21.2494505494505539 Zr
    velocity -0.1482772915133383 0.2264806978639698 0.1113145354348365
atom 12.9512362637362664 10.3609890109890141 21.2494505494505539 Zr
    velocity -0.0881508320375720 0.1698960117241264 0.1521318680474320
atom 18.1317307692307743 10.3609890109890141 21.2494505494505539 Zr
    velocity 0.1206990088975795 -0.0939956958525051 -0.1803432787634493
atom 23.3122252747252787 10.3609890109890141 21.2494505494505539 Zr
    velocity -0.4090367785385044 -0.0324088005304411 0.3952986129643214
atom 2.5902472527472535 15.5414835164835221 21.2494505494505539 Zr
    velocity 0.0736755634484875 0.0659260386281542 0.2463527668860355
atom 7.7707417582417593 15.5414835164835221 21.2494505494505539 Zr
    velocity 0.3655732866501135 -0.1752175438123911 0.2003783373672667
atom 12.9512362637362664 15.5414835164835221 21.2494505494505539 Zr
    velocity -0.0447274559441302 -0.3445049478119391 -0.3048099933873527
atom 18.1317307692307743 15.5414835164835221 21.2494505494505539 Zr
    velocity 0.1626542270871537 -0.3682255032931145 -0.4923242081670037
atom 23.3122252747252787 15.5414835164835221 21.2494505494505539 Zr
    velocity 0.2805500987695345 0.2794669367721002 0.2928980106695455
atom 2.5902472527472535 20.7219780219780283 21.2494505494505539 Zr
    velocity 0.3073528444545845 0.2385070663874566 -0.0433341692726308
atom 7.7707417582417593 20.7219780219780283 21.2494505494505539 Zr
    velocity 0.0958985156222999 0.3294673287409346 0.1723106471918268
atom 12.9512362637362664 20.7219780219780283 21.2494505494505539 Zr
    velocity 0.1228832694174501 -0.1620447964026827 0.2393269682870635
atom 18.1317307692307743 20.7219780219780283 21.2494505494505539 Zr
    velocity -0.1804098681199184 -0.4722818621345356 0.5385354138311719
atom 23.3122252747252787 20.7219780219780283 21.2494505494505539 Zr
    velocity -0.1059299164896061 -0.4593805228097531 0.5579983564196688
atom 0.0000000000000000 2.5902472527472535 0.0000000000000000 Zr
    velocity 0.3357565437761025 -0.3110275006357331 -0.3491245054568092
atom 5.1804945054945071 2.5902472527472535 0.0000000000000000 Zr
    velocity 0.0624781436581083 -0.3830646115315233 -0.1148376444999388
atom 10.3609890109890141 2.5902472527472535 0.0000000000000000 Zr
    velocity 0.1862962548631331 0.1982335027218133 0.0804738298419520
atom 15.5414835164835221 2.5902472527472535 0.0000000000000000 Zr
    velocity -0.2229833968243082 0.0207805415455377 0.3596265989687980
atom 20.7219780219780283 2.5902472527472535 0.0000000000000000 Zr
    velocity -0.6325383494132645 0.2802852028653324 -0.0972707070242475
atom 0.0000000000000000 7.7707417582417593 0.0000000000000000 Zr
    velocity -0.2053706410397675 -0.0256883792778171 -0.2020127730280721
atom 5.1804945054945071 7.7707417582417593 0.0000000000000000 Zr
    velocity -0.2180492845806303 0.1095685617979133 -0.2657980062064917
atom 10.3609890109890141 7.7707417582417593 0.0000000000000000 Zr
    velocity -0.2156171384614357 0.2235224940440207 0.3583046097427348
atom 15.5414835164835221 7.7707417582417593 0.0000000000000000 Zr
    velocity 0.1826075472334272 -0.1398683314353812 -0.3501801674786038
atom 20.7219780219780283 7.7707417582417593 0.0000000000000000 Zr
    velocity 0.2319900433290725 -0.0864616106473040 0.4505110535911980
atom 0.0000000000000000 12.9512362637362664 0.0000000000000000 Zr
    velocity 0.2254326848784309 -0.3934297212152265 0.0264497932574306
atom 5.1804945054945071 12.9512362637362664 0.0000000000000000 Zr
    velocity 0.0719056326135367 0.1950415868156766 -0.1634200925037758
atom 10.3609890109890141 12.9512362637362664 0.0000000000000000 Zr
    velocity 0.1637328746697546 -0.0151521893244100 -0.3565894209904629
atom 15.5414835164835221 12.9512362637362664 0.0000000000000000 Zr
    velocity -0.3824017810594900 0.1103795952586817 0.4419359291691837
atom 20.7219780219780283 12.9512362637362664 0.0000000000000000 Zr
    velocity -0.5736305770538561 -0.3337011716190653 0.2918812983795400
atom 0.0000000000000000 18.1317307692307743 0.0000000000000000 Zr
    velocity 0.5833838419518577 0.3744697613203353 0.3029457701812122
atom 5.1804945054945071 18.1317307692307743 0.0000000000000000 Zr
    velocity 0.2788864113613051 0.0092205950322954 0.3732917857065468
atom 10.3609890109890141 18.1317307692307743 0.0000000000000000 Zr
    velocity 0.1068513066363516 -0.0937769591938462 0.1055616992633963
atom 15.5414835164835221 18.1317307692307743 0.0000000000000000 Zr
    velocity 0.3950134821240036 0.0353379307580833 -0.1149224702779124
atom 20.7219780219780283 18.1317307692307743 0.0000000000000000 Zr
    velocity -0.2450098537918280 0.3840422688301344 -0.2825478059778214
atom 0.0000000000000000 23.3122252747252787 0.0000000000000000 Zr
    velocity 0.2954059897796044 -0.1324905530264924 -0.0690274793235879
atom 5.1804945054945071 23.3122252747252787 0.0000000000000000 Zr
    velocity -0.0042429674045049 -0.5800971512974953 0.3179797630540627
atom 10.3609890109890141 23.3122252747252787 0.0000000000000000 Zr
    velocity 0.1080918194477823 -0.3082163440362811 -0.1394380857634557
atom 15.5414835164835221 23.3122252747252787 0.0000000000000000 Zr
    velocity -0.0430515173772398 -0.0651882810501881 0.4424092645537215
atom 20.7219780219780283 23.3122252747252787 0.0000000000000000 Zr
    velocity 0.0056521531015012 0.7581486151578857 0.1091076571867172
atom 0.0000000000000000 2.5902472527472535 5.3123626373626385 Zr
    velocity -0.4699941073769803 -0.2831817586157015 0.0499771361835619
atom 5.1804945054945071 2.5902472527472535 5.3123626373626385 Zr
    velocity -0.0317760561099040 -0.1607907197324528 -0.1769294073783951
atom 10.3609890109890141 2.5902472527472535 5.3123626373626385 Zr
    velocity -0.0585317992665926 0.0771055463560364 -0.1013806628594616
atom 15.5414835164835221 2.5902472527472535 5.3123626373626385 Zr
    velocity 0.1326058715789578 -0.3677894125639360 0.2572467253269399
atom 20.7219780219780283 2.5902472527472535 5.3123626373626385 Zr
    velocity 0.1084671384038589 -0.5055526628925414 -0.0539582446801158
atom 0.0000000000000000 7.7707417582417593 5.3123626373626385 Zr
    velocity -0.8480428635262407 -0.0115324894383537 0.5343307906962727
atom 5.1804945054945071 7.7707417582417593 5.3123626373626385 Zr
    velocity 0.4229759894459826 -0.5248570550986861 0.4132169672262464
atom 10.3609890109890141 7.7707417582417593 5.3123626373626385 Zr
    velocity 0.0948195675921953 -0.5145974581008933 -0.1891306600864883
atom 15.5414835164835221 7.7707417582417593 5.3123626373626385 Zr
    velocity 0.0109836098411461 -0.4748602566373485 -0.0124447091672001
atom 20.7219780219780283 7.7707417582417593 5.3123626373626385 Zr
    velocity 0.1178616098692299 0.4778615878733517 0.1650744395487848
atom 0.0000000000000000 12.9512362637362664 5.3123626373626385 Zr
    velocity -0.4057032448563417 0.1353925597253617 -0.7421928155070878
atom 5.1804945054945071 12.9512362637362664 5.3123626373626385 Zr
    velocity -0.0261842179461769 -0.1721929218743771 0.1048991529874793
atom 10.3609890109890141 12.9512362637362664 5.3123626373626385 Zr
    velocity -0.2616871921951125 -0.4811729413073985 -0.7774474316314007
atom 15.5414835164835221 12.9512362637362664 5.3123626373626385 Zr
    velocity -0.1591629575711333 -0.1962135190003309 -0.1772438921950790
atom 20.7219780219780283 12.9512362637362664 5.3123626373626385 Zr
    velocity -0.0940401980500652 -0.1355990039824382 0.4317517660833336
atom 0.0000000000000000 18.1317307692307743 5.3123626373626385 Zr
    velocity -0.3568193707938877 0.2561832815718220 -0.3087617729770623
atom 5.1804945054945071 18.1317307692307743 5.3123626373626385 Zr
    velocity -0.4961237936444586 0.5858797423805716 -0.3166738184686091
atom 10.3609890109890141 18.1317307692307743 5.3123626373626385 Zr
    velocity 0.2674727860820707 -0.2468191004225055 -0.4275662710213394
atom 15.5414835164835221 18.1317307692307743 5.3123626373626385 Zr
    velocity -0.1420607959444923 0.0127602455045974 -0.3545032270315528
atom 20.7219780219780283 18.1317307692307743 5.3123626373626385 Zr
    velocity 0.1980752744991281 -0.1503338539022772 -0.4035732002366600
atom 0.0000000000000000 23.3122252747252787 5.3123626373626385 Zr
    velocity 0.1192077594833115 0.2893053104650280 -0.0434719576465840
atom 5.1804945054945071 23.3122252747252787 5.3123626373626385 Zr
    velocity 0.3716330076545509 0.6921757195347894 -0.0559726594103805
atom 10.3609890109890141 23.3122252747252787 5.3123626373626385 Zr
    velocity -0.2482885761770069 -0.6169614993131681 -0.0234753639339453
atom 15.5414835164835221 23.3122252747252787 5.3123626373626385 Zr
    velocity 0.0153398166768278 -0.3521678847213483 -0.1547919221690925
atom 20.7219780219780283 23.3122252747252787 5.3123626373626385 Zr
    velocity 0.0161486861369654 -0.2689386061871752 -0.0354189150422013
atom 0.0000000000000000 2.5902472527472535 10.6247252747252769 Zr
    velocity -0.1668548430417686 -0.4673195732404689 -0.3798167720794632
atom 5.1804945054945071 2.5902472527472535 10.6247252747252769 Zr
    velocity -0.0297024673644057 -0.3054886693605056 -0.0152880968707990
atom 10.3609890109890141 2.5902472527472535 10.6247252747252769 Zr
    velocity -0.1319320701848430 -0.2988604955956682 0.4562484406985617
atom 15.5414835164835221 2.5902472527472535 10.6247252747252769 Zr
    velocity -0.1553640448246469 0.0212608215986706 -0.1868512878539446
atom 20.7219780219780283 2.5902472527472535 10.6247252747252769 Zr
    velocity 0.4254976200460562 -0.0691723828954227 -0.8484198526244102
atom 0.0000000000000000 7.7707417582417593 10.6247252747252769 Zr
    velocity -0.2963602041341976 0.0798131406509357 -0.1584757851250060
atom 5.1804945054945071 7.7707417582417593 10.6247252747252769 Zr
    velocity -0.3724486174381705 -0.1936385178474400 -0.2071189436860102
atom 10.3609890109890141 7.7707417582417593 10.6247252747252769 Zr
    velocity -0.1692027570975207 -0.1317691596000194 0.4230298417501479
atom 15.5414835164835221 7.7707417582417593 10.6247252747252769 Zr
    velocity 0.1347315649696849 0.1112190969004848 -0.4695263873798443
atom 20.7219780219780283 7.7707417582417593 10.6247252747252769 Zr
    velocity 0.1875052341166190 -0.0863419561581251 0.3239188021196615
atom 0.0000000000000000 12.9512362637362664 10.6247252747252769 Zr
    velocity -0.3250726096087314 0.0571862845977006 0.0968356697160574
atom 5.1804945054945071 12.9512362637362664 10.6247252747252769 Zr
    velocity 0.4296704768575954 -0.1183849105033994 0.2845970554351522
atom 10.3609890109890141 12.9512362637362664 10.6247252747252769 Zr
    velocity 0.0341179708144040 -0.1592028991878879 0.0639395565861623
atom 15.5414835164835221 12.9512362637362664 10.6247252747252769 Zr
    velocity -0.3855977171426238 0.0611390338365114 -0.0292652581341476
atom 20.7219780219780283 12.9512362637362664 10.6247252747252769 Zr
    velocity 0.3891439192354821 -0.5722967616572600 0.1058828547242137
atom 0.0000000000000000 18.1317307692307743 10.6247252747252769 Zr
    velocity 0.1830190026163232 0.1564126551720874 -0.1896696044319167
atom 5.1804945054945071 18.1317307692307743 10.6247252747252769 Zr
    velocity 0.3219345022039566 0.3737957355792612 0.6374196832358415
atom 10.3609890109890141 18.1317307692307743 10.6247252747252769 Zr
    velocity -0.1732195752225924 -0.0024901937672190 -0.1638793521881984
atom 15.5414835164835221 18.1317307692307743 10.6247252747252769 Zr
    velocity 0.2012644245953761 -0.0466923300109211 -0.0380664248726555
atom 20.7219780219780283 18.1317307692307743 10.6247252747252769 Zr
    velocity 0.0586611702864904 0.0987056851128177 0.3670405617855535
atom 0.0000000000000000 23.3122252747252787 10.6247252747252769 Zr
    velocity 0.4037676928453739 -0.0916751461509607 0.0363854576466979
atom 5.1804945054945071 23.3122252747252787 10.6247252747252769 Zr
    velocity 0.3524628777705519 0.2543916210324285 0.2859600048340044
atom 10.3609890109890141 23.3122252747252787 10.6247252747252769 Zr
    velocity -0.4577052756961416 0.1436018136501939 0.4032042457122171
atom 15.5414835164835221 23.3122252747252787 10.6247252747252769 Zr
    velocity 0.0939509035418874 0.6339769063881845 0.0650871778132703
atom 20.7219780219780283 23.3122252747252787 10.6247252747252769 Zr
    velocity 0.0246652682685646 -0.3275725383279815 -0.0859260031014238
atom 0.0000000000000000 2.5902472527472535 15.9370879120879163 Zr
    velocity -0.0029225202202671 0.0075843347311853 -0.1389066761302054
atom 5.1804945054945071 2.5902472527472535 15.9370879120879163 Zr
    velocity -0.1135637131416721 0.2847962116268655 -0.0453824639611545
atom 10.3609890109890141 2.5902472527472535 15.9370879120879163 Zr
    velocity -0.3751546137567063 0.3344746671593086 0.6096015975188170
atom 15.5414835164835221 2.5902472527472535 15.9370879120879163 Zr
    velocity -0.2947671925163143 0.4113188632784597 0.3306321051461886
atom 20.7219780219780283 2.5902472527472535 15.9370879120879163 Zr
    velocity 0.2312376534427927 0.6609432433970349 -0.0346373383319263
atom 0.0000000000000000 7.7707417582417593 15.9370879120879163 Zr
    velocity -0.3121865623896263 -0.1161619558425982 -0.0072583465054239
atom 5.1804945054945071 7.7707417582417593 15.9370879120879163 Zr
    velocity -0.0979678849058767 0.1035510793213029 0.0629443561751668
atom 10.3609890109890141 7.7707417582417593 15.9370879120879163 Zr
    velocity 0.2059734612860339 0.0462252227730826 -0.2698131355366594
atom 15.5414835164835221 7.7707417582417593 15.9370879120879163 Zr
    velocity 0.3176163169854999 0.1173751181703959 -0.1688402051797316
atom 20.7219780219780283 7.7707417582417593 15.9370879120879163 Zr
    velocity -0.1612807705336788 -0.5087476757434305 -0.0984758012581883
atom 0.0000000000000000 12.9512362637362664 15.9370879120879163 Zr
    velocity -0.0043818840664911 0.0092055244163483 0.0514880201571772
atom 5.1804945054945071 12.9512362637362664 15.9370879120879163 Zr