#=======================================================
# FHI-aims file: 900_geometry.in.primitive.supercell_1500
# Created using the Atomic Simulation Environment (ASE)
# Tue Aug 16 11:32:48 2022

# Additional information:
#  Number of atoms:     1500
#  Spacegroup:          14
#  supercell:           True
#  supercell_matrix:    [5, 0, 0, 0, 5, 0, 0, 0, 5]
#  Supercell matrix:    [5 0 0 0 5 0 0 0 5]
#=======================================================
lattice_vector 25.8599999999999994 0.0000000000000000 0.0000000000000000 
lattice_vector 0.0000000000000000 26.0749999999999993 0.0000000000000000 
lattice_vector -4.1792292901030699 0.0000000000000000 26.4164544846719487 
atom_frac 0.0553377772684000 0.0085317895752000 0.0419994764870000 Zr
atom_frac 0.2553377772684000 0.0085317895752000 0.0419994764870000 Zr
atom_frac 0.4553377772684000 0.0085317895752000 0.0419994764870000 Zr
atom_frac 0.6553377772684000 0.0085317895752000 0.0419994764870000 Zr
atom_frac 0.8553377772684001 0.0085317895752000 0.0419994764870000 Zr
atom_frac 0.0553377772684000 0.2085317895752000 0.0419994764870000 Zr
atom_frac 0.2553377772684000 0.2085317895752000 0.0419994764870000 Zr
atom_frac 0.4553377772684000 0.2085317895752000 0.0419994764870000 Zr
atom_frac 0.6553377772684000 0.2085317895752000 0.0419994764870000 Zr
atom_frac 0.8553377772684001 0.2085317895752000 0.0419994764870000 Zr
atom_frac 0.0553377772684000 0.4085317895752001 0.0419994764870000 Zr
atom_frac 0.2553377772684000 0.4085317895752001 0.0419994764870000 Zr
atom_frac 0.4553377772684000 0.4085317895752001 0.0419994764870000 Zr
atom_frac 0.6553377772684000 0.4085317895752001 0.0419994764870000 Zr
atom_frac 0.8553377772684001 0.4085317895752001 0.0419994764870000 Zr
atom_frac 0.0553377772684000 0.6085317895752000 0.0419994764870000 Zr
atom_frac 0.2553377772684000 0.6085317895752000 0.0419994764870000 Zr
atom_frac 0.4553377772684000 0.6085317895752000 0.0419994764870000 Zr
atom_frac 0.6553377772684000 0.6085317895752000 0.0419994764870000 Zr
atom_frac 0.8553377772684001 0.6085317895752000 0.0419994764870000 Zr
atom_frac 0.0553377772684000 0.8085317895752002 0.0419994764870000 Zr
atom_frac 0.2553377772684000 0.8085317895752002 0.0419994764870000 Zr
atom_frac 0.4553377772684000 0.8085317895752002 0.0419994764870000 Zr
atom_frac 0.6553377772684000 0.8085317895752002 0.0419994764870000 Zr
atom_frac 0.8553377772684001 0.8085317895752002 0.0419994764870000 Zr
atom_frac 0.0553377772684000 0.0085317895752000 0.2419994764870000 Zr
atom_frac 0.2553377772684000 0.0085317895752000 0.2419994764870000 Zr
atom_frac 0.4553377772684000 0.0085317895752000 0.2419994764870000 Zr
atom_frac 0.6553377772684000 0.0085317895752000 0.2419994764870000 Zr
atom_frac 0.8553377772684001 0.0085317895752000 0.2419994764870000 Zr
atom_frac 0.0553377772684000 0.2085317895752000 0.2419994764870000 Zr
atom_frac 0.2553377772684000 0.2085317895752000 0.2419994764870000 Zr
atom_frac 0.4553377772684000 0.2085317895752000 0.2419994764870000 Zr
atom_frac 0.6553377772684000 0.2085317895752000 0.2419994764870000 Zr
atom_frac 0.8553377772684001 0.2085317895752000 0.2419994764870000 Zr
atom_frac 0.0553377772684000 0.4085317895752001 0.2419994764870000 Zr
atom_frac 0.2553377772684000 0.4085317895752001 0.2419994764870000 Zr
atom_frac 0.4553377772684000 0.4085317895752001 0.2419994764870000 Zr
atom_frac 0.6553377772684000 0.4085317895752001 0.2419994764870000 Zr
atom_frac 0.8553377772684001 0.4085317895752001 0.2419994764870000 Zr
atom_frac 0.0553377772684000 0.6085317895752000 0.2419994764870000 Zr
atom_frac 0.2553377772684000 0.6085317895752000 0.2419994764870000 Zr
atom_frac 0.4553377772684000 0.6085317895752000 0.2419994764870000 Zr
atom_frac 0.6553377772684000 0.6085317895752000 0.2419994764870000 Zr
atom_frac 0.8553377772684001 0.6085317895752000 0.2419994764870000 Zr
atom_frac 0.0553377772684000 0.8085317895752002 0.2419994764870000 Zr
atom_frac 0.2553377772684000 0.8085317895752002 0.2419994764870000 Zr
atom_frac 0.4553377772684000 0.8085317895752002 0.2419994764870000 Zr
atom_frac 0.6553377772684000 0.8085317895752002 0.2419994764870000 Zr
atom_frac 0.8553377772684001 0.8085317895752002 0.2419994764870000 Zr
atom_frac 0.0553377772684000 0.0085317895752000 0.4419994764870001 Zr
atom_frac 0.2553377772684000 0.0085317895752000 0.4419994764870001 Zr
atom_frac 0.4553377772684000 0.0085317895752000 0.4419994764870001 Zr
atom_frac 0.6553377772684000 0.0085317895752000 0.4419994764870001 Zr
atom_frac 0.8553377772684001 0.0085317895752000 0.4419994764870001 Zr
atom_frac 0.0553377772684000 0.2085317895752000 0.4419994764870001 Zr
atom_frac 0.2553377772684000 0.2085317895752000 0.4419994764870001 Zr
atom_frac 0.4553377772684000 0.2085317895752000 0.4419994764870001 Zr
atom_frac 0.6553377772684000 0.2085317895752000 0.4419994764870001 Zr
atom_frac 0.8553377772684001 0.2085317895752000 0.4419994764870001 Zr
atom_frac 0.0553377772684000 0.4085317895752001 0.4419994764870001 Zr
atom_frac 0.2553377772684000 0.4085317895752001 0.4419994764870001 Zr
atom_frac 0.4553377772684000 0.4085317895752001 0.4419994764870001 Zr
atom_frac 0.6553377772684000 0.4085317895752001 0.4419994764870001 Zr
atom_frac 0.8553377772684001 0.4085317895752001 0.4419994764870001 Zr
atom_frac 0.0553377772684000 0.6085317895752000 0.4419994764870001 Zr
atom_frac 0.2553377772684000 0.6085317895752000 0.4419994764870001 Zr
atom_frac 0.4553377772684000 0.6085317895752000 0.4419994764870001 Zr
atom_frac 0.6553377772684000 0.6085317895752000 0.4419994764870001 Zr
atom_frac 0.8553377772684001 0.6085317895752000 0.4419994764870001 Zr
atom_frac 0.0553377772684000 0.8085317895752002 0.4419994764870001 Zr
atom_frac 0.2553377772684000 0.8085317895752002 0.4419994764870001 Zr
atom_frac 0.4553377772684000 0.8085317895752002 0.4419994764870001 Zr
atom_frac 0.6553377772684000 0.8085317895752002 0.4419994764870001 Zr
atom_frac 0.8553377772684001 0.8085317895752002 0.4419994764870001 Zr
atom_frac 0.0553377772684000 0.0085317895752000 0.6419994764870001 Zr
atom_frac 0.2553377772684000 0.0085317895752000 0.6419994764870001 Zr
atom_frac 0.4553377772684000 0.0085317895752000 0.6419994764870001 Zr
atom_frac 0.6553377772684000 0.0085317895752000 0.6419994764870001 Zr
atom_frac 0.8553377772684002 0.0085317895752000 0.6419994764870001 Zr
atom_frac 0.0553377772684000 0.2085317895752000 0.6419994764870001 Zr
atom_frac 0.2553377772684000 0.2085317895752000 0.6419994764870001 Zr
atom_frac 0.4553377772684000 0.2085317895752000 0.6419994764870001 Zr
atom_frac 0.6553377772684000 0.2085317895752000 0.6419994764870001 Zr
atom_frac 0.8553377772684002 0.2085317895752000 0.6419994764870001 Zr
atom_frac 0.0553377772684000 0.4085317895752001 0.6419994764870001 Zr
atom_frac 0.2553377772684000 0.4085317895752001 0.6419994764870001 Zr
atom_frac 0.4553377772684000 0.4085317895752001 0.6419994764870001 Zr
atom_frac 0.6553377772684000 0.4085317895752001 0.6419994764870001 Zr
atom_frac 0.8553377772684002 0.4085317895752001 0.6419994764870001 Zr
atom_frac 0.0553377772684000 0.6085317895752000 0.6419994764870001 Zr
atom_frac 0.2553377772684000 0.6085317895752000 0.6419994764870001 Zr
atom_frac 0.4553377772684000 0.6085317895752000 0.6419994764870001 Zr
atom_frac 0.6553377772684000 0.6085317895752000 0.6419994764870001 Zr
atom_frac 0.8553377772684002 0.6085317895752000 0.6419994764870001 Zr
atom_frac 0.0553377772684000 0.8085317895752002 0.6419994764870001 Zr
atom_frac 0.2553377772684000 0.8085317895752002 0.6419994764870001 Zr
atom_frac 0.4553377772684000 0.8085317895752002 0.6419994764870001 Zr
atom_frac 0.6553377772684000 0.8085317895752002 0.6419994764870001 Zr
atom_frac 0.8553377772684002 0.8085317895752002 0.6419994764870001 Zr
atom_frac 0.0553377772684000 0.0085317895752000 0.8419994764870001 Zr
atom_frac 0.2553377772684001 0.0085317895752000 0.8419994764870001 Zr
atom_frac 0.4553377772684000 0.0085317895752000 0.8419994764870001 Zr
atom_frac 0.6553377772684000 0.0085317895752000 0.8419994764870001 Zr
atom_frac 0.8553377772684001 0.0085317895752000 0.8419994764870001 Zr
atom_frac 0.0553377772684000 0.2085317895752000 0.8419994764870001 Zr
atom_frac 0.2553377772684001 0.2085317895752000 0.8419994764870001 Zr
atom_frac 0.4553377772684000 0.2085317895752000 0.8419994764870001 Zr
atom_frac 0.6553377772684000 0.2085317895752000 0.8419994764870001 Zr
atom_frac 0.8553377772684001 0.2085317895752000 0.8419994764870001 Zr
atom_frac 0.0553377772684000 0.4085317895752001 0.8419994764870001 Zr
atom_frac 0.2553377772684001 0.4085317895752001 0.8419994764870001 Zr
atom_frac 0.4553377772684000 0.4085317895752001 0.8419994764870001 Zr
atom_frac 0.6553377772684000 0.4085317895752001 0.8419994764870001 Zr
atom_frac 0.8553377772684001 0.4085317895752001 0.8419994764870001 Zr
atom_frac 0.0553377772684000 0.6085317895752000 0.8419994764870001 Zr
atom_frac 0.2553377772684001 0.6085317895752000 0.8419994764870001 Zr
atom_frac 0.4553377772684000 0.6085317895752000 0.8419994764870001 Zr
atom_frac 0.6553377772684000 0.6085317895752000 0.8419994764870001 Zr
atom_frac 0.8553377772684001 0.6085317895752000 0.8419994764870001 Zr
atom_frac 0.0553377772684000 0.8085317895752002 0.8419994764870001 Zr
atom_frac 0.2553377772684001 0.8085317895752002 0.8419994764870001 Zr
atom_frac 0.4553377772684000 0.8085317895752002 0.8419994764870001 Zr
atom_frac 0.6553377772684000 0.8085317895752002 0.8419994764870001 Zr
atom_frac 0.8553377772684001 0.8085317895752002 0.8419994764870001 Zr
atom_frac 0.1446622113316000 0.1914682104248000 0.1580005263130000 Zr
atom_frac 0.3446622113316000 0.1914682104248000 0.1580005263130000 Zr
atom_frac 0.5446622113316000 0.1914682104248000 0.1580005263130000 Zr
atom_frac 0.7446622113316000 0.1914682104248000 0.1580005263130000 Zr
atom_frac 0.9446622113316001 0.1914682104248000 0.1580005263130000 Zr
atom_frac 0.1446622113316000 0.3914682104248000 0.1580005263130000 Zr
atom_frac 0.3446622113316000 0.3914682104248000 0.1580005263130000 Zr
atom_frac 0.5446622113316000 0.3914682104248000 0.1580005263130000 Zr
atom_frac 0.7446622113316000 0.3914682104248000 0.1580005263130000 Zr
atom_frac 0.9446622113316001 0.3914682104248000 0.1580005263130000 Zr
atom_frac 0.1446622113316000 0.5914682104248000 0.1580005263130000 Zr
atom_frac 0.3446622113316000 0.5914682104248000 0.1580005263130000 Zr
atom_frac 0.5446622113316000 0.5914682104248000 0.1580005263130000 Zr
atom_frac 0.7446622113316000 0.5914682104248000 0.1580005263130000 Zr
atom_frac 0.9446622113316001 0.5914682104248000 0.1580005263130000 Zr
atom_frac 0.1446622113316000 0.7914682104248001 0.1580005263130000 Zr
atom_frac 0.3446622113316000 0.7914682104248001 0.1580005263130000 Zr
atom_frac 0.5446622113316000 0.7914682104248001 0.1580005263130000 Zr
atom_frac 0.7446622113316000 0.7914682104248001 0.1580005263130000 Zr
atom_frac 0.9446622113316001 0.7914682104248001 0.1580005263130000 Zr
atom_frac 0.1446622113316000 0.9914682104248000 0.1580005263130000 Zr
atom_frac 0.3446622113316000 0.9914682104248000 0.1580005263130000 Zr
atom_frac 0.5446622113316000 0.9914682104248000 0.1580005263130000 Zr
atom_frac 0.7446622113316000 0.9914682104248000 0.1580005263130000 Zr
atom_frac 0.9446622113316001 0.9914682104248000 0.1580005263130000 Zr
atom_frac 0.1446622113316000 0.1914682104248000 0.3580005263130001 Zr
atom_frac 0.3446622113316000 0.1914682104248000 0.3580005263130001 Zr
atom_frac 0.5446622113316000 0.1914682104248000 0.3580005263130001 Zr
atom_frac 0.7446622113316000 0.1914682104248000 0.3580005263130001 Zr
atom_frac 0.9446622113316001 0.1914682104248000 0.3580005263130001 Zr
atom_frac 0.1446622113316000 0.3914682104248000 0.3580005263130001 Zr
atom_frac 0.3446622113316000 0.3914682104248000 0.3580005263130001 Zr
atom_frac 0.5446622113316000 0.3914682104248000 0.3580005263130001 Zr
atom_frac 0.7446622113316000 0.3914682104248000 0.3580005263130001 Zr
atom_frac 0.9446622113316001 0.3914682104248000 0.3580005263130001 Zr
atom_frac 0.1446622113316000 0.5914682104248000 0.3580005263130001 Zr
atom_frac 0.3446622113316000 0.5914682104248000 0.3580005263130001 Zr
atom_frac 0.5446622113316000 0.5914682104248000 0.3580005263130001 Zr
atom_frac 0.7446622113316000 0.5914682104248000 0.3580005263130001 Zr
atom_frac 0.9446622113316001 0.5914682104248000 0.3580005263130001 Zr
atom_frac 0.1446622113316000 0.7914682104248001 0.3580005263130001 Zr
atom_frac 0.3446622113316000 0.7914682104248001 0.3580005263130001 Zr
atom_frac 0.5446622113316000 0.7914682104248001 0.3580005263130001 Zr
atom_frac 0.7446622113316000 0.7914682104248001 0.3580005263130001 Zr
atom_frac 0.9446622113316001 0.7914682104248001 0.3580005263130001 Zr
atom_frac 0.1446622113316000 0.9914682104248000 0.3580005263130001 Zr
atom_frac 0.3446622113316000 0.9914682104248000 0.3580005263130001 Zr
atom_frac 0.5446622113316000 0.9914682104248000 0.3580005263130001 Zr
atom_frac 0.7446622113316000 0.9914682104248000 0.3580005263130001 Zr
atom_frac 0.9446622113316001 0.9914682104248000 0.3580005263130001 Zr
atom_frac 0.1446622113316000 0.1914682104248000 0.5580005263130000 Zr
atom_frac 0.3446622113316000 0.1914682104248000 0.5580005263130000 Zr
atom_frac 0.5446622113316000 0.1914682104248000 0.5580005263130000 Zr
atom_frac 0.7446622113316000 0.1914682104248000 0.5580005263130000 Zr
atom_frac 0.9446622113316001 0.1914682104248000 0.5580005263130000 Zr
atom_frac 0.1446622113316000 0.3914682104248000 0.5580005263130000 Zr
atom_frac 0.3446622113316000 0.3914682104248000 0.5580005263130000 Zr
atom_frac 0.5446622113316000 0.3914682104248000 0.5580005263130000 Zr
atom_frac 0.7446622113316000 0.3914682104248000 0.5580005263130000 Zr
atom_frac 0.9446622113316001 0.3914682104248000 0.5580005263130000 Zr
atom_frac 0.1446622113316000 0.5914682104248000 0.5580005263130000 Zr
atom_frac 0.3446622113316000 0.5914682104248000 0.5580005263130000 Zr
atom_frac 0.5446622113316000 0.5914682104248000 0.5580005263130000 Zr
atom_frac 0.7446622113316000 0.5914682104248000 0.5580005263130000 Zr
atom_frac 0.9446622113316001 0.5914682104248000 0.5580005263130000 Zr
atom_frac 0.1446622113316000 0.7914682104248001 0.5580005263130000 Zr
atom_frac 0.3446622113316000 0.7914682104248001 0.5580005263130000 Zr
atom_frac 0.5446622113316000 0.7914682104248001 0.5580005263130000 Zr
atom_frac 0.7446622113316000 0.7914682104248001 0.5580005263130000 Zr
atom_frac 0.9446622113316001 0.7914682104248001 0.5580005263130000 Zr
atom_frac 0.1446622113316000 0.9914682104248000 0.5580005263130000 Zr
atom_frac 0.3446622113316000 0.9914682104248000 0.5580005263130000 Zr
atom_frac 0.5446622113316000 0.9914682104248000 0.5580005263130000 Zr
atom_frac 0.7446622113316000 0.9914682104248000 0.5580005263130000 Zr
atom_frac 0.9446622113316001 0.9914682104248000 0.5580005263130000 Zr
atom_frac 0.1446622113316000 0.1914682104248000 0.7580005263130001 Zr
atom_frac 0.3446622113316000 0.1914682104248000 0.7580005263130001 Zr
atom_frac 0.5446622113316000 0.1914682104248000 0.7580005263130001 Zr
atom_frac 0.7446622113316000 0.1914682104248000 0.7580005263130001 Zr
atom_frac 0.9446622113316001 0.1914682104248000 0.7580005263130001 Zr
atom_frac 0.1446622113316000 0.3914682104248000 0.7580005263130001 Zr
atom_frac 0.3446622113316000 0.3914682104248000 0.7580005263130001 Zr
atom_frac 0.5446622113316000 0.3914682104248000 0.7580005263130001 Zr
atom_frac 0.7446622113316000 0.3914682104248000 0.7580005263130001 Zr
atom_frac 0.9446622113316001 0.3914682104248000 0.7580005263130001 Zr
atom_frac 0.1446622113316000 0.5914682104248000 0.7580005263130001 Zr
atom_frac 0.3446622113316000 0.5914682104248000 0.7580005263130001 Zr
atom_frac 0.5446622113316000 0.5914682104248000 0.7580005263130001 Zr
atom_frac 0.7446622113316000 0.5914682104248000 0.7580005263130001 Zr
atom_frac 0.9446622113316001 0.5914682104248000 0.7580005263130001 Zr
atom_frac 0.1446622113316000 0.7914682104248001 0.7580005263130001 Zr
atom_frac 0.3446622113316000 0.7914682104248001 0.7580005263130001 Zr
atom_frac 0.5446622113316000 0.7914682104248001 0.7580005263130001 Zr
atom_frac 0.7446622113316000 0.7914682104248001 0.7580005263130001 Zr
atom_frac 0.9446622113316001 0.7914682104248001 0.7580005263130001 Zr
atom_frac 0.1446622113316000 0.9914682104248000 0.7580005263130001 Zr
atom_frac 0.3446622113316000 0.9914682104248000 0.7580005263130001 Zr
atom_frac 0.5446622113316000 0.9914682104248000 0.7580005263130001 Zr
atom_frac 0.7446622113316000 0.9914682104248000 0.7580005263130001 Zr
atom_frac 0.9446622113316001 0.9914682104248000 0.7580005263130001 Zr
atom_frac 0.1446622113316000 0.1914682104248000 0.9580005263130001 Zr
atom_frac 0.3446622113316000 0.1914682104248000 0.9580005263130001 Zr
atom_frac 0.5446622113316000 0.1914682104248000 0.9580005263130001 Zr
atom_frac 0.7446622113316000 0.1914682104248000 0.9580005263130001 Zr
atom_frac 0.9446622113316001 0.1914682104248000 0.9580005263130001 Zr
atom_frac 0.1446622113316000 0.3914682104248000 0.9580005263130001 Zr
atom_frac 0.3446622113316000 0.3914682104248000 0.9580005263130001 Zr
atom_frac 0.5446622113316000 0.3914682104248000 0.9580005263130001 Zr
atom_frac 0.7446622113316000 0.3914682104248000 0.9580005263130001 Zr
atom_frac 0.9446622113316001 0.3914682104248000 0.9580005263130001 Zr
atom_frac 0.1446622113316000 0.5914682104248000 0.9580005263130001 Zr
atom_frac 0.3446622113316000 0.5914682104248000 0.9580005263130001 Zr
atom_frac 0.5446622113316000 0.5914682104248000 0.9580005263130001 Zr
atom_frac 0.7446622113316000 0.5914682104248000 0.9580005263130001 Zr
atom_frac 0.9446622113316001 0.5914682104248000 0.9580005263130001 Zr
atom_frac 0.1446622113316000 0.7914682104248001 0.9580005263130001 Zr
atom_frac 0.3446622113316000 0.7914682104248001 0.9580005263130001 Zr
atom_frac 0.5446622113316000 0.7914682104248001 0.9580005263130001 Zr
atom_frac 0.7446622113316000 0.7914682104248001 0.9580005263130001 Zr
atom_frac 0.9446622113316001 0.7914682104248001 0.9580005263130001 Zr
atom_frac 0.1446622113316000 0.9914682104248000 0.9580005263130001 Zr
atom_frac 0.3446622113316000 0.9914682104248000 0.9580005263130001 Zr
atom_frac 0.5446622113316000 0.9914682104248000 0.9580005263130001 Zr
atom_frac 0.7446622113316000 0.9914682104248000 0.9580005263130001 Zr
atom_frac 0.9446622113316001 0.9914682104248000 0.9580005263130001 Zr
atom_frac 0.1446622113316000 0.1085317895752000 0.0580005263130000 Zr
atom_frac 0.3446622113316000 0.1085317895752000 0.0580005263130000 Zr
atom_frac 0.5446622113316000 0.1085317895752000 0.0580005263130000 Zr
atom_frac 0.7446622113316000 0.1085317895752000 0.0580005263130000 Zr
atom_frac 0.9446622113316001 0.1085317895752000 0.0580005263130000 Zr
atom_frac 0.1446622113316000 0.3085317895752001 0.0580005263130000 Zr
atom_frac 0.3446622113316000 0.3085317895752001 0.0580005263130000 Zr
atom_frac 0.5446622113316000 0.3085317895752001 0.0580005263130000 Zr
atom_frac 0.7446622113316000 0.3085317895752001 0.0580005263130000 Zr
atom_frac 0.9446622113316001 0.3085317895752001 0.0580005263130000 Zr
atom_frac 0.1446622113316000 0.5085317895752001 0.0580005263130000 Zr
atom_frac 0.3446622113316000 0.5085317895752001 0.0580005263130000 Zr
atom_frac 0.5446622113316000 0.5085317895752001 0.0580005263130000 Zr
atom_frac 0.7446622113316000 0.5085317895752001 0.0580005263130000 Zr
atom_frac 0.9446622113316001 0.5085317895752001 0.0580005263130000 Zr
atom_frac 0.1446622113316000 0.7085317895752002 0.0580005263130000 Zr
atom_frac 0.3446622113316000 0.7085317895752002 0.0580005263130000 Zr
atom_frac 0.5446622113316000 0.7085317895752002 0.0580005263130000 Zr
atom_frac 0.7446622113316000 0.7085317895752002 0.0580005263130000 Zr
atom_frac 0.9446622113316001 0.7085317895752002 0.0580005263130000 Zr
atom_frac 0.1446622113316000 0.9085317895752001 0.0580005263130000 Zr
atom_frac 0.3446622113316000 0.9085317895752001 0.0580005263130000 Zr
atom_frac 0.5446622113316000 0.9085317895752001 0.0580005263130000 Zr
atom_frac 0.7446622113316000 0.9085317895752001 0.0580005263130000 Zr
atom_frac 0.9446622113316001 0.9085317895752001 0.0580005263130000 Zr
atom_frac 0.1446622113316000 0.1085317895752000 0.2580005263130000 Zr
atom_frac 0.3446622113316000 0.1085317895752000 0.2580005263130000 Zr
atom_frac 0.5446622113316000 0.1085317895752000 0.2580005263130000 Zr
atom_frac 0.7446622113316000 0.1085317895752000 0.2580005263130000 Zr
atom_frac 0.9446622113316001 0.1085317895752000 0.2580005263130000 Zr
atom_frac 0.1446622113316000 0.3085317895752001 0.2580005263130000 Zr
atom_frac 0.3446622113316000 0.3085317895752001 0.2580005263130000 Zr
atom_frac 0.5446622113316000 0.3085317895752001 0.2580005263130000 Zr
atom_frac 0.7446622113316000 0.3085317895752001 0.2580005263130000 Zr
atom_frac 0.9446622113316001 0.3085317895752001 0.2580005263130000 Zr
atom_frac 0.1446622113316000 0.5085317895752001 0.2580005263130000 Zr
atom_frac 0.3446622113316000 0.5085317895752001 0.2580005263130000 Zr
atom_frac 0.5446622113316000 0.5085317895752001 0.2580005263130000 Zr
atom_frac 0.7446622113316000 0.5085317895752001 0.2580005263130000 Zr
atom_frac 0.9446622113316001 0.5085317895752001 0.2580005263130000 Zr
atom_frac 0.1446622113316000 0.7085317895752002 0.2580005263130000 Zr
atom_frac 0.3446622113316000 0.7085317895752002 0.2580005263130000 Zr
atom_frac 0.5446622113316000 0.7085317895752002 0.2580005263130000 Zr
atom_frac 0.7446622113316000 0.7085317895752002 0.2580005263130000 Zr
atom_frac 0.9446622113316001 0.7085317895752002 0.2580005263130000 Zr
atom_frac 0.1446622113316000 0.9085317895752001 0.2580005263130000 Zr
atom_frac 0.3446622113316000 0.9085317895752001 0.2580005263130000 Zr
atom_frac 0.5446622113316000 0.9085317895752001 0.2580005263130000 Zr
atom_frac 0.7446622113316000 0.9085317895752001 0.2580005263130000 Zr
atom_frac 0.9446622113316001 0.9085317895752001 0.2580005263130000 Zr
atom_frac 0.1446622113316000 0.1085317895752000 0.4580005263130000 Zr
atom_frac 0.3446622113316000 0.1085317895752000 0.4580005263130000 Zr
atom_frac 0.5446622113316000 0.1085317895752000 0.4580005263130000 Zr
atom_frac 0.7446622113316000 0.1085317895752000 0.4580005263130000 Zr
atom_frac 0.9446622113316001 0.1085317895752000 0.4580005263130000 Zr
atom_frac 0.1446622113316000 0.3085317895752001 0.4580005263130000 Zr
atom_frac 0.3446622113316000 0.3085317895752001 0.4580005263130000 Zr
atom_frac 0.5446622113316000 0.3085317895752001 0.4580005263130000 Zr
atom_frac 0.7446622113316000 0.3085317895752001 0.4580005263130000 Zr
atom_frac 0.9446622113316001 0.3085317895752001 0.4580005263130000 Zr
atom_frac 0.1446622113316000 0.5085317895752001 0.4580005263130000 Zr
atom_frac 0.3446622113316000 0.5085317895752001 0.4580005263130000 Zr
atom_frac 0.5446622113316000 0.5085317895752001 0.4580005263130000 Zr
atom_frac 0.7446622113316000 0.5085317895752001 0.4580005263130000 Zr
atom_frac 0.9446622113316001 0.5085317895752001 0.4580005263130000 Zr
atom_frac 0.1446622113316000 0.7085317895752002 0.4580005263130000 Zr
atom_frac 0.3446622113316000 0.7085317895752002 0.4580005263130000 Zr
atom_frac 0.5446622113316000 0.7085317895752002 0.4580005263130000 Zr
atom_frac 0.7446622113316000 0.7085317895752002 0.4580005263130000 Zr
atom_frac 0.9446622113316001 0.7085317895752002 0.4580005263130000 Zr
atom_frac 0.1446622113316000 0.9085317895752001 0.4580005263130000 Zr
atom_frac 0.3446622113316000 0.9085317895752001 0.4580005263130000 Zr
atom_frac 0.5446622113316000 0.9085317895752001 0.4580005263130000 Zr
atom_frac 0.7446622113316000 0.9085317895752001 0.4580005263130000 Zr
atom_frac 0.9446622113316001 0.9085317895752001 0.4580005263130000 Zr
atom_frac 0.1446622113316000 0.1085317895752000 0.6580005263130001 Zr
atom_frac 0.3446622113316000 0.1085317895752000 0.6580005263130001 Zr
atom_frac 0.5446622113316000 0.1085317895752000 0.6580005263130001 Zr
atom_frac 0.7446622113316000 0.1085317895752000 0.6580005263130001 Zr
atom_frac 0.9446622113316001 0.1085317895752000 0.6580005263130001 Zr
atom_frac 0.1446622113316000 0.3085317895752001 0.6580005263130001 Zr
atom_frac 0.3446622113316000 0.3085317895752001 0.6580005263130001 Zr
atom_frac 0.5446622113316000 0.3085317895752001 0.6580005263130001 Zr
atom_frac 0.7446622113316000 0.3085317895752001 0.6580005263130001 Zr
atom_frac 0.9446622113316001 0.3085317895752001 0.6580005263130001 Zr
atom_frac 0.1446622113316000 0.5085317895752001 0.6580005263130001 Zr
atom_frac 0.3446622113316000 0.5085317895752001 0.6580005263130001 Zr
atom_frac 0.5446622113316000 0.5085317895752001 0.6580005263130001 Zr
atom_frac 0.7446622113316000 0.5085317895752001 0.6580005263130001 Zr
atom_frac 0.9446622113316001 0.5085317895752001 0.6580005263130001 Zr
atom_frac 0.1446622113316000 0.7085317895752002 0.6580005263130001 Zr
atom_frac 0.3446622113316000 0.7085317895752002 0.6580005263130001 Zr
atom_frac 0.5446622113316000 0.7085317895752002 0.6580005263130001 Zr
atom_frac 0.7446622113316000 0.7085317895752002 0.6580005263130001 Zr
atom_frac 0.9446622113316001 0.7085317895752002 0.6580005263130001 Zr
atom_frac 0.1446622113316000 0.9085317895752001 0.6580005263130001 Zr
atom_frac 0.3446622113316000 0.9085317895752001 0.6580005263130001 Zr
atom_frac 0.5446622113316000 0.9085317895752001 0.6580005263130001 Zr
atom_frac 0.7446622113316000 0.9085317895752001 0.6580005263130001 Zr
atom_frac 0.9446622113316001 0.9085317895752001 0.6580005263130001 Zr
atom_frac 0.1446622113316000 0.1085317895752000 0.8580005263130002 Zr
atom_frac 0.3446622113316000 0.1085317895752000 0.8580005263130002 Zr
atom_frac 0.5446622113316000 0.1085317895752000 0.8580005263130002 Zr
atom_frac 0.7446622113316000 0.1085317895752000 0.8580005263130002 Zr
atom_frac 0.9446622113316001 0.1085317895752000 0.8580005263130002 Zr
atom_frac 0.1446622113316000 0.3085317895752001 0.8580005263130002 Zr
atom_frac 0.3446622113316000 0.3085317895752001 0.8580005263130002 Zr
atom_frac 0.5446622113316000 0.3085317895752001 0.8580005263130002 Zr
atom_frac 0.7446622113316000 0.3085317895752001 0.8580005263130002 Zr
atom_frac 0.9446622113316001 0.3085317895752001 0.8580005263130002 Zr
atom_frac 0.1446622113316000 0.5085317895752001 0.8580005263130002 Zr
atom_frac 0.3446622113316000 0.5085317895752001 0.8580005263130002 Zr
atom_frac 0.5446622113316000 0.5085317895752001 0.8580005263130002 Zr
atom_frac 0.7446622113316000 0.5085317895752001 0.8580005263130002 Zr
atom_frac 0.9446622113316001 0.5085317895752001 0.8580005263130002 Zr
atom_frac 0.1446622113316000 0.7085317895752002 0.8580005263130002 Zr
atom_frac 0.3446622113316000 0.7085317895752002 0.8580005263130002 Zr
atom_frac 0.5446622113316000 0.7085317895752002 0.8580005263130002 Zr
atom_frac 0.7446622113316000 0.7085317895752002 0.8580005263130002 Zr
atom_frac 0.9446622113316001 0.7085317895752002 0.8580005263130002 Zr
atom_frac 0.1446622113316000 0.9085317895752001 0.8580005263130002 Zr
atom_frac 0.3446622113316000 0.9085317895752001 0.8580005263130002 Zr
atom_frac 0.5446622113316000 0.9085317895752001 0.8580005263130002 Zr
atom_frac 0.7446622113316000 0.9085317895752001 0.8580005263130002 Zr
atom_frac 0.9446622113316001 0.9085317895752001 0.8580005263130002 Zr
atom_frac 0.0553377772684000 0.0914682104248000 0.1419994764870000 Zr
atom_frac 0.2553377772684000 0.0914682104248000 0.1419994764870000 Zr
atom_frac 0.4553377772684000 0.0914682104248000 0.1419994764870000 Zr
atom_frac 0.6553377772684000 0.0914682104248000 0.1419994764870000 Zr
atom_frac 0.8553377772684001 0.0914682104248000 0.1419994764870000 Zr
atom_frac 0.0553377772684000 0.2914682104248000 0.1419994764870000 Zr
atom_frac 0.2553377772684000 0.2914682104248000 0.1419994764870000 Zr
atom_frac 0.4553377772684000 0.2914682104248000 0.1419994764870000 Zr
atom_frac 0.6553377772684000 0.2914682104248000 0.1419994764870000 Zr
atom_frac 0.8553377772684001 0.2914682104248000 0.1419994764870000 Zr
atom_frac 0.0553377772684000 0.4914682104248000 0.1419994764870000 Zr
atom_frac 0.2553377772684000 0.4914682104248000 0.1419994764870000 Zr
atom_frac 0.4553377772684000 0.4914682104248000 0.1419994764870000 Zr
atom_frac 0.6553377772684000 0.4914682104248000 0.1419994764870000 Zr
atom_frac 0.8553377772684001 0.4914682104248000 0.1419994764870000 Zr
atom_frac 0.0553377772684000 0.6914682104248000 0.1419994764870000 Zr
atom_frac 0.2553377772684000 0.6914682104248000 0.1419994764870000 Zr
atom_frac 0.4553377772684000 0.6914682104248000 0.1419994764870000 Zr
atom_frac 0.6553377772684000 0.6914682104248000 0.1419994764870000 Zr
atom_frac 0.8553377772684001 0.6914682104248000 0.1419994764870000 Zr
atom_frac 0.0553377772684000 0.8914682104248000 0.1419994764870000 Zr
atom_frac 0.2553377772684000 0.8914682104248000 0.1419994764870000 Zr
atom_frac 0.4553377772684000 0.8914682104248000 0.1419994764870000 Zr
atom_frac 0.6553377772684000 0.8914682104248000 0.1419994764870000 Zr
atom_frac 0.8553377772684001 0.8914682104248000 0.1419994764870000 Zr
atom_frac 0.0553377772684000 0.0914682104248000 0.3419994764870000 Zr
atom_frac 0.2553377772684000 0.0914682104248000 0.3419994764870000 Zr
atom_frac 0.4553377772684000 0.0914682104248000 0.3419994764870000 Zr
atom_frac 0.6553377772684000 0.0914682104248000 0.3419994764870000 Zr
atom_frac 0.8553377772684002 0.0914682104248000 0.3419994764870000 Zr
atom_frac 0.0553377772684000 0.2914682104248000 0.3419994764870000 Zr
atom_frac 0.2553377772684000 0.2914682104248000 0.3419994764870000 Zr
atom_frac 0.4553377772684000 0.2914682104248000 0.3419994764870000 Zr
atom_frac 0.6553377772684000 0.2914682104248000 0.3419994764870000 Zr
atom_frac 0.8553377772684002 0.2914682104248000 0.3419994764870000 Zr
atom_frac 0.0553377772684000 0.4914682104248000 0.3419994764870000 Zr
atom_frac 0.2553377772684000 0.4914682104248000 0.3419994764870000 Zr
atom_frac 0.4553377772684000 0.4914682104248000 0.3419994764870000 Zr
atom_frac 0.6553377772684000 0.4914682104248000 0.3419994764870000 Zr
atom_frac 0.8553377772684002 0.4914682104248000 0.3419994764870000 Zr
atom_frac 0.0553377772684000 0.6914682104248000 0.3419994764870000 Zr
atom_frac 0.2553377772684000 0.6914682104248000 0.3419994764870000 Zr
atom_frac 0.4553377772684000 0.6914682104248000 0.3419994764870000 Zr