#=======================================================
# FHI-aims file: 1400_geometry.in.primitive.supercell_768.0010K
# Created using the Atomic Simulation Environment (ASE)
# Wed Aug 24 14:05:28 2022

# Additional information:
#  created from MB distrubtion
#  T = 10.0 K
#  quantum:             False
#  deterministic:       False
#  plus_minus:          False
#  gauge_eigenvectors:  False
#  Random seed:         1341478976
#  Sample number:       1
#=======================================================
lattice_vector 20.7839999999999989 0.0000000000000000 0.0000000000000000 
lattice_vector 0.0000000000000000 20.8760000000000012 0.0000000000000000 
lattice_vector -3.2551393852330439 0.0000000000000000 21.3047593645810664 
atom 1.2667827658430284 0.2226370489648440 1.1184859249923944 Zr
    velocity -0.3786684280150619 0.4867530513877354 0.4429416159337906
atom 6.4627827658430279 0.2226370489648440 1.1184859249923944 Zr
    velocity -0.1904978583661668 -0.0892679193846990 0.1658891412156592
atom 11.6587827658430250 0.2226370489648440 1.1184859249923944 Zr
    velocity 0.0446237557503914 0.0341035648574719 -0.4095202250537884
atom 16.8547827658430265 0.2226370489648440 1.1184859249923944 Zr
    velocity -0.3837474795420539 -0.0181788301096631 -0.2483734510513048
atom 1.2667827658430284 5.4416370489648447 1.1184859249923944 Zr
    velocity -0.0518733534515219 -0.0714567525452444 0.1434368212154203
atom 6.4627827658430279 5.4416370489648447 1.1184859249923944 Zr
    velocity 0.0635366473043210 -0.2222293946100110 0.1009368435244666
atom 11.6587827658430250 5.4416370489648447 1.1184859249923944 Zr
    velocity 0.0110514020511947 0.0883140828524476 0.3312932963520820
atom 16.8547827658430265 5.4416370489648447 1.1184859249923944 Zr
    velocity -0.4565684534690913 0.0800700659024546 0.4251558725325874
atom 1.2667827658430284 10.6606370489648459 1.1184859249923944 Zr
    velocity 0.6097123467379865 0.1562591860872760 0.1956526477247776
atom 6.4627827658430279 10.6606370489648459 1.1184859249923944 Zr
    velocity 0.3453838997566804 -0.1394268878116794 -0.3013024208683903
atom 11.6587827658430250 10.6606370489648459 1.1184859249923944 Zr
    velocity -0.1469564694142428 -0.1346982626442741 -0.3859587224203696
atom 16.8547827658430265 10.6606370489648459 1.1184859249923944 Zr
    velocity -0.1706616702002166 0.3022876401994862 -0.0782423741439680
atom 1.2667827658430284 15.8796370489648453 1.1184859249923944 Zr
    velocity 0.7916248838420737 0.0362517278682010 0.0891407002224468
atom 6.4627827658430279 15.8796370489648453 1.1184859249923944 Zr
    velocity 0.1700240816250855 -0.1104641392281867 0.3361645623694567
atom 11.6587827658430250 15.8796370489648453 1.1184859249923944 Zr
    velocity 0.1970568795017918 -0.0032078880131789 0.2481606214560534
atom 16.8547827658430265 15.8796370489648453 1.1184859249923944 Zr
    velocity -0.0178133119498991 -0.2752458373395337 0.4290852291687889
atom 0.4529979195347674 0.2226370489648440 6.4446757661376619 Zr
    velocity -0.0294909133386241 0.0801103376358670 -0.3528281927577588
atom 5.6489979195347670 0.2226370489648440 6.4446757661376619 Zr
    velocity 0.5185309717954825 -0.0969416066116489 0.7406144090098399
atom 10.8449979195347641 0.2226370489648440 6.4446757661376619 Zr
    velocity 0.2763447541251796 0.3861242414833705 -0.2701372576200497
atom 16.0409979195347674 0.2226370489648440 6.4446757661376619 Zr
    velocity 0.1368341259344451 0.2277083122113195 -0.5727466998643080
atom 0.4529979195347674 5.4416370489648447 6.4446757661376619 Zr
    velocity 0.2166378705669956 0.0897920790198688 -0.1802484589108112
atom 5.6489979195347670 5.4416370489648447 6.4446757661376619 Zr
    velocity -0.4284528386873223 0.0575935783971894 -0.1750276413889587
atom 10.8449979195347641 5.4416370489648447 6.4446757661376619 Zr
    velocity -0.3644643993842090 -0.8575846663403309 0.0384847197063035
atom 16.0409979195347674 5.4416370489648447 6.4446757661376619 Zr
    velocity 0.0597719730449676 -0.1747265305052609 0.5377986739455852
atom 0.4529979195347674 10.6606370489648459 6.4446757661376619 Zr
    velocity -0.0765705363992002 0.0759568324824183 0.3796587549872945
atom 5.6489979195347670 10.6606370489648459 6.4446757661376619 Zr
    velocity -0.2433170494583557 -0.5843006225592435 0.5325428048808463
atom 10.8449979195347641 10.6606370489648459 6.4446757661376619 Zr
    velocity -0.2791133023441471 -0.0393972281334300 0.3331033287195163
atom 16.0409979195347674 10.6606370489648459 6.4446757661376619 Zr
    velocity -0.1795813888729441 0.2048496546823479 -0.0258694120410873
atom 0.4529979195347674 15.8796370489648453 6.4446757661376619 Zr
    velocity 0.0976142395142729 -0.0110642021497576 -0.4246694480552968
atom 5.6489979195347670 15.8796370489648453 6.4446757661376619 Zr
    velocity -0.3221453170155182 0.4390159510572134 -0.3688107980171041
atom 10.8449979195347641 15.8796370489648453 6.4446757661376619 Zr
    velocity -0.4169630653895043 -0.5284699140091037 -0.1210492637422639
atom 16.0409979195347674 15.8796370489648453 6.4446757661376619 Zr
    velocity -0.4258479848774687 -0.1246444648378301 -0.2641512820469124
atom -0.3607869267734936 0.2226370489648440 11.7708656072829285 Zr
    velocity 0.6667048807382248 -0.1092368224775485 0.1905589379628685
atom 4.8352130732265062 0.2226370489648440 11.7708656072829285 Zr
    velocity 0.2181817270907940 -0.4023201179005975 -0.0187070350387785
atom 10.0312130732265015 0.2226370489648440 11.7708656072829285 Zr
    velocity -0.0625776224850474 -0.1654437845894787 0.0539302621795902
atom 15.2272130732265047 0.2226370489648440 11.7708656072829285 Zr
    velocity -0.1092567678526539 -0.7987085145121287 -0.2631499886146195
atom -0.3607869267734936 5.4416370489648447 11.7708656072829285 Zr
    velocity -0.0812116875713017 0.2880741113499631 -0.0381430868096404
atom 4.8352130732265062 5.4416370489648447 11.7708656072829285 Zr
    velocity 0.2602345278276369 -0.2547641011701423 0.2029799772477520
atom 10.0312130732265015 5.4416370489648447 11.7708656072829285 Zr
    velocity 0.3476330401195956 -0.0436294428770384 0.0420374936758343
atom 15.2272130732265047 5.4416370489648447 11.7708656072829285 Zr
    velocity 0.2880853781732611 -0.1323788032868259 0.1509365236978071
atom -0.3607869267734936 10.6606370489648459 11.7708656072829285 Zr
    velocity -0.4714828715857899 0.0675489414019066 -0.3108678097569428
atom 4.8352130732265062 10.6606370489648459 11.7708656072829285 Zr
    velocity -0.1431146066395379 0.0479130191723804 -0.3805071743904268
atom 10.0312130732265015 10.6606370489648459 11.7708656072829285 Zr
    velocity 0.3551674350256279 0.3497997244815830 0.1618971872225428
atom 15.2272130732265047 10.6606370489648459 11.7708656072829285 Zr
    velocity 0.1531432458062316 -0.4130410487147823 -0.1513067082647139
atom -0.3607869267734936 15.8796370489648453 11.7708656072829285 Zr
    velocity 0.2218654232425092 0.3581559646915016 -0.1257743346922528
atom 4.8352130732265062 15.8796370489648453 11.7708656072829285 Zr
    velocity -0.2778759611670037 -0.2506780090454240 -0.3448263430458900
atom 10.0312130732265015 15.8796370489648453 11.7708656072829285 Zr
    velocity -0.1464587078919334 -0.4439519744761976 0.3112902114543932
atom 15.2272130732265047 15.8796370489648453 11.7708656072829285 Zr
    velocity -0.0853971751212803 -0.2798349727256375 0.2739849554648424
atom -1.1745717730817562 0.2226370489648440 17.0970554484281934 Zr
    velocity 0.2129966144327427 -0.1304874256672229 0.0444389892755412
atom 4.0214282269182435 0.2226370489648440 17.0970554484281934 Zr
    velocity 0.4391558925970444 -0.3867849006359906 -0.4016959881053079
atom 9.2174282269182424 0.2226370489648440 17.0970554484281934 Zr
    velocity -0.6987325706139741 -0.2619492934359241 -0.1744568150546104
atom 14.4134282269182457 0.2226370489648440 17.0970554484281934 Zr
    velocity -0.3243436299892254 0.0191188321892428 0.1345346170345506
atom -1.1745717730817562 5.4416370489648447 17.0970554484281934 Zr
    velocity 0.2471013710621792 0.6469099425424972 -0.1440424895092337
atom 4.0214282269182435 5.4416370489648447 17.0970554484281934 Zr
    velocity -0.1691760740118140 0.0877534776295263 0.3950383580534384
atom 9.2174282269182424 5.4416370489648447 17.0970554484281934 Zr
    velocity 0.3445163899005770 0.1573228380538050 0.2860473596821309
atom 14.4134282269182457 5.4416370489648447 17.0970554484281934 Zr
    velocity 0.4135425685776125 0.0948239306732223 0.0926985299459276
atom -1.1745717730817562 10.6606370489648459 17.0970554484281934 Zr
    velocity 0.0134882520353159 0.4663877610400197 0.3899560934000000
atom 4.0214282269182435 10.6606370489648459 17.0970554484281934 Zr
    velocity 0.2394602514794567 0.7487992701544477 -0.0851354017898165
atom 9.2174282269182424 10.6606370489648459 17.0970554484281934 Zr
    velocity 0.3801306953838320 -0.7818065018315242 -0.1134561818575762
atom 14.4134282269182457 10.6606370489648459 17.0970554484281934 Zr
    velocity 0.5602628841090397 0.0356951974320151 -0.3359671953582435
atom -1.1745717730817562 15.8796370489648453 17.0970554484281934 Zr
    velocity 0.1916444892706611 -0.1793841628607797 -0.4656814161437393
atom 4.0214282269182435 15.8796370489648453 17.0970554484281934 Zr
    velocity -0.2635644267589357 -0.1199860272644170 -0.1803990604790705
atom 9.2174282269182424 15.8796370489648453 17.0970554484281934 Zr
    velocity 0.3323698155471770 -0.2532718094934163 0.1487340003717622
atom 14.4134282269182457 15.8796370489648453 17.0970554484281934 Zr
    velocity -0.5849382195882357 -0.1796568631016242 -0.7579686815909920
atom 3.1154320802837203 4.9963629510351559 4.2077039907195299 Zr
    velocity -0.3905166639535056 0.3735825505263075 -0.0189262065522537
atom 8.3114320802837192 4.9963629510351559 4.2077039907195299 Zr
    velocity 0.0665968302376189 0.3478833321846682 0.1276565410131500
atom 13.5074320802837189 4.9963629510351559 4.2077039907195299 Zr
    velocity 0.2844837880775317 -0.1098053253326166 0.1674170211214939
atom 18.7034320802837222 4.9963629510351559 4.2077039907195299 Zr
    velocity -0.3078890353473944 0.1549471451803886 0.0875975686811267
atom 3.1154320802837203 10.2153629510351571 4.2077039907195299 Zr
    velocity 0.2792206905729854 0.0234893084879936 -0.5527712934154472
atom 8.3114320802837192 10.2153629510351571 4.2077039907195299 Zr
    velocity -0.2024579364026288 0.4989461576795592 -0.2904209530491309
atom 13.5074320802837189 10.2153629510351571 4.2077039907195299 Zr
    velocity 0.0062359325569756 -0.2130314075260111 0.2012863844533525
atom 18.7034320802837222 10.2153629510351571 4.2077039907195299 Zr
    velocity 0.1949480710094644 0.1069427893918893 -0.0524804037211914
atom 3.1154320802837203 15.4343629510351583 4.2077039907195299 Zr
    velocity 0.0804375969791120 -0.0451039730769735 0.2417429409527852
atom 8.3114320802837192 15.4343629510351583 4.2077039907195299 Zr
    velocity 0.2487681841930350 0.3351142240522739 -0.3559249814678216
atom 13.5074320802837189 15.4343629510351583 4.2077039907195299 Zr
    velocity -0.0757422455823199 -0.2892553878520403 0.3519893813243771
atom 18.7034320802837222 15.4343629510351583 4.2077039907195299 Zr
    velocity 0.6884057514781827 0.4064476737519664 -0.0786419450606221
atom 3.1154320802837203 20.6533629510351595 4.2077039907195299 Zr
    velocity -0.3843077795232377 -0.1392943086680073 0.1350686322989474
atom 8.3114320802837192 20.6533629510351595 4.2077039907195299 Zr
    velocity 0.4045121541140822 -0.2503237672210111 0.2640205049781060
atom 13.5074320802837189 20.6533629510351595 4.2077039907195299 Zr
    velocity 0.3121140701286387 0.1147894414691796 0.4192731584123990
atom 18.7034320802837222 20.6533629510351595 4.2077039907195299 Zr
    velocity -0.0373038723213526 -0.7082748854537926 0.0751881838496942
atom 2.3016472339754595 4.9963629510351559 9.5338938318647966 Zr
    velocity -0.0900391976084700 0.1569245289404026 0.0026914492874924
atom 7.4976472339754592 4.9963629510351559 9.5338938318647966 Zr
    velocity -0.2256474891939269 -0.2390680363400797 0.1671113304723699
atom 12.6936472339754580 4.9963629510351559 9.5338938318647966 Zr
    velocity -0.4573977327647867 0.6416456412464828 0.5712018299630176
atom 17.8896472339754631 4.9963629510351559 9.5338938318647966 Zr
    velocity 0.2034063550924055 0.1121497857413009 0.2433954690815834
atom 2.3016472339754595 10.2153629510351571 9.5338938318647966 Zr
    velocity -0.0652844840398382 -0.2150262817057599 0.5796288955595280
atom 7.4976472339754592 10.2153629510351571 9.5338938318647966 Zr
    velocity -0.3302319894503719 0.1664564607291102 0.2078265168793064
atom 12.6936472339754580 10.2153629510351571 9.5338938318647966 Zr
    velocity -0.0317553389828919 0.2961547008960358 -0.0860205298601173
atom 17.8896472339754631 10.2153629510351571 9.5338938318647966 Zr
    velocity 0.0741752519845875 0.5876539037990901 -0.3933399288872141
atom 2.3016472339754595 15.4343629510351583 9.5338938318647966 Zr
    velocity -0.2306607998285895 -0.4151786289634936 0.5099928437731880
atom 7.4976472339754592 15.4343629510351583 9.5338938318647966 Zr
    velocity -0.3834233953130260 -0.2519064461834045 -0.1106838519137314
atom 12.6936472339754580 15.4343629510351583 9.5338938318647966 Zr
    velocity -0.2056250609771424 -0.0207319966956335 -0.1094546132391461
atom 17.8896472339754631 15.4343629510351583 9.5338938318647966 Zr
    velocity -0.1308097444142839 0.3170648341097340 -0.1741001857147561
atom 2.3016472339754595 20.6533629510351595 9.5338938318647966 Zr
    velocity 0.3405908121197577 0.2923622849838554 -0.0583986805718541
atom 7.4976472339754592 20.6533629510351595 9.5338938318647966 Zr
    velocity -0.0596042058630710 0.2439011840806369 -0.5856971744693207
atom 12.6936472339754580 20.6533629510351595 9.5338938318647966 Zr
    velocity 0.0680159504497323 0.2135918453990050 -0.3129914238415860
atom 17.8896472339754631 20.6533629510351595 9.5338938318647966 Zr
    velocity -0.0512339567705510 0.5952153752977419 0.3571549043214003
atom 1.4878623876671986 4.9963629510351559 14.8600836730100614 Zr
    velocity 0.1826550816393661 -0.0030228182986969 0.2922196335336996
atom 6.6838623876671983 4.9963629510351559 14.8600836730100614 Zr
    velocity 0.0592709402973344 0.5076375354787891 -0.1711975619034406
atom 11.8798623876671972 4.9963629510351559 14.8600836730100614 Zr
    velocity -0.0449768301204389 -0.2393562929511776 -0.0805399894276601
atom 17.0758623876672004 4.9963629510351559 14.8600836730100614 Zr
    velocity 0.1237333164483576 -0.7152620969786835 -0.2916349815079054
atom 1.4878623876671986 10.2153629510351571 14.8600836730100614 Zr
    velocity -0.3686372580800423 0.1755648526842942 -0.1213298447938254
atom 6.6838623876671983 10.2153629510351571 14.8600836730100614 Zr
    velocity 0.0705625792732467 -0.0638530196017162 0.2262507710194222
atom 11.8798623876671972 10.2153629510351571 14.8600836730100614 Zr
    velocity 0.0441078899800055 -0.1767994971282730 -0.1363656062232090
atom 17.0758623876672004 10.2153629510351571 14.8600836730100614 Zr
    velocity -0.2175630482390620 0.4376797705213961 -0.1216220761002555
atom 1.4878623876671986 15.4343629510351583 14.8600836730100614 Zr
    velocity 0.3110478648250934 -0.6245441169950383 -0.7513731903961122
atom 6.6838623876671983 15.4343629510351583 14.8600836730100614 Zr
    velocity 0.1072782192252334 -0.1730971786878117 0.0257143081227849
atom 11.8798623876671972 15.4343629510351583 14.8600836730100614 Zr
    velocity -0.4185361896222810 0.4676014307561315 -0.5065901017049378
atom 17.0758623876672004 15.4343629510351583 14.8600836730100614 Zr
    velocity -0.3815837271962371 -0.2753545746848242 -0.1572198716488890
atom 1.4878623876671986 20.6533629510351595 14.8600836730100614 Zr
    velocity -0.1083152295141988 -0.1161384556567149 0.1636518285280893
atom 6.6838623876671983 20.6533629510351595 14.8600836730100614 Zr
    velocity -0.3460177699071944 0.2255877746912839 -0.0218724836642624
atom 11.8798623876671972 20.6533629510351595 14.8600836730100614 Zr
    velocity 0.0681094346541526 -0.4360834854900554 0.1358377871976591
atom 17.0758623876672004 20.6533629510351595 14.8600836730100614 Zr
    velocity -0.2971802891339582 -0.2325224700910422 0.1485521284752777
atom 0.6740775413589377 4.9963629510351559 20.1862735141553280 Zr
    velocity 0.3663044385293475 -0.0906940134335884 0.2590540551465874
atom 5.8700775413589366 4.9963629510351559 20.1862735141553280 Zr
    velocity -0.2330278259638831 -0.6440474732714330 -0.5222876966438600
atom 11.0660775413589363 4.9963629510351559 20.1862735141553280 Zr
    velocity 0.4636767203678483 -0.0419045932672766 -0.1132289665196676
atom 16.2620775413589413 4.9963629510351559 20.1862735141553280 Zr
    velocity -0.0803015439230103 -0.1727625116526509 -0.0391561815127542
atom 0.6740775413589377 10.2153629510351571 20.1862735141553280 Zr
    velocity 0.3014915014010037 0.1313551661846563 0.2125527536192842
atom 5.8700775413589366 10.2153629510351571 20.1862735141553280 Zr
    velocity -0.1107543030595566 0.0110294669187515 -0.0665654814807781
atom 11.0660775413589363 10.2153629510351571 20.1862735141553280 Zr
    velocity -0.0561077624890804 -0.2920580012934889 0.7163745767655085
atom 16.2620775413589413 10.2153629510351571 20.1862735141553280 Zr
    velocity -0.0003820347370460 0.2189558570628113 -0.1490575413296954
atom 0.6740775413589377 15.4343629510351583 20.1862735141553280 Zr
    velocity 0.2613839312553071 -0.6467204211878556 -0.3708167583853221
atom 5.8700775413589366 15.4343629510351583 20.1862735141553280 Zr
    velocity -0.3756799857876882 -0.3359591559504768 0.4227067517977164
atom 11.0660775413589363 15.4343629510351583 20.1862735141553280 Zr
    velocity -0.0613646053626479 0.1675562326379210 0.0661997774817917
atom 16.2620775413589413 15.4343629510351583 20.1862735141553280 Zr
    velocity -0.1112763379804867 0.4922613589356379 -0.0943101429113364
atom 0.6740775413589377 20.6533629510351595 20.1862735141553280 Zr
    velocity -0.3186856775831771 -0.4622901339422067 -0.4429603989112538
atom 5.8700775413589366 20.6533629510351595 20.1862735141553280 Zr
    velocity -0.0423794294546571 -0.1943779661954397 -0.6757490392034197
atom 11.0660775413589363 20.6533629510351595 20.1862735141553280 Zr
    velocity -0.1059915491851931 -0.1648471065794711 -0.2287400007484927
atom 16.2620775413589413 20.6533629510351595 20.1862735141553280 Zr
    velocity 0.0128216839613244 -0.1858328610608342 -0.1036971758989082
atom 3.5223245034378508 2.8321370489648441 1.5446090701468966 Zr
    velocity 0.0227184408138971 -0.6922546362453178 0.2379127319279864
atom 8.7183245034378505 2.8321370489648441 1.5446090701468966 Zr
    velocity -0.6051361211569819 0.0774675075181578 -0.2431774936775694
atom 13.9143245034378502 2.8321370489648441 1.5446090701468966 Zr
    velocity -0.3335323934366570 -0.4642561457064403 0.4221066244761674
atom 19.1103245034378517 2.8321370489648441 1.5446090701468966 Zr
    velocity -0.2994738338215538 0.1077082992894917 0.3765606704529312
atom 3.5223245034378508 8.0511370489648471 1.5446090701468966 Zr
    velocity 0.5903544242790546 0.0912642357539978 -0.2391087296517470
atom 8.7183245034378505 8.0511370489648471 1.5446090701468966 Zr
    velocity -0.0687452511207621 0.0443751308478046 -0.0001334929865596
atom 13.9143245034378502 8.0511370489648471 1.5446090701468966 Zr
    velocity -0.2540080763704717 0.5737961735075998 0.0386497610183874
atom 19.1103245034378517 8.0511370489648471 1.5446090701468966 Zr
    velocity 0.0774025769333077 -0.0848261030566051 -0.0355343865804428
atom 3.5223245034378508 13.2701370489648465 1.5446090701468966 Zr
    velocity 0.2078380522409646 -0.4185828702860239 -0.1976557009152119
atom 8.7183245034378505 13.2701370489648465 1.5446090701468966 Zr
    velocity 0.2673354794334163 0.6280913293585140 -0.2021994579654527
atom 13.9143245034378502 13.2701370489648465 1.5446090701468966 Zr
    velocity -0.1793260081180258 -0.3012493648137524 0.3339488804347874
atom 19.1103245034378517 13.2701370489648465 1.5446090701468966 Zr
    velocity 0.1476581752692398 0.2342898196443216 -0.1850283328500177
atom 3.5223245034378508 18.4891370489648459 1.5446090701468966 Zr
    velocity 0.2446512843732750 -0.5866164133610287 0.0088048497558724
atom 8.7183245034378505 18.4891370489648459 1.5446090701468966 Zr
    velocity 0.2083387469418939 -0.0797289506291924 0.0079717033220807
atom 13.9143245034378502 18.4891370489648459 1.5446090701468966 Zr
    velocity 0.0359078988922894 0.0532317825514571 0.0297922684251538
atom 19.1103245034378517 18.4891370489648459 1.5446090701468966 Zr
    velocity -0.7081592372526684 0.4065505164315121 0.2568187728708698
atom 2.7085396571295899 2.8321370489648441 6.8707989112921632 Zr
    velocity 0.0010296812977445 -0.2402741773696530 -0.1683428165174223
atom 7.9045396571295896 2.8321370489648441 6.8707989112921632 Zr
    velocity -0.4826893217090841 0.0224430687276678 0.3114635349455217
atom 13.1005396571295893 2.8321370489648441 6.8707989112921632 Zr
    velocity -0.1255607228367993 0.5481534440239458 0.5417159120137106
atom 18.2965396571295926 2.8321370489648441 6.8707989112921632 Zr
    velocity -0.2691940091198204 0.0250299637035495 -0.4473091093218939
atom 2.7085396571295899 8.0511370489648471 6.8707989112921632 Zr
    velocity -0.0295824448466542 -0.2665421649970329 0.3010637396245305
atom 7.9045396571295896 8.0511370489648471 6.8707989112921632 Zr
    velocity -0.2779633343855143 0.2274792706801149 0.3247646063984118
atom 13.1005396571295893 8.0511370489648471 6.8707989112921632 Zr
    velocity -0.0392191974392498 0.0954018055767109 -0.1101077686564970
atom 18.2965396571295926 8.0511370489648471 6.8707989112921632 Zr
    velocity -0.3764635356888543 0.5154792303905040 0.1839591891840459
atom 2.7085396571295899 13.2701370489648465 6.8707989112921632 Zr
    velocity -0.6043638090462886 -0.1289887674532308 0.0225410166099056
atom 7.9045396571295896 13.2701370489648465 6.8707989112921632 Zr
    velocity 0.3264658597456057 -0.2317095717532541 0.4075316278964893
atom 13.1005396571295893 13.2701370489648465 6.8707989112921632 Zr
    velocity -0.1158719686728286 0.2044478188744929 0.2501072192225516
atom 18.2965396571295926 13.2701370489648465 6.8707989112921632 Zr
    velocity 0.2314471119818399 -0.0061866542909488 0.1317636241326414
atom 2.7085396571295899 18.4891370489648459 6.8707989112921632 Zr
    velocity -0.3647357622866816 -0.0904956542638961 0.0681519227014757
atom 7.9045396571295896 18.4891370489648459 6.8707989112921632 Zr
    velocity 0.2812886308659844 -0.3328117780465379 -0.1329566595540460
atom 13.1005396571295893 18.4891370489648459 6.8707989112921632 Zr
    velocity 0.3549355833404512 -0.2831340627478340 0.1273975993601932
atom 18.2965396571295926 18.4891370489648459 6.8707989112921632 Zr
    velocity 0.5623186410507396 -0.1717665097243652 0.1667507609349735
atom 1.8947548108213288 2.8321370489648441 12.1969887524374307 Zr
    velocity 0.3792825488877611 -0.0309254934853939 0.1976489936416382
atom 7.0907548108213279 2.8321370489648441 12.1969887524374307 Zr
    velocity -0.1603880885895491 0.0483912911503411 -0.2482562636279911
atom 12.2867548108213285 2.8321370489648441 12.1969887524374307 Zr
    velocity -0.0412080773144860 -0.2700058295605892 0.0872906432592525
atom 17.4827548108213300 2.8321370489648441 12.1969887524374307 Zr
    velocity 0.3741466002088989 0.2589032591628619 0.0344736954253102
atom 1.8947548108213288 8.0511370489648471 12.1969887524374307 Zr
    velocity 0.4137147821311997 -0.2601582940880773 0.3563689584763850
atom 7.0907548108213279 8.0511370489648471 12.1969887524374307 Zr
    velocity -0.6579249267317423 0.1314665506423937 -0.0244830222236592
atom 12.2867548108213285 8.0511370489648471 12.1969887524374307 Zr
    velocity -0.1551206618727265 0.3649283301724741 0.0760333993819599
atom 17.4827548108213300 8.0511370489648471 12.1969887524374307 Zr
    velocity 0.3862706760110491 0.2357168853121742 0.0165784952259571
atom 1.8947548108213288 13.2701370489648465 12.1969887524374307 Zr
    velocity -0.3805884299945071 0.5529286758595698 0.3335076833053862
atom 7.0907548108213279 13.2701370489648465 12.1969887524374307 Zr
    velocity 0.1231786253239643 0.6337808574010191 0.2026479730838308
atom 12.2867548108213285 13.2701370489648465 12.1969887524374307 Zr
    velocity -0.3882419740583979 0.3178742951492067 -0.1903803970238697
atom 17.4827548108213300 13.2701370489648465 12.1969887524374307 Zr
    velocity 0.5244282457361235 -0.0069903070736832 -0.2594041629640771
atom 1.8947548108213288 18.4891370489648459 12.1969887524374307 Zr
    velocity -0.1165663590164298 0.5159897524237487 -0.3778009963199053
atom 7.0907548108213279 18.4891370489648459 12.1969887524374307 Zr
    velocity -0.5009229286359569 0.1284458632530752 -0.3300451742066132
atom 12.2867548108213285 18.4891370489648459 12.1969887524374307 Zr
    velocity 0.5584295676478310 0.0829946168650033 -0.0316520963316598
atom 17.4827548108213300 18.4891370489648459 12.1969887524374307 Zr
    velocity -0.2266142521726200 0.0420582662325305 0.2505989246022358
atom 1.0809699645130679 2.8321370489648441 17.5231785935826991 Zr
    velocity -0.2446743097229649 -0.0900401724160185 -0.2417552271849963
atom 6.2769699645130670 2.8321370489648441 17.5231785935826991 Zr
    velocity 0.3320922755593590 -0.0855448825155441 0.1484472616771656
atom 11.4729699645130676 2.8321370489648441 17.5231785935826991 Zr
    velocity 0.1123827361961626 -0.0131736805030925 0.3113706752025074
atom 16.6689699645130709 2.8321370489648441 17.5231785935826991 Zr
    velocity 0.1050100127769850 -0.2996961846840052 0.2196656781940122
atom 1.0809699645130679 8.0511370489648471 17.5231785935826991 Zr
    velocity 0.0241576645936650 -0.2988381037372972 -0.1395691514721434
atom 6.2769699645130670 8.0511370489648471 17.5231785935826991 Zr
    velocity 0.0833717479809517 0.0476614728589301 0.1587222005257330
atom 11.4729699645130676 8.0511370489648471 17.5231785935826991 Zr
    velocity 0.3274097993278361 0.0892931915709516 0.2874448282428453
atom 16.6689699645130709 8.0511370489648471 17.5231785935826991 Zr
    velocity -0.7577669992697413 -0.2642823793770070 0.0031070840406034
atom 1.0809699645130679 13.2701370489648465 17.5231785935826991 Zr
    velocity -0.2518164277052956 0.3392473412825401 -0.1184728824568893
atom 6.2769699645130670 13.2701370489648465 17.5231785935826991 Zr
    velocity 0.6093700760810695 0.3516116089739909 -0.0126226621474813
atom 11.4729699645130676 13.2701370489648465 17.5231785935826991 Zr
    velocity 0.6372462459389197 -0.0716031468016436 -0.0177187572637000
atom 16.6689699645130709 13.2701370489648465 17.5231785935826991 Zr
    velocity 0.2487494563404908 0.0326678598909766 0.0784887571695729
atom 1.0809699645130679 18.4891370489648459 17.5231785935826991 Zr
    velocity -0.2683414528488841 -0.2575217114567258 -0.4015369507685700
atom 6.2769699645130670 18.4891370489648459 17.5231785935826991 Zr
    velocity 0.0313500008180041 -0.4444990794169192 0.0773334662455259
atom 11.4729699645130676 18.4891370489648459 17.5231785935826991 Zr
    velocity -0.1557388431371538 -0.3633080407200291 -0.0115352427598062
atom 16.6689699645130709 18.4891370489648459 17.5231785935826991 Zr
    velocity 0.1796632805649198 0.3275618426335354 0.3879790954781462
atom 0.8598903426888980 2.3868629510351562 3.7815808455650277 Zr
    velocity 0.0312682371907643 0.2148065436208780 -0.1848907980564200
atom 6.0558903426888975 2.3868629510351562 3.7815808455650277 Zr
    velocity -0.2834774661644321 0.2791889182607133 -0.2525632602770483
atom 11.2518903426888937 2.3868629510351562 3.7815808455650277 Zr
    velocity -0.1962900865239838 -0.4009302972622136 0.1206550366608845
atom 16.4478903426888969 2.3868629510351562 3.7815808455650277 Zr
    velocity 0.3996794558008314 0.0177578950459258 -0.2059479263456589
atom 0.8598903426888980 7.6058629510351565 3.7815808455650277 Zr
    velocity -0.3034644452868420 0.0519987403487529 0.0787882708513858
atom 6.0558903426888975 7.6058629510351565 3.7815808455650277 Zr
    velocity -0.2376025982308138 0.5617028340452137 -0.4356190401119651
atom 11.2518903426888937 7.6058629510351565 3.7815808455650277 Zr
    velocity 0.2666811363957214 0.0335986896716965 -0.2792181575017058
atom 16.4478903426888969 7.6058629510351565 3.7815808455650277 Zr
    velocity 0.0909738362579885 -0.3757702904722439 -0.1148446120403692
atom 0.8598903426888980 12.8248629510351559 3.7815808455650277 Zr
    velocity -0.5450911307997317 0.0151138921006057 0.3183483688177451
atom 6.0558903426888975 12.8248629510351559 3.7815808455650277 Zr
    velocity 0.4126569555803573 -0.3878295405367836 -0.2290785243801971
atom 11.2518903426888937 12.8248629510351559 3.7815808455650277 Zr
    velocity 0.6267230817688988 0.2433494882904556 0.3342269802674308
atom 16.4478903426888969 12.8248629510351559 3.7815808455650277 Zr
    velocity -0.4241476760008905 -0.3497580359900531 -0.0193886732846926
atom 0.8598903426888980 18.0438629510351554 3.7815808455650277 Zr
    velocity -0.0850325112146812 0.3558285276606318 0.2452456054366734
atom 6.0558903426888975 18.0438629510351554 3.7815808455650277 Zr
    velocity 0.0268093577641624 -0.3386332989757048 -0.3968858840102756
atom 11.2518903426888937 18.0438629510351554 3.7815808455650277 Zr
    velocity 0.1061555688244169 -0.0086475307815866 0.2158855289166356
atom 16.4478903426888969 18.0438629510351554 3.7815808455650277 Zr
    velocity -0.0324338258216078 -0.1080291588695437 0.0674329416467831
atom 0.0461054963806369 2.3868629510351562 9.1077706867102943 Zr
    velocity 0.1894328684218977 0.3336197913406742 -0.3963611776406672
atom 5.2421054963806366 2.3868629510351562 9.1077706867102943 Zr
    velocity -0.7041788224425677 -0.0900871231454387 0.1441849132076642
atom 10.4381054963806328 2.3868629510351562 9.1077706867102943 Zr
    velocity -0.2186486750779098 0.4083067933342745 0.2185647734578781
atom 15.6341054963806361 2.3868629510351562 9.1077706867102943 Zr