#=======================================================
# FHI-aims file: ./geometry.in
# Created using the Atomic Simulation Environment (ASE)
# Thu Feb 18 12:01:10 2021
#=======================================================
lattice_vector 2.5378861399999990 2.5378861399999995 0.0000000000000000 
lattice_vector -2.5378861399999990 2.5378861399999995 0.0000000000000000 
lattice_vector 0.0000000000000000 0.0000000000000000 5.1867880599999996 
atom_frac 0.0000000000000000 -0.0000000000000000 0.0000000000000000 Zr
atom_frac 0.5000000000000001 0.4999999999999999 0.5000000000000000 Zr
atom_frac 0.5000000000000001 -0.0000000000000000 0.2023395800000000 O
atom_frac 0.5000000000000001 -0.0000000000000000 0.7023395799999999 O
atom_frac 0.0000000000000000 0.5000000000000000 0.2976604200000000 O
atom_frac 0.0000000000000000 0.5000000000000000 0.7976604199999999 O
