#=======================================================
# FHI-aims file: /raven/u/mlang/gknet-aims/new_verdi_monoclinic/relaxation/k12_rho1e-7_light/relaxation/geometry.in.next_step
# Created using the Atomic Simulation Environment (ASE)
# Sat Jan 14 15:21:15 2023

# Additional information:
#  Relaxed with BFGS, fmax=1.000 meV/AA
#  nsteps = 16
#  residual force  = 0.549075 meV/AA
#  residual stress = 0.503524 meV/AA
#=======================================================
lattice_vector 5.1375782794019997 -0.0000000000000000 0.0094871459440000 
lattice_vector -0.0000000000000000 5.2204747933159998 0.0000000000000000 
lattice_vector -0.8753185451530000 0.0000000000000000 5.2274522191410000 
atom_frac 0.2767864172930000 0.0425123365830000 0.2099644396340000 Zr
atom_frac 0.7232135257070000 0.9574876634170000 0.7900355743660001 Zr
atom_frac 0.7232135257070000 0.5425123365830000 0.2900355743660000 Zr
atom_frac 0.2767864172930000 0.4574876634170000 0.7099644396340000 Zr
atom_frac 0.0706860813730000 0.3369269978240000 0.3416204574760000 O
atom_frac 0.9293138616269998 0.6630730021760000 0.6583795565239999 O
atom_frac 0.9293138616270000 0.8369269978240002 0.1583795565240000 O
atom_frac 0.0706860813730000 0.1630730021760000 0.8416204574759999 O
atom_frac 0.4495499760209999 0.7576176498610000 0.4798962350389999 O
atom_frac 0.5504499669789999 0.2423823501390000 0.5201037789610000 O
atom_frac 0.5504499669789999 0.2576176498610000 0.0201037789610000 O
atom_frac 0.4495499760209999 0.7423823501390001 0.9798962350389999 O
