#=======================================================
# FHI-aims file: 400_geometry.in.primitive.supercell_1500.0010K
# Created using the Atomic Simulation Environment (ASE)
# Fri Dec 30 21:08:29 2022

# Additional information:
#  created from MB distrubtion
#  T = 10.0 K
#  quantum:             False
#  deterministic:       False
#  plus_minus:          False
#  gauge_eigenvectors:  False
#  Random seed:         1436061492
#  Sample number:       1
#=======================================================
lattice_vector 25.7600000000000016 0.0000000000000000 0.0000000000000000 
lattice_vector 0.0000000000000000 26.0549999999999997 0.0000000000000000 
lattice_vector -4.2833055244691449 0.0000000000000000 26.2427398299806356 
atom 1.2456045527724051 0.2222957773818360 1.1021813344437299 Zr
    velocity 0.1537644693255094 -0.1013579640341295 0.1281779448631666
atom 6.3976045527724050 0.2222957773818360 1.1021813344437299 Zr
    velocity 0.3707938847327530 0.3916557720204534 0.6512946119169024
atom 11.5496045527724061 0.2222957773818360 1.1021813344437299 Zr
    velocity 0.2343189154248833 0.1838207688456976 0.1960750998470358
atom 16.7016045527724089 0.2222957773818360 1.1021813344437299 Zr
    velocity 0.3584048472412507 0.2463467582534452 -0.3179665627547987
atom 21.8536045527724063 0.2222957773818360 1.1021813344437299 Zr
    velocity 0.1819390599963067 -0.2151734356663700 -0.2996975247522187
atom 1.2456045527724051 5.4332957773818356 1.1021813344437299 Zr
    velocity 0.0693778219282677 0.2187804745989404 -0.1823083867104033
atom 6.3976045527724050 5.4332957773818356 1.1021813344437299 Zr
    velocity -0.4373531880633888 -0.3136420696326938 0.3738375582760031
atom 11.5496045527724061 5.4332957773818356 1.1021813344437299 Zr
    velocity -0.0078662569279765 0.0313154135019625 0.2160682643884897
atom 16.7016045527724089 5.4332957773818356 1.1021813344437299 Zr
    velocity 0.1644061390040928 -0.1740622014334213 -0.1860613475319680
atom 21.8536045527724063 5.4332957773818356 1.1021813344437299 Zr
    velocity -0.5097273534165301 0.0840443957742250 0.1714121403883000
atom 1.2456045527724051 10.6442957773818385 1.1021813344437299 Zr
    velocity 0.1786427650147197 0.2037686882825278 0.1790020544448397
atom 6.3976045527724050 10.6442957773818385 1.1021813344437299 Zr
    velocity 0.1243294811713609 -0.2233947006991752 -0.2844420265809835
atom 11.5496045527724061 10.6442957773818385 1.1021813344437299 Zr
    velocity -0.2195866001073330 -0.1440482231187998 -0.2716496255345339
atom 16.7016045527724089 10.6442957773818385 1.1021813344437299 Zr
    velocity 0.5920607444725048 -0.0018322353905667 0.1810775351971275
atom 21.8536045527724063 10.6442957773818385 1.1021813344437299 Zr
    velocity 0.2637423619951260 -0.7491507662049178 -0.3737079877199546
atom 1.2456045527724051 15.8552957773818370 1.1021813344437299 Zr
    velocity 0.0756031680643387 0.3658856043774510 0.1132198584368848
atom 6.3976045527724050 15.8552957773818370 1.1021813344437299 Zr
    velocity 0.0745916054806038 0.4589814209936199 -0.5822809771936435
atom 11.5496045527724061 15.8552957773818370 1.1021813344437299 Zr
    velocity -0.3163603688824331 0.2105691072410275 0.0621103858844010
atom 16.7016045527724089 15.8552957773818370 1.1021813344437299 Zr
    velocity 0.7418490250683771 -0.0113672391003586 -0.1549803079770772
atom 21.8536045527724063 15.8552957773818370 1.1021813344437299 Zr
    velocity 0.1482678808279905 -0.2235388527196901 0.1591583916791385
atom 1.2456045527724051 21.0662957773818391 1.1021813344437299 Zr
    velocity -0.1051536923228860 -0.1781698320112715 -0.0453488141529211
atom 6.3976045527724050 21.0662957773818391 1.1021813344437299 Zr
    velocity 0.1752594097852009 -0.2607392464104792 0.1604113345162771
atom 11.5496045527724061 21.0662957773818391 1.1021813344437299 Zr
    velocity 0.1526226461682362 -0.0642857823203865 0.3760317666826249
atom 16.7016045527724089 21.0662957773818391 1.1021813344437299 Zr
    velocity -0.1188710827167826 -0.0487982475789998 0.4374358416364310
atom 21.8536045527724063 21.0662957773818391 1.1021813344437299 Zr
    velocity 0.0971764454802267 -0.0359695919337315 -0.3369311191565569
atom 0.3889434478785761 0.2222957773818360 6.3507293004398573 Zr
    velocity -0.6782127085349825 0.2514745459426604 0.0490000357170421
atom 5.5409434478785764 0.2222957773818360 6.3507293004398573 Zr
    velocity 0.6326551567139367 -0.0589123528459672 0.5088332114415429
atom 10.6929434478785783 0.2222957773818360 6.3507293004398573 Zr
    velocity 0.1063442713329440 -0.0393108559037325 -0.1086633199008282
atom 15.8449434478785793 0.2222957773818360 6.3507293004398573 Zr
    velocity -0.1513588263676415 0.0993449223998366 -0.4339651114645746
atom 20.9969434478785750 0.2222957773818360 6.3507293004398573 Zr
    velocity -0.1151188382713030 -0.1225112741277552 -0.1944045690824430
atom 0.3889434478785761 5.4332957773818356 6.3507293004398573 Zr
    velocity -0.0077755131673040 0.2991000757453801 -0.0534945091024272
atom 5.5409434478785764 5.4332957773818356 6.3507293004398573 Zr
    velocity 0.1051448575756920 0.5063293077844935 -0.2443753464200188
atom 10.6929434478785783 5.4332957773818356 6.3507293004398573 Zr
    velocity 0.2368128778864106 0.4962741870267142 -0.6437256473814090
atom 15.8449434478785793 5.4332957773818356 6.3507293004398573 Zr
    velocity -0.2837323709189478 0.3477525913155075 0.1296012148713793
atom 20.9969434478785750 5.4332957773818356 6.3507293004398573 Zr
    velocity 0.2735857932262505 0.3974976624896181 0.2298901374592294
atom 0.3889434478785761 10.6442957773818385 6.3507293004398573 Zr
    velocity -0.5938979822170958 0.0403271467306684 -0.1520139499958183
atom 5.5409434478785764 10.6442957773818385 6.3507293004398573 Zr
    velocity -0.0233152730662802 -0.0071387948066356 0.4184720112724498
atom 10.6929434478785783 10.6442957773818385 6.3507293004398573 Zr
    velocity -0.0524541433206269 -0.6763056010147723 -0.0522730055978956
atom 15.8449434478785793 10.6442957773818385 6.3507293004398573 Zr
    velocity 0.1811424608205613 0.2440889410065195 -0.0212094747935592
atom 20.9969434478785750 10.6442957773818385 6.3507293004398573 Zr
    velocity 0.2524712164207387 0.2933670691956206 0.1582106897361734
atom 0.3889434478785761 15.8552957773818370 6.3507293004398573 Zr
    velocity 0.5492213198881790 -0.2162349037359517 -0.1575674733131275
atom 5.5409434478785764 15.8552957773818370 6.3507293004398573 Zr
    velocity -0.0069499049550957 0.2089608833823688 -0.3517461261079952
atom 10.6929434478785783 15.8552957773818370 6.3507293004398573 Zr
    velocity -0.2983017954331090 0.3170991874290515 0.0116281279534905
atom 15.8449434478785793 15.8552957773818370 6.3507293004398573 Zr
    velocity -0.2499320851209627 -0.0485540538067928 -0.1597005466410386
atom 20.9969434478785750 15.8552957773818370 6.3507293004398573 Zr
    velocity -0.0668580306794642 0.3615114349360730 -0.3176946110407178
atom 0.3889434478785761 21.0662957773818391 6.3507293004398573 Zr
    velocity 0.4770422320278283 0.0106932733658723 -0.3795235024281650
atom 5.5409434478785764 21.0662957773818391 6.3507293004398573 Zr
    velocity -0.1125443968420809 0.5350113161013736 0.0580967103334477
atom 10.6929434478785783 21.0662957773818391 6.3507293004398573 Zr
    velocity 0.0160330366935801 0.3063456150929669 0.0114569023528430
atom 15.8449434478785793 21.0662957773818391 6.3507293004398573 Zr
    velocity 0.4387469510377195 -0.3408364077935427 -0.3174931767387695
atom 20.9969434478785750 21.0662957773818391 6.3507293004398573 Zr
    velocity -0.0237370354476656 -0.3025206006766254 -0.4053363174762570
atom -0.4677176570152534 0.2222957773818360 11.5992772664359869 Zr
    velocity 0.4700246039438932 -0.1160302837565122 0.1047505648424302
atom 4.6842823429847469 0.2222957773818360 11.5992772664359869 Zr
    velocity 0.3846765388383538 0.1717751759014108 -0.2996077645864644
atom 9.8362823429847488 0.2222957773818360 11.5992772664359869 Zr
    velocity 0.2565098887849878 -0.3447592665126076 0.1702578363809004
atom 14.9882823429847498 0.2222957773818360 11.5992772664359869 Zr
    velocity 0.0986818708592636 -0.2216550045564912 -0.0480472588678292
atom 20.1402823429847473 0.2222957773818360 11.5992772664359869 Zr
    velocity -0.0190148471729935 0.0061466086562137 0.2112111247095785
atom -0.4677176570152534 5.4332957773818356 11.5992772664359869 Zr
    velocity 0.1728997580243293 0.0006930988590613 0.1956823722661048
atom 4.6842823429847469 5.4332957773818356 11.5992772664359869 Zr
    velocity -0.5447676411551975 0.1788274344853082 0.5391852735193960
atom 9.8362823429847488 5.4332957773818356 11.5992772664359869 Zr
    velocity 0.0486752996255910 -0.5281438264843695 0.0739432845243756
atom 14.9882823429847498 5.4332957773818356 11.5992772664359869 Zr
    velocity 0.7409702040595177 -0.1168345395914381 -0.2858552832645097
atom 20.1402823429847473 5.4332957773818356 11.5992772664359869 Zr
    velocity -0.2047635319370709 -0.1156331027083695 -0.5557228446450726
atom -0.4677176570152534 10.6442957773818385 11.5992772664359869 Zr
    velocity -0.4163692510271973 -0.2069381593431222 0.0482714811244985
atom 4.6842823429847469 10.6442957773818385 11.5992772664359869 Zr
    velocity -0.1060893456347291 -0.2423471277285384 -0.2054588842020315
atom 9.8362823429847488 10.6442957773818385 11.5992772664359869 Zr
    velocity 0.0085501584312627 -0.2844191780576856 0.0632710600989045
atom 14.9882823429847498 10.6442957773818385 11.5992772664359869 Zr
    velocity -0.0131814190045565 -0.0256510783889515 0.8094139114885031
atom 20.1402823429847473 10.6442957773818385 11.5992772664359869 Zr
    velocity -0.2177263782160548 -0.0499707970863521 -0.1362095494206821
atom -0.4677176570152534 15.8552957773818370 11.5992772664359869 Zr
    velocity -0.2645970719126290 0.6032532584115994 -0.0938183748829873
atom 4.6842823429847469 15.8552957773818370 11.5992772664359869 Zr
    velocity -0.2309602300175370 0.0789208231797133 0.3226801312764035
atom 9.8362823429847488 15.8552957773818370 11.5992772664359869 Zr
    velocity -0.3145685686084865 0.1210007501794573 -0.6303976732934946
atom 14.9882823429847498 15.8552957773818370 11.5992772664359869 Zr
    velocity -0.0618819686965208 0.2179991259650449 -0.4244489324535327
atom 20.1402823429847473 15.8552957773818370 11.5992772664359869 Zr
    velocity 0.0630538976065235 0.3667544027989147 0.2258556463157654
atom -0.4677176570152534 21.0662957773818391 11.5992772664359869 Zr
    velocity -0.2651639173279171 0.1002558683104901 0.0063238719710393
atom 4.6842823429847469 21.0662957773818391 11.5992772664359869 Zr
    velocity 0.0820643058101131 -0.1645448495456942 0.1414161696090403
atom 9.8362823429847488 21.0662957773818391 11.5992772664359869 Zr
    velocity -0.1865035849508888 -0.2823704301527931 0.0560791566897334
atom 14.9882823429847498 21.0662957773818391 11.5992772664359869 Zr
    velocity 0.1767158237297368 -0.6554352697913621 0.0874662705564005
atom 20.1402823429847473 21.0662957773818391 11.5992772664359869 Zr
    velocity -0.0483912224760075 -0.5101981612236607 -0.3873120468393596
atom -1.3243787619090828 0.2222957773818360 16.8478252324321147 Zr
    velocity 0.1179232118930862 -0.3120381360749649 0.1975770407332836
atom 3.8276212380909178 0.2222957773818360 16.8478252324321147 Zr
    velocity 0.4200991652619327 0.5013261121058300 0.5228331645669770
atom 8.9796212380909193 0.2222957773818360 16.8478252324321147 Zr
    velocity 0.3011044291616737 0.0105840673310850 -0.6899924798310996
atom 14.1316212380909203 0.2222957773818360 16.8478252324321147 Zr
    velocity -0.0291354033266421 0.3130618977646730 0.0204523513010010
atom 19.2836212380909160 0.2222957773818360 16.8478252324321147 Zr
    velocity -0.0830549728958192 -0.3127364395225370 -0.7336445146679367
atom -1.3243787619090828 5.4332957773818356 16.8478252324321147 Zr
    velocity 0.2788950568152386 -0.1865699926940209 0.3159369133451180
atom 3.8276212380909178 5.4332957773818356 16.8478252324321147 Zr
    velocity 0.2432028049333528 0.6356543501634885 0.3204520466214646
atom 8.9796212380909193 5.4332957773818356 16.8478252324321147 Zr
    velocity -0.2074176956322585 0.2586187390854177 -0.4714541684236073
atom 14.1316212380909203 5.4332957773818356 16.8478252324321147 Zr
    velocity 0.1935382592522279 -0.4338652760528841 0.3841870538505022
atom 19.2836212380909160 5.4332957773818356 16.8478252324321147 Zr
    velocity -0.0689791378768418 0.1554299322813587 -0.0516994346901510
atom -1.3243787619090828 10.6442957773818385 16.8478252324321147 Zr
    velocity -0.1172418861917589 -0.2910272678013945 0.3467432807267997
atom 3.8276212380909178 10.6442957773818385 16.8478252324321147 Zr
    velocity 0.3585585282542970 0.2763956332075775 0.0312912834377939
atom 8.9796212380909193 10.6442957773818385 16.8478252324321147 Zr
    velocity -0.3483657005878147 0.1950071230726338 -0.2780605153979325
atom 14.1316212380909203 10.6442957773818385 16.8478252324321147 Zr
    velocity -0.2765338684031540 -0.2275303317466452 -0.2841252978723803
atom 19.2836212380909160 10.6442957773818385 16.8478252324321147 Zr
    velocity 0.1352085336501054 0.5017620752659181 0.1849133485792069
atom -1.3243787619090828 15.8552957773818370 16.8478252324321147 Zr
    velocity -0.0345381272580782 0.6309726758955683 0.2626804048846610
atom 3.8276212380909178 15.8552957773818370 16.8478252324321147 Zr
    velocity 0.2481166675877084 -0.0916326789264013 -0.0227711010076419
atom 8.9796212380909193 15.8552957773818370 16.8478252324321147 Zr
    velocity -0.1708274300807714 -0.0713929916517388 -0.3372974405813782
atom 14.1316212380909203 15.8552957773818370 16.8478252324321147 Zr
    velocity -0.2338546263444501 -0.2047581254253189 -0.0750060666589213
atom 19.2836212380909160 15.8552957773818370 16.8478252324321147 Zr
    velocity -0.6515699487494320 -0.5139442178402173 -0.0612564253270793
atom -1.3243787619090828 21.0662957773818391 16.8478252324321147 Zr
    velocity -0.2184609146852075 -0.5044968981747409 -0.6072501028512789
atom 3.8276212380909178 21.0662957773818391 16.8478252324321147 Zr
    velocity -0.1502954962027528 0.3456560525792977 0.1094032846670648
atom 8.9796212380909193 21.0662957773818391 16.8478252324321147 Zr
    velocity 0.1539617641878386 -0.3002153658983613 -0.1393377353633436
atom 14.1316212380909203 21.0662957773818391 16.8478252324321147 Zr
    velocity -0.5779378266502091 0.2256544756849533 0.4006877292222227
atom 19.2836212380909160 21.0662957773818391 16.8478252324321147 Zr
    velocity -0.0088471508242616 0.3988233685410830 -0.4855596493162613
atom -2.1810398668029110 0.2222957773818360 22.0963731984282390 Zr
    velocity 0.0984627091643459 0.2497774217473637 0.0288429083919629
atom 2.9709601331970892 0.2222957773818360 22.0963731984282390 Zr
    velocity 0.0885242239002546 -0.5055575377662839 -0.4824357082585773
atom 8.1229601331970898 0.2222957773818360 22.0963731984282390 Zr
    velocity 0.1028364355982873 -0.2328370684434115 0.0696243341997383
atom 13.2749601331970908 0.2222957773818360 22.0963731984282390 Zr
    velocity -0.2057246205558835 -0.0021338969612956 -0.4481741168125011
atom 18.4269601331970883 0.2222957773818360 22.0963731984282390 Zr
    velocity -0.3940470586199070 -0.2050392135039726 -0.3543207446220250
atom -2.1810398668029110 5.4332957773818356 22.0963731984282390 Zr
    velocity -0.2600506923791828 0.2306691434683879 0.3159861600536543
atom 2.9709601331970892 5.4332957773818356 22.0963731984282390 Zr
    velocity -0.1523200591738126 0.0646444115251276 -0.6106482460579220
atom 8.1229601331970898 5.4332957773818356 22.0963731984282390 Zr
    velocity -0.2997567098622170 0.4122566432193877 -0.0169075084785014
atom 13.2749601331970908 5.4332957773818356 22.0963731984282390 Zr
    velocity 0.0954109951449692 -0.2923825305940096 0.3994343918890971
atom 18.4269601331970883 5.4332957773818356 22.0963731984282390 Zr
    velocity -0.2522311652187358 -0.0493078019345611 0.1911834031042727
atom -2.1810398668029110 10.6442957773818385 22.0963731984282390 Zr
    velocity 0.2080646386625623 -0.4393669900504356 -0.0020876393917017
atom 2.9709601331970892 10.6442957773818385 22.0963731984282390 Zr
    velocity -0.2686123167736776 -0.1118279020802470 0.0869197101606245
atom 8.1229601331970898 10.6442957773818385 22.0963731984282390 Zr
    velocity -0.8327453626581426 -0.5419448753525520 0.0669321921454382
atom 13.2749601331970908 10.6442957773818385 22.0963731984282390 Zr
    velocity -0.5210851620862547 0.3549305945647021 -0.5115855168119630
atom 18.4269601331970883 10.6442957773818385 22.0963731984282390 Zr
    velocity 0.0181111278801484 0.2968535611351830 -0.0423589132706374
atom -2.1810398668029110 15.8552957773818370 22.0963731984282390 Zr
    velocity -0.4880783732795011 0.5537698213137001 -0.2175773086906397
atom 2.9709601331970892 15.8552957773818370 22.0963731984282390 Zr
    velocity -0.0719506173112539 -0.1293846425703127 -0.0143304839287358
atom 8.1229601331970898 15.8552957773818370 22.0963731984282390 Zr
    velocity -0.1283377521603118 0.1750578100277286 0.5814579493233117
atom 13.2749601331970908 15.8552957773818370 22.0963731984282390 Zr
    velocity -0.0589919191564760 -0.0568398858750243 0.3068326922329823
atom 18.4269601331970883 15.8552957773818370 22.0963731984282390 Zr
    velocity 0.4589811846468286 0.1523650917813568 0.3162826808674074
atom -2.1810398668029110 21.0662957773818391 22.0963731984282390 Zr
    velocity -0.4741886701156351 0.3472255803943050 0.4893835793216196
atom 2.9709601331970892 21.0662957773818391 22.0963731984282390 Zr
    velocity 0.4346089765851966 -0.2631336980955057 0.1086984585496591
atom 8.1229601331970898 21.0662957773818391 22.0963731984282390 Zr
    velocity -0.0628720097373438 0.5215624555419277 -0.4992360003795525
atom 13.2749601331970908 21.0662957773818391 22.0963731984282390 Zr
    velocity -0.7218458994537497 -0.1926744179600332 0.3549465424150288
atom 18.4269601331970883 21.0662957773818391 22.0963731984282390 Zr
    velocity -0.1512955818852933 -0.2202054035267992 0.4139031978134992
atom 3.0497340366765111 4.9887042226181642 4.1463667050320687 Zr
    velocity 0.0362872226795314 0.1135604989023015 -0.1186779969155550
atom 8.2017340366765126 4.9887042226181642 4.1463667050320687 Zr
    velocity 0.7039788846695274 -0.1326346472006620 0.5152459561749065
atom 13.3537340366765118 4.9887042226181642 4.1463667050320687 Zr
    velocity -0.3943625893604321 0.0864600163679491 0.1298624901534616
atom 18.5057340366765146 4.9887042226181642 4.1463667050320687 Zr
    velocity -0.0417488940418668 -0.1147550112021748 0.0004932695571376
atom 23.6577340366765121 4.9887042226181642 4.1463667050320687 Zr
    velocity 0.0668202828823755 0.2358005103114138 0.7891968716755683
atom 3.0497340366765111 10.1997042226181662 4.1463667050320687 Zr
    velocity -0.3873750797277412 0.2834719691028202 0.2001219439057930
atom 8.2017340366765126 10.1997042226181662 4.1463667050320687 Zr
    velocity 0.3342913619337121 0.0760095043988046 -0.5447630047636862
atom 13.3537340366765118 10.1997042226181662 4.1463667050320687 Zr
    velocity 0.0369198509911017 -0.5914052568749033 0.3921665815742011
atom 18.5057340366765146 10.1997042226181662 4.1463667050320687 Zr
    velocity 0.0523025745447748 0.1292200125781652 -0.0522202563699934
atom 23.6577340366765121 10.1997042226181662 4.1463667050320687 Zr
    velocity -0.4204472869354027 0.3436463145375261 0.2256905596555343
atom 3.0497340366765111 15.4107042226181647 4.1463667050320687 Zr
    velocity -0.1429240980952309 -0.0805241446381192 0.3588292358815457
atom 8.2017340366765126 15.4107042226181647 4.1463667050320687 Zr
    velocity -0.0067027936385556 -0.0059803744472055 0.1498320594331842
atom 13.3537340366765118 15.4107042226181647 4.1463667050320687 Zr
    velocity 0.0779182130004291 -0.0310344828996387 -0.0099322493857745
atom 18.5057340366765146 15.4107042226181647 4.1463667050320687 Zr
    velocity -0.1006277175822117 0.1702621436851664 0.0638618694021004
atom 23.6577340366765121 15.4107042226181647 4.1463667050320687 Zr
    velocity 0.3678010838967696 -0.2020583131205347 -0.0486713534672913
atom 3.0497340366765111 20.6217042226181668 4.1463667050320687 Zr
    velocity 0.0949802570024096 0.1875389789474400 -0.2584994383448805
atom 8.2017340366765126 20.6217042226181668 4.1463667050320687 Zr
    velocity 0.0530021608391775 0.0114469852741003 0.2778123857258807
atom 13.3537340366765118 20.6217042226181668 4.1463667050320687 Zr
    velocity -0.2079297217672881 -0.2150567531553244 -0.0324441303383500
atom 18.5057340366765146 20.6217042226181668 4.1463667050320687 Zr
    velocity 0.1304533996929629 0.3947115823427352 -0.1102235931361328
atom 23.6577340366765121 20.6217042226181668 4.1463667050320687 Zr
    velocity 0.2485540790296214 -0.2412168170031855 -0.3738530924905878
atom 3.0497340366765111 25.8327042226181689 4.1463667050320687 Zr
    velocity 0.4316879040524468 -0.0374529477738779 -0.1768533354171900
atom 8.2017340366765126 25.8327042226181689 4.1463667050320687 Zr
    velocity -0.1258403258035254 -0.2289914521166409 -0.4970559357551173
atom 13.3537340366765118 25.8327042226181689 4.1463667050320687 Zr
    velocity 0.0209016155161296 0.1766897781885751 0.1692899969772584
atom 18.5057340366765146 25.8327042226181689 4.1463667050320687 Zr
    velocity 0.2048672685262526 -0.1767918697502767 -0.0604141719259486
atom 23.6577340366765121 25.8327042226181689 4.1463667050320687 Zr
    velocity 0.2196861222830556 -0.2379139888006198 0.1806820579871976
atom 2.1930729317826838 4.9887042226181642 9.3949146710281983 Zr
    velocity -0.4323310309081141 -0.1526809035201462 -0.1544023884245543
atom 7.3450729317826822 4.9887042226181642 9.3949146710281983 Zr
    velocity -0.2317296834945803 -0.2502720522883740 0.3667505504856228
atom 12.4970729317826823 4.9887042226181642 9.3949146710281983 Zr
    velocity -0.0968019443158702 -0.1532914666729447 0.4398318248325556
atom 17.6490729317826833 4.9887042226181642 9.3949146710281983 Zr
    velocity -0.4336107018841915 -0.5148171933293620 -0.7081192944401067
atom 22.8010729317826808 4.9887042226181642 9.3949146710281983 Zr
    velocity -0.0897188351086972 0.2521717461812021 -0.5950585215237917
atom 2.1930729317826838 10.1997042226181662 9.3949146710281983 Zr
    velocity 0.0163959944137447 0.0072287928157529 -0.0535933647507877
atom 7.3450729317826822 10.1997042226181662 9.3949146710281983 Zr
    velocity -0.0813336808620114 0.0565077293269092 -0.1940959686318580
atom 12.4970729317826823 10.1997042226181662 9.3949146710281983 Zr
    velocity -0.3895035119029548 -0.4096013588714645 -0.1322635431598248
atom 17.6490729317826833 10.1997042226181662 9.3949146710281983 Zr
    velocity 0.2045313911058644 0.1516598613394647 0.0447364568566160
atom 22.8010729317826808 10.1997042226181662 9.3949146710281983 Zr
    velocity -0.2436370226491238 0.2423577174480797 0.0408280386216242
atom 2.1930729317826838 15.4107042226181647 9.3949146710281983 Zr
    velocity -0.0183964126764421 -0.0999429142514645 0.4108650367636761
atom 7.3450729317826822 15.4107042226181647 9.3949146710281983 Zr
    velocity -0.3604722411076146 -0.1165998204968382 -0.2241281069651452
atom 12.4970729317826823 15.4107042226181647 9.3949146710281983 Zr
    velocity -0.1866902901369475 0.2020374233186603 0.3282255530561394
atom 17.6490729317826833 15.4107042226181647 9.3949146710281983 Zr
    velocity -0.2518849369374397 -0.1667323290777020 -0.6559083482486209
atom 22.8010729317826808 15.4107042226181647 9.3949146710281983 Zr
    velocity 0.4909208219099224 0.5941844113476891 -0.1675195386902073
atom 2.1930729317826838 20.6217042226181668 9.3949146710281983 Zr
    velocity -0.4011759734747804 -0.2054962050603178 -0.3174328398955766
atom 7.3450729317826822 20.6217042226181668 9.3949146710281983 Zr
    velocity 0.0822729945624486 -0.0761126855436837 0.1079814014550171
atom 12.4970729317826823 20.6217042226181668 9.3949146710281983 Zr
    velocity -0.0334960668825478 -0.4308762920211606 0.4625584698584720
atom 17.6490729317826833 20.6217042226181668 9.3949146710281983 Zr
    velocity 0.1990271562686900 0.5670719774433253 0.0555201601381312
atom 22.8010729317826808 20.6217042226181668 9.3949146710281983 Zr
    velocity -1.1273863963466129 0.5789631484872912 0.1076111649876551
atom 2.1930729317826838 25.8327042226181689 9.3949146710281983 Zr
    velocity -0.7414442011226986 0.2683470358954191 -0.3013909773367399
atom 7.3450729317826822 25.8327042226181689 9.3949146710281983 Zr
    velocity 0.0746038538463779 -0.2711226816076422 -0.0790037808853782
atom 12.4970729317826823 25.8327042226181689 9.3949146710281983 Zr
    velocity -0.2289957163754285 -0.0296236750098827 -0.2162570461212552
atom 17.6490729317826833 25.8327042226181689 9.3949146710281983 Zr
    velocity 0.1846663618006037 0.2781579576195675 -0.2301032177721371
atom 22.8010729317826808 25.8327042226181689 9.3949146710281983 Zr
    velocity 0.1819465521204812 -0.4284826851357639 -0.2334785916331845
atom 1.3364118268888554 4.9887042226181642 14.6434626370243226 Zr
    velocity -0.0474505095237114 -0.0011684815955195 0.9119292880674312
atom 6.4884118268888535 4.9887042226181642 14.6434626370243226 Zr
    velocity 0.1943510816301553 0.5370045004840851 0.1416928526224574
atom 11.6404118268888528 4.9887042226181642 14.6434626370243226 Zr
    velocity 0.1040361692275376 0.4171677160925392 -0.0868311085538448
atom 16.7924118268888556 4.9887042226181642 14.6434626370243226 Zr
    velocity -0.0297935830572816 0.3261738378054644 0.1290530996433852
atom 21.9444118268888531 4.9887042226181642 14.6434626370243226 Zr
    velocity -0.1353879947222637 0.0534621128267142 -0.3106694665847893
atom 1.3364118268888554 10.1997042226181662 14.6434626370243226 Zr
    velocity -0.2754629271415753 -0.1049442993369080 0.3762324591359542
atom 6.4884118268888535 10.1997042226181662 14.6434626370243226 Zr
    velocity 0.3394581555258279 -0.1009723122069044 0.0185428725845115
atom 11.6404118268888528 10.1997042226181662 14.6434626370243226 Zr
    velocity 0.0944125719149910 -0.2049135904723638 0.3268300234315754
atom 16.7924118268888556 10.1997042226181662 14.6434626370243226 Zr
    velocity 0.4987349169833226 -0.3812496404601318 -0.1780925166444128
atom 21.9444118268888531 10.1997042226181662 14.6434626370243226 Zr
    velocity -0.0969085852595477 0.1819037949726179 0.1142429615475590
atom 1.3364118268888554 15.4107042226181647 14.6434626370243226 Zr
    velocity 0.0813770371509071 -0.3169451847776060 0.0555468576458219
atom 6.4884118268888535 15.4107042226181647 14.6434626370243226 Zr
    velocity -0.3921467227143311 -0.2104882715446158 0.1849836846856852
atom 11.6404118268888528 15.4107042226181647 14.6434626370243226 Zr
    velocity -0.0917279923050873 -0.1405807801782251 -0.1726794497454503
atom 16.7924118268888556 15.4107042226181647 14.6434626370243226 Zr
    velocity -0.5599937991426974 0.2315052996363287 0.0074950691956886
atom 21.9444118268888531 15.4107042226181647 14.6434626370243226 Zr
    velocity -0.0141631312460691 0.0867356360258042 0.2442663664096603
atom 1.3364118268888554 20.6217042226181668 14.6434626370243226 Zr
    velocity -0.5371083221555668 -0.1094502982723248 0.3835343728080419
atom 6.4884118268888535 20.6217042226181668 14.6434626370243226 Zr
    velocity 0.2298099090788842 0.1009198319462994 0.4188692892507311
atom 11.6404118268888528 20.6217042226181668 14.6434626370243226 Zr
    velocity 0.1612908588195232 0.0137315252599631 0.4637535027283539
atom 16.7924118268888556 20.6217042226181668 14.6434626370243226 Zr
    velocity -0.1775524725481016 -0.4749329058834419 -0.1756096850998064
atom 21.9444118268888531 20.6217042226181668 14.6434626370243226 Zr
    velocity 0.3347803063747398 -0.1790321199532887 -0.0101874666245182
atom 1.3364118268888554 25.8327042226181689 14.6434626370243226 Zr
    velocity -0.4874024318453045 0.1622957480238233 0.2429151600422960
atom 6.4884118268888535 25.8327042226181689 14.6434626370243226 Zr
    velocity -0.4171126230414862 -0.6300025978942666 0.3379425984742584
atom 11.6404118268888528 25.8327042226181689 14.6434626370243226 Zr
    velocity 0.1279227068700811 -0.1056640957439066 -0.1686846479859319
atom 16.7924118268888556 25.8327042226181689 14.6434626370243226 Zr
    velocity 0.0231913374246252 0.1348613477575996 0.6420808561052500
atom 21.9444118268888531 25.8327042226181689 14.6434626370243226 Zr
    velocity -0.0246583028104633 0.2111494644612298 0.0575351560540171
atom 0.4797507219950238 4.9887042226181642 19.8920106030204522 Zr
    velocity 0.1786646071099193 -0.1515889095264400 -0.0240970615310547
atom 5.6317507219950240 4.9887042226181642 19.8920106030204522 Zr
    velocity -0.1410471655338286 -0.3918479651168372 0.0378167063968236
atom 10.7837507219950233 4.9887042226181642 19.8920106030204522 Zr
    velocity -0.1829022168542694 -0.1414793063246765 0.5952418835181744
atom 15.9357507219950261 4.9887042226181642 19.8920106030204522 Zr
    velocity 0.1956429568555686 -0.0861346030924498 -0.2732713103594780
atom 21.0877507219950253 4.9887042226181642 19.8920106030204522 Zr
    velocity -0.4122963635758736 0.0709646722575063 -0.1360373960142885
atom 0.4797507219950238 10.1997042226181662 19.8920106030204522 Zr
    velocity 0.1483325784118843 0.1910630791057717 0.3091374269537636
atom 5.6317507219950240 10.1997042226181662 19.8920106030204522 Zr
    velocity 0.0451101426587305 0.1768989723755853 -0.2025741724205029
atom 10.7837507219950233 10.1997042226181662 19.8920106030204522 Zr
    velocity -0.1505148420422523 0.5667852623590262 0.2441977265675785
atom 15.9357507219950261 10.1997042226181662 19.8920106030204522 Zr
    velocity -0.3158347605806929 0.4690035313072761 -0.2163264933402756
atom 21.0877507219950253 10.1997042226181662 19.8920106030204522 Zr
    velocity -0.0382689884384323 0.4911987509034980 -0.7031834026135907
atom 0.4797507219950238 15.4107042226181647 19.8920106030204522 Zr
    velocity -0.1063200643070630 0.3070109023832413 0.2752285044586937
atom 5.6317507219950240 15.4107042226181647 19.8920106030204522 Zr