#=======================================================
# FHI-aims file: geometry.in.supercell.0010K
# Created using the Atomic Simulation Environment (ASE)
# Mon Dec 28 22:25:15 2020

# Additional information:
#  created from MB distrubtion
#  T = 10.0 K
#  quantum:             False
#  deterministic:       False
#  plus_minus:          False
#  gauge_eigenvectors:  False
#  Random seed:         1863069049
#  Sample number:       1
#=======================================================
lattice_vector 10.1952194790879993 0.0000002312840000 0.0000001149100000 
lattice_vector 0.0000002312840000 10.1952585700719993 -0.0000000817060000 
lattice_vector 0.0000001174240000 -0.0000000834940000 10.4472499926080005 
atom 10.1952195705575175 0.0000001715475008 10.4472500947462343 Zr
    velocity 0.2595588866161722 -0.0134200813150018 0.5433469578675101
atom 2.5488050190625202 2.5488146406025010 10.4472499881372372 Zr
    velocity 0.2595642862497174 0.0426404081252564 -0.0374932266338332
atom 5.0976099466555187 5.0976293409415012 10.4472499964382344 Zr
    velocity 0.0631247814757682 0.2189122109292845 0.1189822788496816
atom 7.6464148742485190 7.6464440412804997 10.4472500047392334 Zr
    velocity 0.2423622639335666 0.4383262741498876 -0.3303674882510661
atom 7.6464147586065190 2.5488147562445009 10.4472500455922344 Zr
    velocity -0.0579998804152288 0.1946065701892749 -0.1432380993581165
atom 10.1952196861995183 5.0976294565835012 10.4472500538932334 Zr
    velocity -0.3515568276132146 -0.2816547112711479 -0.1798238899247307
atom 2.5488051347045202 7.6464439256384997 10.4472499472842326 Zr
    velocity -0.0465547726535805 -0.1759972247194708 -0.0322085299632505
atom 5.0976098310135187 0.0000000559055008 10.4472500372912371 Zr
    velocity -0.1431949457581619 -0.3171766317986246 -0.3828696109317708
atom 10.1952195118455187 0.0000002132945008 5.2236250984422359 Zr
    velocity 0.1540356811818549 -0.2008614700536088 -0.2791065107229506
atom 2.5488049603505201 2.5488146823495006 5.2236249918332351 Zr
    velocity 0.2200861996366416 -0.0354221336990451 0.2068320608712557
atom 5.0976098879435190 5.0976293826885017 5.2236250001342359 Zr
    velocity 0.2926058030638174 0.0660257770866898 -0.1730646135774463
atom 7.6464148155365192 7.6464440830275002 5.2236250084352358 Zr
    velocity -0.3065588415618841 -0.3171999030074152 -0.1898274480895956
atom 7.6464146998945193 2.5488147979915006 5.2236250492882359 Zr
    velocity 0.0839761298309984 -0.0001838540076216 0.2446623390613467
atom 10.1952196274875195 5.0976294983305017 5.2236250575892358 Zr
    velocity -0.0128253633670714 0.2218636911300610 -0.4264651126382717
atom 2.5488050759925200 7.6464439673855003 5.2236249509802359 Zr
    velocity 0.0761925177019277 -0.7063687710339476 0.2308808978695662
atom 5.0976097723015190 0.0000000976525008 5.2236250409872360 Zr
    velocity 0.2966358279449153 -0.6630086397217052 0.3414623971696611
atom 0.0000001020416280 2.5488145286739359 2.6118124866735699 Zr
    velocity 0.5197119773131392 0.3039933272193830 0.6657954178018881
atom 2.5488050296346279 5.0976292290129361 2.6118124949745689 Zr
    velocity -0.0752279124119071 0.3448895621583608 -0.6284383722205225
atom 5.0976099572276272 7.6464439293519364 2.6118125032755688 Zr
    velocity -0.2820625088201908 0.5350862659717914 0.1080457099207907
atom 7.6464148848206275 10.1952586296909367 2.6118125115765700 Zr
    velocity -0.3629058347807288 -0.1692275826842448 -0.2948438221626649
atom 7.6464147691786275 5.0976293446549361 2.6118125524295688 Zr
    velocity -0.3134672903958141 0.0965348593638512 0.0913090245769119
atom 0.0000002176836280 7.6464438137099364 2.6118124458205698 Zr
    velocity -0.2883554630623958 -0.6978958908056421 0.3835189623757830
atom 2.5488051452766278 10.1952585140489358 2.6118124541215688 Zr
    velocity -0.5281166948419134 -0.0182011114048530 -0.3570681117069215
atom 5.0976098415856272 2.5488146443159372 2.6118125441285689 Zr
    velocity -0.0843399308226341 -0.3269445534807890 0.1665442706342513
atom 0.0000001607536280 2.5488144869269376 7.8354374829775697 Zr
    velocity 0.1044478328061262 -0.0227530306057782 -0.2262925640223322
atom 2.5488050883466276 5.0976291872659365 7.8354374912785696 Zr
    velocity 0.0196142886197617 0.2773727904007978 0.0846600787209750
atom 5.0976100159396269 7.6464438876049368 7.8354374995795686 Zr
    velocity -0.0251592032210868 0.3397349978282319 0.3622418112770831
atom 7.6464149435326272 10.1952585879439361 7.8354375078805685 Zr
    velocity -0.0028742302909173 0.1933134124395203 0.0568938573729817
atom 7.6464148278906272 5.0976293029079365 7.8354375487335686 Zr
    velocity -0.1262537603280471 0.2996016684220901 -0.3513434854738191
atom 0.0000002763956280 7.6464437719629368 7.8354374421245696 Zr
    velocity 0.2678463330887103 -0.4844558333026127 0.1165431390309876
atom 2.5488052039886275 10.1952584723019353 7.8354374504255695 Zr
    velocity 0.7914585145220515 -0.3194518021325145 -0.2001354178890533
atom 5.0976099002976270 2.5488146025689384 7.8354375404325696 Zr
    velocity -0.1600896825338623 0.0323897617171993 0.3017243084921693
atom 1.2744024515736083 1.2744073718773856 1.0024190245136309 O
    velocity 0.6831880317045713 0.0831970341181590 -1.5679563176117988
atom 3.8232073791666079 3.8232220722163857 1.0024190328146307 O
    velocity -1.9473767834433833 0.4256839065760344 0.6185363210698893
atom 6.3720123067596077 6.3720367725553846 1.0024190411156308 O
    velocity -0.0039266778600398 0.1649279625473679 -1.3029784593940881
atom 8.9208172343526080 8.9208514728943840 1.0024190494166307 O
    velocity 0.2165071673902474 -0.3165669464783630 -0.1314507693282874
atom 8.9208171187106071 3.8232221878583856 1.0024190902696308 O
    velocity 0.0366161091113604 0.9441494550327925 -0.5577366411446358
atom 1.2744025672156083 6.3720366569133855 1.0024189836606308 O
    velocity -0.5717945806316905 -0.2647834143548569 -1.3222637437764000
atom 3.8232074948086079 8.9208513572523866 1.0024189919616309 O
    velocity -1.0015955138363903 -0.3866101190098177 0.7520118596308968
atom 6.3720121911176069 1.2744074875193858 1.0024190819686307 O
    velocity -0.3753673323959019 1.1728865368194727 0.0209981493865296
atom 1.2744025102856082 1.2744073301303855 6.2260440208176311 O
    velocity -0.7543823731449509 0.0931358786778807 0.2027389578529052
atom 3.8232074378786081 3.8232220304693865 6.2260440291186310 O
    velocity 0.5428727504898204 -0.3521765230678125 1.0052162367366924
atom 6.3720123654716074 6.3720367308083841 6.2260440374196282 O
    velocity 0.0828176629558076 -0.7211458010746459 0.4582176711857289
atom 8.9208172930646086 8.9208514311473852 6.2260440457206290 O
    velocity -0.2512326602531023 -0.5073897291347976 0.0381327720314331
atom 8.9208171774226077 3.8232221461113864 6.2260440865736282 O
    velocity 0.5428693481291457 0.4586353106862600 -0.6190178100794178
atom 1.2744026259276082 6.3720366151663841 6.2260439799646310 O
    velocity -0.9311799295608583 -0.2202219801011230 0.3625410262003842
atom 3.8232075535206080 8.9208513155053879 6.2260439882656282 O
    velocity 0.8572929042591519 -0.6618875903385929 0.8652525382095146
atom 6.3720122498296066 1.2744074457723857 6.2260440782726310 O
    velocity 0.4158490147606183 -0.7802103437435127 -0.3845241252371693
atom 1.2744025328003397 1.2744073262829310 3.6142318818368619 O
    velocity 0.5807278050766146 -0.2679346627582103 -0.6133962624353627
atom 3.8232074603933399 3.8232220266219321 3.6142318901378605 O
    velocity -1.4054566835990447 -0.9437863072905338 0.1401161756399460
atom 6.3720123879863388 6.3720367269609302 3.6142318984388608 O
    velocity -0.5513166453853141 -0.6000481870592762 0.1087431254323933
atom 8.9208173155793382 8.9208514272999295 3.6142319067398607 O
    velocity -0.4372603004199262 0.4149192249160931 -1.1174450312915964
atom 8.9208171999373391 3.8232221422639321 3.6142319475928608 O
    velocity -0.3765859407970807 0.5471606284989761 0.9839221195415245
atom 1.2744026484423396 6.3720366113189302 3.6142318409838605 O
    velocity -0.6412653553604500 -0.0614970749671981 -0.1208632296528026
atom 3.8232075760353399 8.9208513116579340 3.6142318492848604 O
    velocity 0.1579783126048969 0.4678007868532081 -0.5960494149269058
atom 6.3720122723443389 1.2744074419249318 3.6142319392918605 O
    velocity 0.2510844590069850 0.8971620479606517 1.5926220794844814
atom 1.2744025915123398 1.2744072845359309 8.8378568781408617 O
    velocity -0.1352864734015951 1.3002172675625596 0.1388973406856066
atom 3.8232075191053396 3.8232219848749307 8.8378568864418625 O
    velocity 0.0687328133822573 0.5414936501814781 -0.5111003348382858
atom 6.3720124466983394 6.3720366852139296 8.8378568947428615 O
    velocity -1.0899450614225232 0.4364004617613773 0.4980817222114479
atom 8.9208173742913388 8.9208513855529290 8.8378569030438587 O
    velocity 1.9937536797640780 1.2934753740681686 0.2198668301525766
atom 8.9208172586493397 3.8232221005169307 8.8378569438968615 O
    velocity 0.7294372679020058 0.2736563583464195 -0.0725825545099055
atom 1.2744027071543398 6.3720365695719297 8.8378568372878625 O
    velocity -0.2475255749476913 -0.3831724001714472 0.3041630898811007
atom 3.8232076347473396 8.9208512699109299 8.8378568455888615 O
    velocity -0.8551857398812881 -0.3460960646894194 0.7971266103561051
atom 6.3720123310563395 1.2744074001779317 8.8378569355958625 O
    velocity -0.3593342776496734 0.0643738625928530 0.3504919341985004
atom 8.9208170733548702 1.2744075145374438 1.6093931900202196 O
    velocity -0.4313687921804459 -1.1217979769022701 0.5642455241170682
atom 1.2744025218598707 3.8232219835924428 1.6093930834112196 O
    velocity 1.2184732300281043 0.4530465743339716 -1.4825501674577510
atom 3.8232074494528705 6.3720366839314426 1.6093930917122194 O
    velocity -0.5973653726456183 0.2821870438211803 -1.5766864333638322
atom 6.3720123770458708 8.9208513842704420 1.6093931000132196 O
    velocity 0.1373916802267124 -0.4824534821162627 0.5478393502436720
atom 6.3720122614038708 3.8232220992344428 1.6093931408662194 O
    velocity -0.1465816888347901 0.5828299274089893 0.6927423755426484
atom 8.9208171889968693 6.3720367995734426 1.6093931491672195 O
    velocity 0.7113766618265097 -0.7838090122294367 0.0097111967643223
atom 1.2744026375018709 8.9208512686284411 1.6093930425582195 O
    velocity -0.6460278109024047 0.1161480464484407 0.8270914119022589
atom 3.8232073338108705 1.2744073988954427 1.6093931325652195 O
    velocity 1.0455327544056734 1.0468950300972517 1.4419386762632471
atom 8.9208171320668708 1.2744074727904438 6.8330181863242210 O
    velocity -1.8226100163574370 0.0312335056459304 -0.0612993178822995
atom 1.2744025805718706 3.8232219418454427 6.8330180797152194 O
    velocity -0.3450787239319386 0.1318827778554328 0.6177490641732671
atom 3.8232075081648702 6.3720366421844430 6.8330180880162210 O
    velocity 0.2970910546750473 -0.3082323706652718 -2.1977723026121216
atom 6.3720124357578705 8.9208513425234468 6.8330180963172182 O
    velocity 0.6437484712333954 0.7765091466344014 -1.1334859279660625
atom 6.3720123201158705 3.8232220574874427 6.8330181371702210 O
    velocity -0.4391734157870361 0.0359328303553567 0.9862298565918490
atom 8.9208172477088699 6.3720367578264430 6.8330181454712182 O
    velocity 0.5341859330123470 0.9604399137957021 -0.7655511356641432
atom 1.2744026962138708 8.9208512268814424 6.8330180388622210 O
    velocity -0.7994275784884975 -0.1963534499132943 -0.3240761635518412
atom 3.8232073925228702 1.2744073571484427 6.8330181288692193 O
    velocity 0.1604597966133739 -0.4604810573540363 0.8138544390935668
atom 8.9208171446055804 1.2744075206278507 4.2212060890279774 O
    velocity -0.4587399893550049 0.4790361543417044 0.5386504338359882
atom 1.2744025931105816 3.8232219896828505 4.2212059824189776 O
    velocity 0.3560787413458191 -0.6485170084967833 0.2500554405617710
atom 3.8232075207035812 6.3720366900218535 4.2212059907199775 O
    velocity 0.4697570672724163 -0.2000540487879696 0.2801847305617957
atom 6.3720124482965810 8.9208513903608520 4.2212059990209783 O
    velocity 0.5358388588570279 -0.8268228151601861 0.7198393621726907
atom 6.3720123326545810 3.8232221053248505 4.2212060398739775 O
    velocity 0.0233642475075574 -0.5988552418499355 0.8364798217540016
atom 8.9208172602475813 6.3720368056638534 4.2212060481749782 O
    velocity -0.3960760144584727 1.2752114135014496 -0.4996131495991226
atom 1.2744027087525815 8.9208512747188546 4.2212059415659775 O
    velocity 1.3130368502394527 -0.3443778114375523 0.2889585153316175
atom 3.8232074050615812 1.2744074049858529 4.2212060315729776 O
    velocity -0.2149207058208146 0.1779049621023330 0.1396501606012499
atom 8.9208172033175792 1.2744074788808506 9.4448310853319768 O
    velocity 0.9839841106837017 0.9804069843335342 -1.1892325691581775
atom 1.2744026518225815 3.8232219479358522 9.4448309787229743 O
    velocity 0.9700647226660257 -0.1715011301248315 0.3409161082533466
atom 3.8232075794155813 6.3720366482748512 9.4448309870239768 O
    velocity 0.1012751275040102 -0.3410560542853807 -1.1143666300271051
atom 6.3720125070085816 8.9208513486138514 9.4448309953249758 O
    velocity 0.4510999391561562 1.1043311428280942 1.1957618580279545
atom 6.3720123913665816 3.8232220635778522 9.4448310361779768 O
    velocity -0.5099679127692913 0.6955110050425463 -0.2877936070763967
atom 8.9208173189595801 6.3720367639168511 9.4448310444789758 O
    velocity -0.1728295657381357 0.6053048728381628 -0.3668622138975910
atom 1.2744027674645815 8.9208512329718488 9.4448309378699769 O
    velocity 0.1167986343053097 0.2018777586794546 0.4512182326717782
atom 3.8232074637735813 1.2744073632388528 9.4448310278769743 O
    velocity -1.0709632328840393 0.3101095716091953 0.1083633522427041
