#=======================================================
# FHI-aims file: 600_geometry.in.primitive.supercell_324
# Created using the Atomic Simulation Environment (ASE)
# Sat Nov 26 17:28:54 2022

# Additional information:
#  Number of atoms:     324
#  Spacegroup:          14
#  supercell:           True
#  supercell_matrix:    [3, 0, 0, 0, 3, 0, 0, 0, 3]
#  Supercell matrix:    [3 0 0 0 3 0 0 0 3]
#=======================================================
lattice_vector 15.4829999999999988 0.0000000000000000 0.0000000000000000 
lattice_vector 0.0000000000000000 15.6389999999999993 0.0000000000000000 
lattice_vector -2.5471331441792895 0.0000000000000000 15.7858231570553009 
atom_frac 0.0922296287806667 0.0142196492920000 0.0699991274783333 Zr
atom_frac 0.4255629621140001 0.0142196492920000 0.0699991274783333 Zr
atom_frac 0.7588962954473334 0.0142196492920000 0.0699991274783333 Zr
atom_frac 0.0922296287806667 0.3475529826253333 0.0699991274783333 Zr
atom_frac 0.4255629621140001 0.3475529826253333 0.0699991274783333 Zr
atom_frac 0.7588962954473334 0.3475529826253333 0.0699991274783333 Zr
atom_frac 0.0922296287806667 0.6808863159586667 0.0699991274783333 Zr
atom_frac 0.4255629621140001 0.6808863159586667 0.0699991274783333 Zr
atom_frac 0.7588962954473334 0.6808863159586667 0.0699991274783333 Zr
atom_frac 0.0922296287806667 0.0142196492920000 0.4033324608116667 Zr
atom_frac 0.4255629621140001 0.0142196492920000 0.4033324608116667 Zr
atom_frac 0.7588962954473334 0.0142196492920000 0.4033324608116667 Zr
atom_frac 0.0922296287806667 0.3475529826253333 0.4033324608116667 Zr
atom_frac 0.4255629621140001 0.3475529826253333 0.4033324608116667 Zr
atom_frac 0.7588962954473334 0.3475529826253333 0.4033324608116667 Zr
atom_frac 0.0922296287806667 0.6808863159586667 0.4033324608116667 Zr
atom_frac 0.4255629621140001 0.6808863159586667 0.4033324608116667 Zr
atom_frac 0.7588962954473334 0.6808863159586667 0.4033324608116667 Zr
atom_frac 0.0922296287806667 0.0142196492920000 0.7366657941450000 Zr
atom_frac 0.4255629621140001 0.0142196492920000 0.7366657941450000 Zr
atom_frac 0.7588962954473334 0.0142196492920000 0.7366657941450000 Zr
atom_frac 0.0922296287806667 0.3475529826253333 0.7366657941450000 Zr
atom_frac 0.4255629621140001 0.3475529826253333 0.7366657941450000 Zr
atom_frac 0.7588962954473334 0.3475529826253333 0.7366657941450000 Zr
atom_frac 0.0922296287806667 0.6808863159586667 0.7366657941450000 Zr
atom_frac 0.4255629621140001 0.6808863159586667 0.7366657941450000 Zr
atom_frac 0.7588962954473334 0.6808863159586667 0.7366657941450000 Zr
atom_frac 0.2411036855526667 0.3191136840413333 0.2633342105216667 Zr
atom_frac 0.5744370188860000 0.3191136840413333 0.2633342105216667 Zr
atom_frac 0.9077703522193332 0.3191136840413333 0.2633342105216667 Zr
atom_frac 0.2411036855526667 0.6524470173746667 0.2633342105216667 Zr
atom_frac 0.5744370188860000 0.6524470173746667 0.2633342105216667 Zr
atom_frac 0.9077703522193332 0.6524470173746667 0.2633342105216667 Zr
atom_frac 0.2411036855526667 0.9857803507079999 0.2633342105216667 Zr
atom_frac 0.5744370188860000 0.9857803507079999 0.2633342105216667 Zr
atom_frac 0.9077703522193332 0.9857803507079999 0.2633342105216667 Zr
atom_frac 0.2411036855526667 0.3191136840413333 0.5966675438549999 Zr
atom_frac 0.5744370188860000 0.3191136840413333 0.5966675438549999 Zr
atom_frac 0.9077703522193332 0.3191136840413333 0.5966675438549999 Zr
atom_frac 0.2411036855526667 0.6524470173746667 0.5966675438549999 Zr
atom_frac 0.5744370188860000 0.6524470173746667 0.5966675438549999 Zr
atom_frac 0.9077703522193332 0.6524470173746667 0.5966675438549999 Zr
atom_frac 0.2411036855526667 0.9857803507079999 0.5966675438549999 Zr
atom_frac 0.5744370188860000 0.9857803507079999 0.5966675438549999 Zr
atom_frac 0.9077703522193332 0.9857803507079999 0.5966675438549999 Zr
atom_frac 0.2411036855526667 0.3191136840413333 0.9300008771883332 Zr
atom_frac 0.5744370188859999 0.3191136840413333 0.9300008771883332 Zr
atom_frac 0.9077703522193332 0.3191136840413333 0.9300008771883332 Zr
atom_frac 0.2411036855526667 0.6524470173746667 0.9300008771883332 Zr
atom_frac 0.5744370188859999 0.6524470173746667 0.9300008771883332 Zr
atom_frac 0.9077703522193332 0.6524470173746667 0.9300008771883332 Zr
atom_frac 0.2411036855526667 0.9857803507079999 0.9300008771883332 Zr
atom_frac 0.5744370188859999 0.9857803507079999 0.9300008771883332 Zr
atom_frac 0.9077703522193332 0.9857803507079999 0.9300008771883332 Zr
atom_frac 0.2411036855526667 0.1808863159586667 0.0966675438550000 Zr
atom_frac 0.5744370188860000 0.1808863159586667 0.0966675438550000 Zr
atom_frac 0.9077703522193332 0.1808863159586667 0.0966675438550000 Zr
atom_frac 0.2411036855526667 0.5142196492920000 0.0966675438550000 Zr
atom_frac 0.5744370188860000 0.5142196492920000 0.0966675438550000 Zr
atom_frac 0.9077703522193332 0.5142196492920000 0.0966675438550000 Zr
atom_frac 0.2411036855526667 0.8475529826253334 0.0966675438550000 Zr
atom_frac 0.5744370188860000 0.8475529826253334 0.0966675438550000 Zr
atom_frac 0.9077703522193332 0.8475529826253334 0.0966675438550000 Zr
atom_frac 0.2411036855526667 0.1808863159586667 0.4300008771883334 Zr
atom_frac 0.5744370188860000 0.1808863159586667 0.4300008771883334 Zr
atom_frac 0.9077703522193332 0.1808863159586667 0.4300008771883334 Zr
atom_frac 0.2411036855526667 0.5142196492920000 0.4300008771883334 Zr
atom_frac 0.5744370188860000 0.5142196492920000 0.4300008771883334 Zr
atom_frac 0.9077703522193332 0.5142196492920000 0.4300008771883334 Zr
atom_frac 0.2411036855526667 0.8475529826253334 0.4300008771883334 Zr
atom_frac 0.5744370188860000 0.8475529826253334 0.4300008771883334 Zr
atom_frac 0.9077703522193332 0.8475529826253334 0.4300008771883334 Zr
atom_frac 0.2411036855526667 0.1808863159586667 0.7633342105216666 Zr
atom_frac 0.5744370188860000 0.1808863159586667 0.7633342105216666 Zr
atom_frac 0.9077703522193332 0.1808863159586667 0.7633342105216666 Zr
atom_frac 0.2411036855526667 0.5142196492920000 0.7633342105216666 Zr
atom_frac 0.5744370188860000 0.5142196492920000 0.7633342105216666 Zr
atom_frac 0.9077703522193332 0.5142196492920000 0.7633342105216666 Zr
atom_frac 0.2411036855526667 0.8475529826253334 0.7633342105216666 Zr
atom_frac 0.5744370188860000 0.8475529826253334 0.7633342105216666 Zr
atom_frac 0.9077703522193332 0.8475529826253334 0.7633342105216666 Zr
atom_frac 0.0922296287806667 0.1524470173746666 0.2366657941450000 Zr
atom_frac 0.4255629621140001 0.1524470173746666 0.2366657941450000 Zr
atom_frac 0.7588962954473335 0.1524470173746666 0.2366657941450000 Zr
atom_frac 0.0922296287806667 0.4857803507080000 0.2366657941450000 Zr
atom_frac 0.4255629621140001 0.4857803507080000 0.2366657941450000 Zr
atom_frac 0.7588962954473335 0.4857803507080000 0.2366657941450000 Zr
atom_frac 0.0922296287806667 0.8191136840413332 0.2366657941450000 Zr
atom_frac 0.4255629621140001 0.8191136840413332 0.2366657941450000 Zr
atom_frac 0.7588962954473335 0.8191136840413332 0.2366657941450000 Zr
atom_frac 0.0922296287806667 0.1524470173746666 0.5699991274783334 Zr
atom_frac 0.4255629621140001 0.1524470173746666 0.5699991274783334 Zr
atom_frac 0.7588962954473335 0.1524470173746666 0.5699991274783334 Zr
atom_frac 0.0922296287806667 0.4857803507080000 0.5699991274783334 Zr
atom_frac 0.4255629621140001 0.4857803507080000 0.5699991274783334 Zr
atom_frac 0.7588962954473335 0.4857803507080000 0.5699991274783334 Zr
atom_frac 0.0922296287806667 0.8191136840413332 0.5699991274783334 Zr
atom_frac 0.4255629621140001 0.8191136840413332 0.5699991274783334 Zr
atom_frac 0.7588962954473335 0.8191136840413332 0.5699991274783334 Zr
atom_frac 0.0922296287806667 0.1524470173746666 0.9033324608116666 Zr
atom_frac 0.4255629621140001 0.1524470173746666 0.9033324608116666 Zr
atom_frac 0.7588962954473336 0.1524470173746666 0.9033324608116666 Zr
atom_frac 0.0922296287806667 0.4857803507080000 0.9033324608116666 Zr
atom_frac 0.4255629621140001 0.4857803507080000 0.9033324608116666 Zr
atom_frac 0.7588962954473336 0.4857803507080000 0.9033324608116666 Zr
atom_frac 0.0922296287806667 0.8191136840413332 0.9033324608116666 Zr
atom_frac 0.4255629621140001 0.8191136840413332 0.9033324608116666 Zr
atom_frac 0.7588962954473336 0.8191136840413332 0.9033324608116666 Zr
atom_frac 0.0231551734486667 0.1116357742120000 0.1142261603786667 O
atom_frac 0.3564885067819999 0.1116357742120000 0.1142261603786667 O
atom_frac 0.6898218401153333 0.1116357742120000 0.1142261603786667 O
atom_frac 0.0231551734486667 0.4449691075453333 0.1142261603786667 O
atom_frac 0.3564885067819999 0.4449691075453333 0.1142261603786667 O
atom_frac 0.6898218401153333 0.4449691075453333 0.1142261603786667 O
atom_frac 0.0231551734486667 0.7783024408786666 0.1142261603786667 O
atom_frac 0.3564885067819999 0.7783024408786666 0.1142261603786667 O
atom_frac 0.6898218401153333 0.7783024408786666 0.1142261603786667 O
atom_frac 0.0231551734486667 0.1116357742120000 0.4475594937120000 O
atom_frac 0.3564885067819999 0.1116357742120000 0.4475594937120000 O
atom_frac 0.6898218401153333 0.1116357742120000 0.4475594937120000 O
atom_frac 0.0231551734486667 0.4449691075453333 0.4475594937120000 O
atom_frac 0.3564885067819999 0.4449691075453333 0.4475594937120000 O
atom_frac 0.6898218401153333 0.4449691075453333 0.4475594937120000 O
atom_frac 0.0231551734486667 0.7783024408786666 0.4475594937120000 O
atom_frac 0.3564885067819999 0.7783024408786666 0.4475594937120000 O
atom_frac 0.6898218401153333 0.7783024408786666 0.4475594937120000 O
atom_frac 0.0231551734486667 0.1116357742120000 0.7808928270453334 O
atom_frac 0.3564885067819999 0.1116357742120000 0.7808928270453334 O
atom_frac 0.6898218401153333 0.1116357742120000 0.7808928270453334 O
atom_frac 0.0231551734486667 0.4449691075453333 0.7808928270453334 O
atom_frac 0.3564885067819999 0.4449691075453333 0.7808928270453334 O
atom_frac 0.6898218401153333 0.4449691075453333 0.7808928270453334 O
atom_frac 0.0231551734486667 0.7783024408786666 0.7808928270453334 O
atom_frac 0.3564885067819999 0.7783024408786666 0.7808928270453334 O
atom_frac 0.6898218401153333 0.7783024408786666 0.7808928270453334 O
atom_frac 0.3101781408846667 0.2216975591213333 0.2191071776213334 O
atom_frac 0.6435114742179999 0.2216975591213333 0.2191071776213334 O
atom_frac 0.9768448075513334 0.2216975591213333 0.2191071776213334 O
atom_frac 0.3101781408846667 0.5550308924546666 0.2191071776213334 O
atom_frac 0.6435114742179999 0.5550308924546666 0.2191071776213334 O
atom_frac 0.9768448075513334 0.5550308924546666 0.2191071776213334 O
atom_frac 0.3101781408846667 0.8883642257880000 0.2191071776213334 O
atom_frac 0.6435114742179999 0.8883642257880000 0.2191071776213334 O
atom_frac 0.9768448075513334 0.8883642257880000 0.2191071776213334 O
atom_frac 0.3101781408846667 0.2216975591213333 0.5524405109546666 O
atom_frac 0.6435114742179998 0.2216975591213333 0.5524405109546666 O
atom_frac 0.9768448075513333 0.2216975591213333 0.5524405109546666 O
atom_frac 0.3101781408846667 0.5550308924546666 0.5524405109546666 O
atom_frac 0.6435114742179998 0.5550308924546666 0.5524405109546666 O
atom_frac 0.9768448075513333 0.5550308924546666 0.5524405109546666 O
atom_frac 0.3101781408846667 0.8883642257880000 0.5524405109546666 O
atom_frac 0.6435114742179998 0.8883642257880000 0.5524405109546666 O
atom_frac 0.9768448075513333 0.8883642257880000 0.5524405109546666 O
atom_frac 0.3101781408846667 0.2216975591213333 0.8857738442880000 O
atom_frac 0.6435114742179999 0.2216975591213333 0.8857738442880000 O
atom_frac 0.9768448075513334 0.2216975591213333 0.8857738442880000 O
atom_frac 0.3101781408846667 0.5550308924546666 0.8857738442880000 O
atom_frac 0.6435114742179999 0.5550308924546666 0.8857738442880000 O
atom_frac 0.9768448075513334 0.5550308924546666 0.8857738442880000 O
atom_frac 0.3101781408846667 0.8883642257880000 0.8857738442880000 O
atom_frac 0.6435114742179999 0.8883642257880000 0.8857738442880000 O
atom_frac 0.9768448075513334 0.8883642257880000 0.8857738442880000 O
atom_frac 0.3101781408846667 0.2783024408786666 0.0524405109546667 O
atom_frac 0.6435114742179999 0.2783024408786666 0.0524405109546667 O
atom_frac 0.9768448075513334 0.2783024408786666 0.0524405109546667 O
atom_frac 0.3101781408846667 0.6116357742120000 0.0524405109546667 O
atom_frac 0.6435114742179999 0.6116357742120000 0.0524405109546667 O
atom_frac 0.9768448075513334 0.6116357742120000 0.0524405109546667 O
atom_frac 0.3101781408846667 0.9449691075453333 0.0524405109546667 O
atom_frac 0.6435114742179999 0.9449691075453333 0.0524405109546667 O
atom_frac 0.9768448075513334 0.9449691075453333 0.0524405109546667 O
atom_frac 0.3101781408846667 0.2783024408786666 0.3857738442880000 O
atom_frac 0.6435114742179999 0.2783024408786666 0.3857738442880000 O
atom_frac 0.9768448075513334 0.2783024408786666 0.3857738442880000 O
atom_frac 0.3101781408846667 0.6116357742120000 0.3857738442880000 O
atom_frac 0.6435114742179999 0.6116357742120000 0.3857738442880000 O
atom_frac 0.9768448075513334 0.6116357742120000 0.3857738442880000 O
atom_frac 0.3101781408846667 0.9449691075453333 0.3857738442880000 O
atom_frac 0.6435114742179999 0.9449691075453333 0.3857738442880000 O
atom_frac 0.9768448075513334 0.9449691075453333 0.3857738442880000 O
atom_frac 0.3101781408846667 0.2783024408786666 0.7191071776213334 O
atom_frac 0.6435114742179999 0.2783024408786666 0.7191071776213334 O
atom_frac 0.9768448075513334 0.2783024408786666 0.7191071776213334 O
atom_frac 0.3101781408846667 0.6116357742120000 0.7191071776213334 O
atom_frac 0.6435114742179999 0.6116357742120000 0.7191071776213334 O
atom_frac 0.9768448075513334 0.6116357742120000 0.7191071776213334 O
atom_frac 0.3101781408846667 0.9449691075453333 0.7191071776213334 O
atom_frac 0.6435114742179999 0.9449691075453333 0.7191071776213334 O
atom_frac 0.9768448075513334 0.9449691075453333 0.7191071776213334 O
atom_frac 0.0231551734486667 0.0550308924546667 0.2808928270453334 O
atom_frac 0.3564885067819999 0.0550308924546667 0.2808928270453334 O
atom_frac 0.6898218401153333 0.0550308924546667 0.2808928270453334 O
atom_frac 0.0231551734486667 0.3883642257880000 0.2808928270453334 O
atom_frac 0.3564885067819999 0.3883642257880000 0.2808928270453334 O
atom_frac 0.6898218401153333 0.3883642257880000 0.2808928270453334 O
atom_frac 0.0231551734486667 0.7216975591213334 0.2808928270453334 O
atom_frac 0.3564885067819999 0.7216975591213334 0.2808928270453334 O
atom_frac 0.6898218401153333 0.7216975591213334 0.2808928270453334 O
atom_frac 0.0231551734486667 0.0550308924546667 0.6142261603786667 O
atom_frac 0.3564885067819999 0.0550308924546667 0.6142261603786667 O
atom_frac 0.6898218401153333 0.0550308924546667 0.6142261603786667 O
atom_frac 0.0231551734486667 0.3883642257880000 0.6142261603786667 O
atom_frac 0.3564885067819999 0.3883642257880000 0.6142261603786667 O
atom_frac 0.6898218401153333 0.3883642257880000 0.6142261603786667 O
atom_frac 0.0231551734486667 0.7216975591213334 0.6142261603786667 O
atom_frac 0.3564885067819999 0.7216975591213334 0.6142261603786667 O
atom_frac 0.6898218401153333 0.7216975591213334 0.6142261603786667 O
atom_frac 0.0231551734486667 0.0550308924546667 0.9475594937120000 O
atom_frac 0.3564885067819999 0.0550308924546667 0.9475594937120000 O
atom_frac 0.6898218401153333 0.0550308924546667 0.9475594937120000 O
atom_frac 0.0231551734486667 0.3883642257880000 0.9475594937120000 O
atom_frac 0.3564885067819999 0.3883642257880000 0.9475594937120000 O
atom_frac 0.6898218401153333 0.3883642257880000 0.9475594937120000 O
atom_frac 0.0231551734486667 0.7216975591213334 0.9475594937120000 O
atom_frac 0.3564885067819999 0.7216975591213334 0.9475594937120000 O
atom_frac 0.6898218401153333 0.7216975591213334 0.9475594937120000 O
atom_frac 0.1497427910916667 0.2524768429360000 0.1597363998430000 O
atom_frac 0.4830761244250000 0.2524768429360000 0.1597363998430000 O
atom_frac 0.8164094577583333 0.2524768429360000 0.1597363998430000 O
atom_frac 0.1497427910916667 0.5858101762693334 0.1597363998430000 O
atom_frac 0.4830761244250000 0.5858101762693334 0.1597363998430000 O
atom_frac 0.8164094577583333 0.5858101762693334 0.1597363998430000 O
atom_frac 0.1497427910916667 0.9191435096026666 0.1597363998430000 O
atom_frac 0.4830761244250000 0.9191435096026666 0.1597363998430000 O
atom_frac 0.8164094577583333 0.9191435096026666 0.1597363998430000 O
atom_frac 0.1497427910916667 0.2524768429360000 0.4930697331763333 O
atom_frac 0.4830761244250001 0.2524768429360000 0.4930697331763333 O
atom_frac 0.8164094577583333 0.2524768429360000 0.4930697331763333 O
atom_frac 0.1497427910916667 0.5858101762693334 0.4930697331763333 O
atom_frac 0.4830761244250001 0.5858101762693334 0.4930697331763333 O
atom_frac 0.8164094577583333 0.5858101762693334 0.4930697331763333 O
atom_frac 0.1497427910916667 0.9191435096026666 0.4930697331763333 O
atom_frac 0.4830761244250001 0.9191435096026666 0.4930697331763333 O
atom_frac 0.8164094577583333 0.9191435096026666 0.4930697331763333 O
atom_frac 0.1497427910916667 0.2524768429360000 0.8264030665096667 O
atom_frac 0.4830761244250000 0.2524768429360000 0.8264030665096667 O
atom_frac 0.8164094577583333 0.2524768429360000 0.8264030665096667 O
atom_frac 0.1497427910916667 0.5858101762693334 0.8264030665096667 O
atom_frac 0.4830761244250000 0.5858101762693334 0.8264030665096667 O
atom_frac 0.8164094577583333 0.5858101762693334 0.8264030665096667 O
atom_frac 0.1497427910916667 0.9191435096026666 0.8264030665096667 O
atom_frac 0.4830761244250000 0.9191435096026666 0.8264030665096667 O
atom_frac 0.8164094577583333 0.9191435096026666 0.8264030665096667 O
atom_frac 0.1835905232416666 0.0808564903973333 0.1735969381570000 O
atom_frac 0.5169238565750001 0.0808564903973333 0.1735969381570000 O
atom_frac 0.8502571899083332 0.0808564903973333 0.1735969381570000 O
atom_frac 0.1835905232416666 0.4141898237306667 0.1735969381570000 O
atom_frac 0.5169238565750001 0.4141898237306667 0.1735969381570000 O
atom_frac 0.8502571899083332 0.4141898237306667 0.1735969381570000 O
atom_frac 0.1835905232416666 0.7475231570640000 0.1735969381570000 O
atom_frac 0.5169238565750001 0.7475231570640000 0.1735969381570000 O
atom_frac 0.8502571899083332 0.7475231570640000 0.1735969381570000 O
atom_frac 0.1835905232416666 0.0808564903973333 0.5069302714903334 O
atom_frac 0.5169238565750001 0.0808564903973333 0.5069302714903334 O
atom_frac 0.8502571899083332 0.0808564903973333 0.5069302714903334 O
atom_frac 0.1835905232416666 0.4141898237306667 0.5069302714903334 O
atom_frac 0.5169238565750001 0.4141898237306667 0.5069302714903334 O
atom_frac 0.8502571899083332 0.4141898237306667 0.5069302714903334 O
atom_frac 0.1835905232416666 0.7475231570640000 0.5069302714903334 O
atom_frac 0.5169238565750001 0.7475231570640000 0.5069302714903334 O
atom_frac 0.8502571899083332 0.7475231570640000 0.5069302714903334 O
atom_frac 0.1835905232416666 0.0808564903973333 0.8402636048236667 O
atom_frac 0.5169238565750001 0.0808564903973333 0.8402636048236667 O
atom_frac 0.8502571899083331 0.0808564903973333 0.8402636048236667 O
atom_frac 0.1835905232416666 0.4141898237306667 0.8402636048236667 O
atom_frac 0.5169238565750001 0.4141898237306667 0.8402636048236667 O
atom_frac 0.8502571899083331 0.4141898237306667 0.8402636048236667 O
atom_frac 0.1835905232416666 0.7475231570640000 0.8402636048236667 O
atom_frac 0.5169238565750001 0.7475231570640000 0.8402636048236667 O
atom_frac 0.8502571899083331 0.7475231570640000 0.8402636048236667 O
atom_frac 0.1835905232416667 0.0858101762693333 0.0069302714903333 O
atom_frac 0.5169238565750002 0.0858101762693333 0.0069302714903333 O
atom_frac 0.8502571899083333 0.0858101762693333 0.0069302714903333 O
atom_frac 0.1835905232416667 0.4191435096026667 0.0069302714903333 O
atom_frac 0.5169238565750002 0.4191435096026667 0.0069302714903333 O
atom_frac 0.8502571899083333 0.4191435096026667 0.0069302714903333 O
atom_frac 0.1835905232416667 0.7524768429359999 0.0069302714903333 O
atom_frac 0.5169238565750002 0.7524768429359999 0.0069302714903333 O
atom_frac 0.8502571899083333 0.7524768429359999 0.0069302714903333 O
atom_frac 0.1835905232416667 0.0858101762693333 0.3402636048236667 O
atom_frac 0.5169238565750002 0.0858101762693333 0.3402636048236667 O
atom_frac 0.8502571899083333 0.0858101762693333 0.3402636048236667 O
atom_frac 0.1835905232416667 0.4191435096026667 0.3402636048236667 O
atom_frac 0.5169238565750002 0.4191435096026667 0.3402636048236667 O
atom_frac 0.8502571899083333 0.4191435096026667 0.3402636048236667 O
atom_frac 0.1835905232416667 0.7524768429359999 0.3402636048236667 O
atom_frac 0.5169238565750002 0.7524768429359999 0.3402636048236667 O
atom_frac 0.8502571899083333 0.7524768429359999 0.3402636048236667 O
atom_frac 0.1835905232416667 0.0858101762693333 0.6735969381569999 O
atom_frac 0.5169238565750002 0.0858101762693333 0.6735969381569999 O
atom_frac 0.8502571899083333 0.0858101762693333 0.6735969381569999 O
atom_frac 0.1835905232416667 0.4191435096026667 0.6735969381569999 O
atom_frac 0.5169238565750002 0.4191435096026667 0.6735969381569999 O
atom_frac 0.8502571899083333 0.4191435096026667 0.6735969381569999 O
atom_frac 0.1835905232416667 0.7524768429359999 0.6735969381569999 O
atom_frac 0.5169238565750002 0.7524768429359999 0.6735969381569999 O
atom_frac 0.8502571899083333 0.7524768429359999 0.6735969381569999 O
atom_frac 0.1497427910916667 0.2475231570640000 0.3264030665096668 O
atom_frac 0.4830761244250000 0.2475231570640000 0.3264030665096668 O
atom_frac 0.8164094577583333 0.2475231570640000 0.3264030665096668 O
atom_frac 0.1497427910916667 0.5808564903973333 0.3264030665096668 O
atom_frac 0.4830761244250000 0.5808564903973333 0.3264030665096668 O
atom_frac 0.8164094577583333 0.5808564903973333 0.3264030665096668 O
atom_frac 0.1497427910916667 0.9141898237306667 0.3264030665096668 O
atom_frac 0.4830761244250000 0.9141898237306667 0.3264030665096668 O
atom_frac 0.8164094577583333 0.9141898237306667 0.3264030665096668 O
atom_frac 0.1497427910916667 0.2475231570640000 0.6597363998430001 O
atom_frac 0.4830761244250000 0.2475231570640000 0.6597363998430001 O
atom_frac 0.8164094577583333 0.2475231570640000 0.6597363998430001 O
atom_frac 0.1497427910916667 0.5808564903973333 0.6597363998430001 O
atom_frac 0.4830761244250000 0.5808564903973333 0.6597363998430001 O
atom_frac 0.8164094577583333 0.5808564903973333 0.6597363998430001 O
atom_frac 0.1497427910916667 0.9141898237306667 0.6597363998430001 O
atom_frac 0.4830761244250000 0.9141898237306667 0.6597363998430001 O
atom_frac 0.8164094577583333 0.9141898237306667 0.6597363998430001 O
atom_frac 0.1497427910916667 0.2475231570640000 0.9930697331763334 O
atom_frac 0.4830761244250000 0.2475231570640000 0.9930697331763334 O
atom_frac 0.8164094577583333 0.2475231570640000 0.9930697331763334 O
atom_frac 0.1497427910916667 0.5808564903973333 0.9930697331763334 O
atom_frac 0.4830761244250000 0.5808564903973333 0.9930697331763334 O
atom_frac 0.8164094577583333 0.5808564903973333 0.9930697331763334 O
atom_frac 0.1497427910916667 0.9141898237306667 0.9930697331763334 O
atom_frac 0.4830761244250000 0.9141898237306667 0.9930697331763334 O
atom_frac 0.8164094577583333 0.9141898237306667 0.9930697331763334 O
