#=======================================================
# FHI-aims file: geometry.in.supercell.0010K
# Created using the Atomic Simulation Environment (ASE)
# Mon Dec 28 22:31:41 2020

# Additional information:
#  created from MB distrubtion
#  T = 10.0 K
#  quantum:             False
#  deterministic:       False
#  plus_minus:          False
#  gauge_eigenvectors:  False
#  Random seed:         1588468436
#  Sample number:       1
#=======================================================
lattice_vector 10.1952194790879993 0.0000002312840000 0.0000001149100000 
lattice_vector 0.0000002312840000 10.1952585700719993 -0.0000000817060000 
lattice_vector 0.0000001174240000 -0.0000000834940000 10.4472499926080005 
atom 10.1952195705575175 0.0000001715475008 10.4472500947462343 Zr
    velocity -0.4076003144417590 -0.3039751645553731 0.3820261559031172
atom 2.5488050190625202 2.5488146406025010 10.4472499881372372 Zr
    velocity -0.0573125452881329 0.1734352728061970 0.3919124105632976
atom 5.0976099466555187 5.0976293409415012 10.4472499964382344 Zr
    velocity 0.3102356817228108 0.2133213785047487 -0.0591866676392225
atom 7.6464148742485190 7.6464440412804997 10.4472500047392334 Zr
    velocity 0.1489661801603153 -0.0196627506961292 0.1516536323135348
atom 7.6464147586065190 2.5488147562445009 10.4472500455922344 Zr
    velocity -0.5145158441396942 -0.1043279000797802 0.0449728328199721
atom 10.1952196861995183 5.0976294565835012 10.4472500538932334 Zr
    velocity 0.5175615872175572 0.2672327641823776 0.2246450198804856
atom 2.5488051347045202 7.6464439256384997 10.4472499472842326 Zr
    velocity -0.0761977296263174 0.0189918372874493 -0.2191693561160411
atom 5.0976098310135187 0.0000000559055008 10.4472500372912371 Zr
    velocity 0.1413954630641643 0.2093663348945030 0.0159393088691803
atom 10.1952195118455187 0.0000002132945008 5.2236250984422359 Zr
    velocity -0.4662187043887586 0.1587577230734928 -0.2727788132295611
atom 2.5488049603505201 2.5488146823495006 5.2236249918332351 Zr
    velocity -0.3015661809998486 0.1359316480172327 -0.0712603004812461
atom 5.0976098879435190 5.0976293826885017 5.2236250001342359 Zr
    velocity 0.5096377052495304 0.0626732326803692 0.1068820855359748
atom 7.6464148155365192 7.6464440830275002 5.2236250084352358 Zr
    velocity -0.0347059041643830 -0.0726533549278633 -0.0666060834394697
atom 7.6464146998945193 2.5488147979915006 5.2236250492882359 Zr
    velocity -0.0906246975314238 -0.3810809101525774 0.3773748954203979
atom 10.1952196274875195 5.0976294983305017 5.2236250575892358 Zr
    velocity 0.5071691093374611 -0.0356022957307173 0.0742056140056740
atom 2.5488050759925200 7.6464439673855003 5.2236249509802359 Zr
    velocity 0.1003969357328449 0.4828493744638006 -0.0502741695420026
atom 5.0976097723015190 0.0000000976525008 5.2236250409872360 Zr
    velocity -0.2792189594050133 -0.0677092479293972 0.4013079460380710
atom 0.0000001020416280 2.5488145286739359 2.6118124866735699 Zr
    velocity -0.3253642506988961 0.4053233108296049 -0.0775691594746308
atom 2.5488050296346279 5.0976292290129361 2.6118124949745689 Zr
    velocity -0.3411474255708148 0.0602156202942690 -0.0690077996455826
atom 5.0976099572276272 7.6464439293519364 2.6118125032755688 Zr
    velocity -0.2245446019918779 0.0158064763391088 -0.3370229280939996
atom 7.6464148848206275 10.1952586296909367 2.6118125115765700 Zr
    velocity 0.2702738067515436 -0.2587528892143339 0.2032328500854959
atom 7.6464147691786275 5.0976293446549361 2.6118125524295688 Zr
    velocity 0.0179935404626719 -0.0120827378967811 -0.0903858628251415
atom 0.0000002176836280 7.6464438137099364 2.6118124458205698 Zr
    velocity -0.0999807136861179 0.1604433996912864 -0.0881917588620859
atom 2.5488051452766278 10.1952585140489358 2.6118124541215688 Zr
    velocity 0.1346936338341641 0.2310660477611224 -0.0622987739846855
atom 5.0976098415856272 2.5488146443159372 2.6118125441285689 Zr
    velocity 0.4599660136176764 -0.1609248853974358 -0.1813787899459702
atom 0.0000001607536280 2.5488144869269376 7.8354374829775697 Zr
    velocity -0.0749657917772589 0.5871921336308042 0.1069429387501337
atom 2.5488050883466276 5.0976291872659365 7.8354374912785696 Zr
    velocity 0.0344145117333822 0.1018627938463012 0.0329154563016202
atom 5.0976100159396269 7.6464438876049368 7.8354374995795686 Zr
    velocity -0.2095297942493493 -0.5363384910108884 -0.3093095635898117
atom 7.6464149435326272 10.1952585879439361 7.8354375078805685 Zr
    velocity 0.1928478049771492 0.1771627066782449 -0.3188701703872446
atom 7.6464148278906272 5.0976293029079365 7.8354375487335686 Zr
    velocity 0.2572106176185252 0.3248609469987221 0.0503283756070860
atom 0.0000002763956280 7.6464437719629368 7.8354374421245696 Zr
    velocity -0.2926598647566062 0.3773746607997588 0.0543369915015286
atom 2.5488052039886275 10.1952584723019353 7.8354374504255695 Zr
    velocity 0.3257051428507328 -0.1079507964389891 0.1218911360710516
atom 5.0976099002976270 2.5488146025689384 7.8354375404325696 Zr
    velocity 0.0707599019375461 -0.4448362002026465 -0.0614048620088813
atom 1.2744024515736083 1.2744073718773856 1.0024190245136309 O
    velocity 0.1259182196548825 -2.0786240342509146 -0.1259714389840172
atom 3.8232073791666079 3.8232220722163857 1.0024190328146307 O
    velocity -0.1872382107149816 0.8734252751490326 0.4328123123075121
atom 6.3720123067596077 6.3720367725553846 1.0024190411156308 O
    velocity 0.1771710766132366 -0.6994495230914181 -0.3644689535533926
atom 8.9208172343526080 8.9208514728943840 1.0024190494166307 O
    velocity 0.5593705234170510 1.2002443938231186 0.5390264434413091
atom 8.9208171187106071 3.8232221878583856 1.0024190902696308 O
    velocity -0.1626046213354401 -0.3370012249277582 -0.2420636872877275
atom 1.2744025672156083 6.3720366569133855 1.0024189836606308 O
    velocity 0.6764157629853462 -1.9863641010705417 -0.2009263507114810
atom 3.8232074948086079 8.9208513572523866 1.0024189919616309 O
    velocity 0.2419055843745110 -1.4642264076334834 0.7346603509043586
atom 6.3720121911176069 1.2744074875193858 1.0024190819686307 O
    velocity -1.3730112780516941 -0.6799554088508347 0.3100977172642468
atom 1.2744025102856082 1.2744073301303855 6.2260440208176311 O
    velocity 1.7949886405221005 -0.1002958231958418 0.6753120065769322
atom 3.8232074378786081 3.8232220304693865 6.2260440291186310 O
    velocity 1.1518370211030544 -0.5192545332117651 -0.4631663429237450
atom 6.3720123654716074 6.3720367308083841 6.2260440374196282 O
    velocity 0.7986994124519575 0.2048938905374257 0.8304508653061814
atom 8.9208172930646086 8.9208514311473852 6.2260440457206290 O
    velocity 0.3796093863118095 0.2515162742334225 0.7901930599396122
atom 8.9208171774226077 3.8232221461113864 6.2260440865736282 O
    velocity -0.9939780952294495 -1.4018443863986092 -0.1508461827871986
atom 1.2744026259276082 6.3720366151663841 6.2260439799646310 O
    velocity -0.3513252798954675 -1.0721113436736442 -1.1866231653754666
atom 3.8232075535206080 8.9208513155053879 6.2260439882656282 O
    velocity 0.0428611603139836 0.6511741040598985 -0.7004689268486155
atom 6.3720122498296066 1.2744074457723857 6.2260440782726310 O
    velocity -1.0945360208242065 -0.5789537210224822 -0.4080649455050647
atom 1.2744025328003397 1.2744073262829310 3.6142318818368619 O
    velocity -0.0267241280207766 0.3444759882353902 0.2119749784543144
atom 3.8232074603933399 3.8232220266219321 3.6142318901378605 O
    velocity -0.2591538407181584 0.9414832311206147 0.2868885302665867
atom 6.3720123879863388 6.3720367269609302 3.6142318984388608 O
    velocity 0.4654574783716684 -0.9580260344985929 -0.8839305820637787
atom 8.9208173155793382 8.9208514272999295 3.6142319067398607 O
    velocity 0.3238500407629730 0.9355600394460213 -0.4461785492824072
atom 8.9208171999373391 3.8232221422639321 3.6142319475928608 O
    velocity 0.0058900982369496 -0.6539945283608658 0.3532313780931680
atom 1.2744026484423396 6.3720366113189302 3.6142318409838605 O
    velocity 0.9123594921756238 0.2349101560553828 0.0839793218639732
atom 3.8232075760353399 8.9208513116579340 3.6142318492848604 O
    velocity 1.1415635966755651 1.0427984430373010 -0.4414114712034907
atom 6.3720122723443389 1.2744074419249318 3.6142319392918605 O
    velocity 0.4610151844433797 -0.3869338836180859 -0.8805591322786341
atom 1.2744025915123398 1.2744072845359309 8.8378568781408617 O
    velocity -1.5342049364500199 0.1918137004787518 1.5938368089041868
atom 3.8232075191053396 3.8232219848749307 8.8378568864418625 O
    velocity -0.3485753026281900 -0.1652494169442529 -0.5266770634545359
atom 6.3720124466983394 6.3720366852139296 8.8378568947428615 O
    velocity -0.3134355989749878 -0.1903336760691972 -0.8641679178006713
atom 8.9208173742913388 8.9208513855529290 8.8378569030438587 O
    velocity 0.8323349392110396 -0.6817699904386436 1.1348909357179846
atom 8.9208172586493397 3.8232221005169307 8.8378569438968615 O
    velocity -1.5626525656938484 -0.2084945229836792 -0.1930189786155003
atom 1.2744027071543398 6.3720365695719297 8.8378568372878625 O
    velocity -0.5478068537759357 0.3036731259984564 -0.8690831280016726
atom 3.8232076347473396 8.9208512699109299 8.8378568455888615 O
    velocity -0.0398519717464194 0.8599655074087449 -0.5151303623773660
atom 6.3720123310563395 1.2744074001779317 8.8378569355958625 O
    velocity -0.2738230781005683 0.1670617006173001 -0.0677780134702584
atom 8.9208170733548702 1.2744075145374438 1.6093931900202196 O
    velocity -0.4343491452858013 -1.3405363034865194 1.8000502400465943
atom 1.2744025218598707 3.8232219835924428 1.6093930834112196 O
    velocity -0.0704094285749156 -0.2278265445244299 0.0570185705799224
atom 3.8232074494528705 6.3720366839314426 1.6093930917122194 O
    velocity -0.7184643719828524 -0.2134292437693568 -0.8664965588885409
atom 6.3720123770458708 8.9208513842704420 1.6093931000132196 O
    velocity -1.3718061676190805 0.3451237346945710 -0.0519426818434240
atom 6.3720122614038708 3.8232220992344428 1.6093931408662194 O
    velocity 0.0679631049568222 0.3814782719229198 -1.0562075278673284
atom 8.9208171889968693 6.3720367995734426 1.6093931491672195 O
    velocity 0.1420111097018486 0.8034195004203044 -0.3939522308009600
atom 1.2744026375018709 8.9208512686284411 1.6093930425582195 O
    velocity -2.2264014861046504 -0.0578883740164929 -0.4970307574833797
atom 3.8232073338108705 1.2744073988954427 1.6093931325652195 O
    velocity 0.4697983157291323 -0.3705379326518562 -0.8844664188303621
atom 8.9208171320668708 1.2744074727904438 6.8330181863242210 O
    velocity 0.4999767939566791 -1.1254988878978869 0.5734649955031293
atom 1.2744025805718706 3.8232219418454427 6.8330180797152194 O
    velocity -0.6503134237809938 0.5783542599771471 -1.2314847395632120
atom 3.8232075081648702 6.3720366421844430 6.8330180880162210 O
    velocity 0.4729042079583562 0.4945856565405432 0.0582259468028667
atom 6.3720124357578705 8.9208513425234468 6.8330180963172182 O
    velocity 0.7303756463314979 -1.1290115277672406 0.9433525703001829
atom 6.3720123201158705 3.8232220574874427 6.8330181371702210 O
    velocity 0.1214217093435837 -0.9151530632068876 0.1572402982188261
atom 8.9208172477088699 6.3720367578264430 6.8330181454712182 O
    velocity -0.7558389610529369 0.1349474687431977 -0.3612209600669968
atom 1.2744026962138708 8.9208512268814424 6.8330180388622210 O
    velocity -0.8185568462201285 -0.3387842273613927 -0.5484113100915921
atom 3.8232073925228702 1.2744073571484427 6.8330181288692193 O
    velocity -1.2849995439828650 0.3010424176439328 -0.1424321312110482
atom 8.9208171446055804 1.2744075206278507 4.2212060890279774 O
    velocity -0.4950950519796174 -1.3323123186216141 0.4453502383357357
atom 1.2744025931105816 3.8232219896828505 4.2212059824189776 O
    velocity 0.8589563128173697 0.0676736566526509 0.2287570941052441
atom 3.8232075207035812 6.3720366900218535 4.2212059907199775 O
    velocity -0.6342985164406565 0.0429602168290831 -0.7387913202741546
atom 6.3720124482965810 8.9208513903608520 4.2212059990209783 O
    velocity 1.8060513100925477 1.0864548507526774 0.4479198811070605
atom 6.3720123326545810 3.8232221053248505 4.2212060398739775 O
    velocity 0.6238688644515691 -0.3090063583333624 -0.0583625747054062
atom 8.9208172602475813 6.3720368056638534 4.2212060481749782 O
    velocity 0.5611518316421484 0.2287226935237065 -0.4807143025039131
atom 1.2744027087525815 8.9208512747188546 4.2212059415659775 O
    velocity 0.5211170332423919 0.4506916432660218 1.4654701607580154
atom 3.8232074050615812 1.2744074049858529 4.2212060315729776 O
    velocity 1.0261900739860963 -0.5063920917161633 0.0894450525083525
atom 8.9208172033175792 1.2744074788808506 9.4448310853319768 O
    velocity -0.4790471001596391 -0.6140136705085476 1.1715084148962338
atom 1.2744026518225815 3.8232219479358522 9.4448309787229743 O
    velocity 0.2217503415975682 -0.6790491930737618 0.4400096290351073
atom 3.8232075794155813 6.3720366482748512 9.4448309870239768 O
    velocity 1.1208427937811556 0.1525588025426330 -0.4081723937597815
atom 6.3720125070085816 8.9208513486138514 9.4448309953249758 O
    velocity -0.9933934490417482 -0.2627165939213254 0.6476760722968359
atom 6.3720123913665816 3.8232220635778522 9.4448310361779768 O
    velocity -0.1341323497142614 1.6804001735688068 0.1145555785780669
atom 8.9208173189595801 6.3720367639168511 9.4448310444789758 O
    velocity 0.1262228401226383 -0.3934719877103837 -0.1538217456684908
atom 1.2744027674645815 8.9208512329718488 9.4448309378699769 O
    velocity 1.1154184114446846 0.2674734815392143 -1.4696618963499513
atom 3.8232074637735813 1.2744073632388528 9.4448310278769743 O
    velocity -1.5991412621821255 -0.6938787989718892 -0.0578078859240441
