#=======================================================
# FHI-aims file: geometry.in.supercell.0010K
# Created using the Atomic Simulation Environment (ASE)
# Mon Dec 28 22:27:49 2020

# Additional information:
#  created from MB distrubtion
#  T = 10.0 K
#  quantum:             False
#  deterministic:       False
#  plus_minus:          False
#  gauge_eigenvectors:  False
#  Random seed:         1978519670
#  Sample number:       1
#=======================================================
lattice_vector 10.1952194790879993 0.0000002312840000 0.0000001149100000 
lattice_vector 0.0000002312840000 10.1952585700719993 -0.0000000817060000 
lattice_vector 0.0000001174240000 -0.0000000834940000 10.4472499926080005 
atom 10.1952195705575175 0.0000001715475008 10.4472500947462343 Zr
    velocity -0.7029656184652404 -0.1382398995067561 -0.0933637845897968
atom 2.5488050190625202 2.5488146406025010 10.4472499881372372 Zr
    velocity 0.1309664383079302 -0.0500813962101253 0.1341656601534032
atom 5.0976099466555187 5.0976293409415012 10.4472499964382344 Zr
    velocity -0.0201820945475720 -0.1828425188562205 0.0315479345444675
atom 7.6464148742485190 7.6464440412804997 10.4472500047392334 Zr
    velocity -0.1580217604424877 -0.0255809671510216 0.3564140998731247
atom 7.6464147586065190 2.5488147562445009 10.4472500455922344 Zr
    velocity 0.2759670890291988 -0.1664343898360748 -0.1664345197744478
atom 10.1952196861995183 5.0976294565835012 10.4472500538932334 Zr
    velocity -0.3236321306856237 0.5888071078042049 0.1095585243055504
atom 2.5488051347045202 7.6464439256384997 10.4472499472842326 Zr
    velocity -0.8919705858587286 0.0720751744448807 0.3550942183266048
atom 5.0976098310135187 0.0000000559055008 10.4472500372912371 Zr
    velocity -0.0827034711982452 0.5119031414438541 0.2811551938874158
atom 10.1952195118455187 0.0000002132945008 5.2236250984422359 Zr
    velocity 0.4355353995073455 0.2021191843019524 -0.2270848283392796
atom 2.5488049603505201 2.5488146823495006 5.2236249918332351 Zr
    velocity -0.0285041396878907 0.1322583986555747 0.1080842201836550
atom 5.0976098879435190 5.0976293826885017 5.2236250001342359 Zr
    velocity -0.2701096109803585 -0.1619015378472343 -0.5289565283295712
atom 7.6464148155365192 7.6464440830275002 5.2236250084352358 Zr
    velocity 0.0182985031065942 0.2524064093168801 0.0947618126910168
atom 7.6464146998945193 2.5488147979915006 5.2236250492882359 Zr
    velocity 0.1109781117377219 -0.5775058298078181 -0.0044749389231520
atom 10.1952196274875195 5.0976294983305017 5.2236250575892358 Zr
    velocity -0.2251956173946264 0.2435863704348797 0.1855040507473157
atom 2.5488050759925200 7.6464439673855003 5.2236249509802359 Zr
    velocity -0.2746579977951190 -0.0247159096003741 0.1234621972987165
atom 5.0976097723015190 0.0000000976525008 5.2236250409872360 Zr
    velocity 0.4660383173141986 -0.4924900960796655 -0.0934416505240923
atom 0.0000001020416280 2.5488145286739359 2.6118124866735699 Zr
    velocity -0.3177171061109438 -0.0534130378961791 0.2699281136120562
atom 2.5488050296346279 5.0976292290129361 2.6118124949745689 Zr
    velocity -0.0739419974919996 0.3729766321556159 -0.0646414398429863
atom 5.0976099572276272 7.6464439293519364 2.6118125032755688 Zr
    velocity -0.0634842670790816 0.2706792973031861 0.1072639865474131
atom 7.6464148848206275 10.1952586296909367 2.6118125115765700 Zr
    velocity 0.3350983585093154 -0.0627640811991059 0.2029754766226168
atom 7.6464147691786275 5.0976293446549361 2.6118125524295688 Zr
    velocity -0.2304353222792213 0.3448147799244239 0.1770490604723077
atom 0.0000002176836280 7.6464438137099364 2.6118124458205698 Zr
    velocity -0.1047287147345966 0.2324740203068194 -0.0637506288521733
atom 2.5488051452766278 10.1952585140489358 2.6118124541215688 Zr
    velocity 0.0577447777092050 0.1713823896782552 0.1019581982114107
atom 5.0976098415856272 2.5488146443159372 2.6118125441285689 Zr
    velocity 0.0521958352820268 0.0310430477374328 -0.1110074014390250
atom 0.0000001607536280 2.5488144869269376 7.8354374829775697 Zr
    velocity 0.2660351838060622 0.0024563583304467 0.0158636946672890
atom 2.5488050883466276 5.0976291872659365 7.8354374912785696 Zr
    velocity -0.0962061483467149 -0.1468798770810558 0.1719811876646081
atom 5.0976100159396269 7.6464438876049368 7.8354374995795686 Zr
    velocity -0.1584025793563900 -0.0232047061905238 -0.0615177880943228
atom 7.6464149435326272 10.1952585879439361 7.8354375078805685 Zr
    velocity -0.2625202306135009 -0.0960335798793309 0.2065161309227818
atom 7.6464148278906272 5.0976293029079365 7.8354375487335686 Zr
    velocity 0.2638947680953852 0.2025889848762025 -0.6380160227745122
atom 0.0000002763956280 7.6464437719629368 7.8354374421245696 Zr
    velocity 0.2300599712270124 -0.1768152973090312 -0.8372588251225002
atom 2.5488052039886275 10.1952584723019353 7.8354374504255695 Zr
    velocity 0.3737807584405151 0.1207502552133497 -0.1052099500399628
atom 5.0976099002976270 2.5488146025689384 7.8354375404325696 Zr
    velocity -0.4200803583981406 0.1142196679358602 -0.1077374925388193
atom 1.2744024515736083 1.2744073718773856 1.0024190245136309 O
    velocity 0.2285224472516711 1.3507212878361261 -0.2408097844961948
atom 3.8232073791666079 3.8232220722163857 1.0024190328146307 O
    velocity 0.7084967889067502 -0.2848507456625139 -0.9060427045451044
atom 6.3720123067596077 6.3720367725553846 1.0024190411156308 O
    velocity -1.0195490956338600 -0.8715652914221177 -0.2428116928845347
atom 8.9208172343526080 8.9208514728943840 1.0024190494166307 O
    velocity 0.9437829410369376 -0.3083818661643030 -0.5728510972894130
atom 8.9208171187106071 3.8232221878583856 1.0024190902696308 O
    velocity -0.2444336533427064 0.7273269160811838 0.3029492268267949
atom 1.2744025672156083 6.3720366569133855 1.0024189836606308 O
    velocity 0.4283561832956067 1.1130580554978340 1.0032930443502166
atom 3.8232074948086079 8.9208513572523866 1.0024189919616309 O
    velocity -0.0439879631973106 -0.6709502801987306 0.0351385768183894
atom 6.3720121911176069 1.2744074875193858 1.0024190819686307 O
    velocity -0.8624925966399193 -0.2660804494306165 1.4581918000195413
atom 1.2744025102856082 1.2744073301303855 6.2260440208176311 O
    velocity -0.7135603248353672 -0.6085864193058979 0.0659013026091989
atom 3.8232074378786081 3.8232220304693865 6.2260440291186310 O
    velocity 0.4040073883884617 1.0510205272989932 1.0381496218146906
atom 6.3720123654716074 6.3720367308083841 6.2260440374196282 O
    velocity -0.3530718821870452 -0.9160422170166904 0.5641724314755210
atom 8.9208172930646086 8.9208514311473852 6.2260440457206290 O
    velocity 1.2629840597167303 -0.7143529044907089 0.3233078838589642
atom 8.9208171774226077 3.8232221461113864 6.2260440865736282 O
    velocity -0.1143394908239385 0.5083006908806306 0.5267472042706072
atom 1.2744026259276082 6.3720366151663841 6.2260439799646310 O
    velocity -0.9172757899778317 0.5003833317484930 -0.9718463219688309
atom 3.8232075535206080 8.9208513155053879 6.2260439882656282 O
    velocity 0.3085475442572865 -0.0316346471078495 -0.2227173291079945
atom 6.3720122498296066 1.2744074457723857 6.2260440782726310 O
    velocity -1.3452915916909938 -0.1531059705115000 -0.8286484618302038
atom 1.2744025328003397 1.2744073262829310 3.6142318818368619 O
    velocity 0.2912147424651760 0.0409022618612381 0.7916080144661558
atom 3.8232074603933399 3.8232220266219321 3.6142318901378605 O
    velocity 0.0225380285308899 -0.5343257751733382 -1.0498275783523003
atom 6.3720123879863388 6.3720367269609302 3.6142318984388608 O
    velocity -0.1800129601149806 0.3679076528940923 -0.3023234623222148
atom 8.9208173155793382 8.9208514272999295 3.6142319067398607 O
    velocity -0.5879943629310069 0.0100795936243659 -0.1363417063270147
atom 8.9208171999373391 3.8232221422639321 3.6142319475928608 O
    velocity -0.5179102699479341 -1.5248198425179513 0.3395787897779964
atom 1.2744026484423396 6.3720366113189302 3.6142318409838605 O
    velocity -0.2838453682406905 -2.0582967731218815 0.7939788887037129
atom 3.8232075760353399 8.9208513116579340 3.6142318492848604 O
    velocity -0.3114730820048581 0.0392415464816057 -0.1956088672627180
atom 6.3720122723443389 1.2744074419249318 3.6142319392918605 O
    velocity -0.1337432974329066 0.5161944170161199 -0.9862851058448732
atom 1.2744025915123398 1.2744072845359309 8.8378568781408617 O
    velocity 1.8751323304841401 -0.3251594479564441 0.0173484505781284
atom 3.8232075191053396 3.8232219848749307 8.8378568864418625 O
    velocity 0.5757981456394590 -0.6150779413835168 -0.3759867550151856
atom 6.3720124466983394 6.3720366852139296 8.8378568947428615 O
    velocity 1.0149023019557848 -0.8517578674994197 -0.3205900673811586
atom 8.9208173742913388 8.9208513855529290 8.8378569030438587 O
    velocity -0.3719028396847808 0.2375781994018373 0.0773277554097516
atom 8.9208172586493397 3.8232221005169307 8.8378569438968615 O
    velocity 1.7175784942262238 -0.8964220750891081 -0.1634553378914696
atom 1.2744027071543398 6.3720365695719297 8.8378568372878625 O
    velocity -0.0855101697458614 -0.3435387261437330 0.5517389103516350
atom 3.8232076347473396 8.9208512699109299 8.8378568455888615 O
    velocity 1.0922534808623383 -0.3621565783463584 -1.0326196531875280
atom 6.3720123310563395 1.2744074001779317 8.8378569355958625 O
    velocity -0.2448703231703718 0.1539327390061364 -0.4438369301330682
atom 8.9208170733548702 1.2744075145374438 1.6093931900202196 O
    velocity -2.5871129286505812 -0.4611564092033389 -0.6470342304401522
atom 1.2744025218598707 3.8232219835924428 1.6093930834112196 O
    velocity 0.2862878915464580 -1.3026770481961896 0.0786821132671361
atom 3.8232074494528705 6.3720366839314426 1.6093930917122194 O
    velocity 0.5443478382812788 -0.0102769659827912 0.3948331204595488
atom 6.3720123770458708 8.9208513842704420 1.6093931000132196 O
    velocity 1.0277667025662955 -1.4024921891642546 -0.7929268390171778
atom 6.3720122614038708 3.8232220992344428 1.6093931408662194 O
    velocity 0.7864142280512265 0.1319143820621953 -0.5058523622530990
atom 8.9208171889968693 6.3720367995734426 1.6093931491672195 O
    velocity 0.8158408155169010 -0.3402949998164932 1.2267458464975809
atom 1.2744026375018709 8.9208512686284411 1.6093930425582195 O
    velocity 0.7639617727833706 -0.4537640133450438 -0.2000734253523667
atom 3.8232073338108705 1.2744073988954427 1.6093931325652195 O
    velocity 0.1465344042854712 -0.2917955370523140 0.7284394246009709
atom 8.9208171320668708 1.2744074727904438 6.8330181863242210 O
    velocity -0.6898159323426889 -0.1261382907260779 0.2062246668256330
atom 1.2744025805718706 3.8232219418454427 6.8330180797152194 O
    velocity 1.2040596394642475 -0.2668223543783627 0.2567930347316357
atom 3.8232075081648702 6.3720366421844430 6.8330180880162210 O
    velocity 0.2003590437917550 -1.1640378403170217 0.0396805151819027
atom 6.3720124357578705 8.9208513425234468 6.8330180963172182 O
    velocity 1.2644436405707413 0.4297392867002631 0.0135402129845492
atom 6.3720123201158705 3.8232220574874427 6.8330181371702210 O
    velocity -0.4766870216039517 -0.1916398158709484 0.7618130058256827
atom 8.9208172477088699 6.3720367578264430 6.8330181454712182 O
    velocity 0.6041382043211573 0.8408926121987247 -0.1683950185062951
atom 1.2744026962138708 8.9208512268814424 6.8330180388622210 O
    velocity 0.5392667088994141 0.6070919682276075 -0.4999597798777706
atom 3.8232073925228702 1.2744073571484427 6.8330181288692193 O
    velocity 0.2257885228198717 -0.0417359672217628 -0.0913738725226738
atom 8.9208171446055804 1.2744075206278507 4.2212060890279774 O
    velocity 1.0409812739013482 -0.9315642419307318 -0.4332607850321267
atom 1.2744025931105816 3.8232219896828505 4.2212059824189776 O
    velocity -0.4101952678704462 0.8762169314918231 1.0415907570446219
atom 3.8232075207035812 6.3720366900218535 4.2212059907199775 O
    velocity 0.0709789396904818 0.7845555169500948 -0.6064838619631243
atom 6.3720124482965810 8.9208513903608520 4.2212059990209783 O
    velocity 0.1072444385853209 -0.7063745956735140 -0.4368962866608664
atom 6.3720123326545810 3.8232221053248505 4.2212060398739775 O
    velocity 0.0843828957556724 0.6996224752636467 -0.5523597963222130
atom 8.9208172602475813 6.3720368056638534 4.2212060481749782 O
    velocity -1.2127243926890496 -0.6180323686612929 1.3079018330572569
atom 1.2744027087525815 8.9208512747188546 4.2212059415659775 O
    velocity 0.4863484076092258 0.0795652214692892 0.4811946739705702
atom 3.8232074050615812 1.2744074049858529 4.2212060315729776 O
    velocity 0.4214752486903712 0.2420507796572361 0.9129398402496824
atom 8.9208172033175792 1.2744074788808506 9.4448310853319768 O
    velocity 2.5140309028542376 0.3404150275433549 0.9648438816049090
atom 1.2744026518225815 3.8232219479358522 9.4448309787229743 O
    velocity 0.9365181165686516 1.3843252301103028 0.3809378675546662
atom 3.8232075794155813 6.3720366482748512 9.4448309870239768 O
    velocity -1.3017577792596124 -0.2433070870806717 -0.0855956084024824
atom 6.3720125070085816 8.9208513486138514 9.4448309953249758 O
    velocity 1.3092313789873233 -1.1919478605122411 0.5143897742597759
atom 6.3720123913665816 3.8232220635778522 9.4448310361779768 O
    velocity 0.2202082134870650 0.3895957112651008 -1.4620088354760419
atom 8.9208173189595801 6.3720367639168511 9.4448310444789758 O
    velocity -0.8343006532227175 0.3355243030488902 -0.2096987248532801
atom 1.2744027674645815 8.9208512329718488 9.4448309378699769 O
    velocity -0.5966210639471176 0.0363492431655348 -0.9321770148509336
atom 3.8232074637735813 1.2744073632388528 9.4448310278769743 O
    velocity -0.4045712864071854 -0.1956412497774689 -0.1863653274725865
