#=======================================================
# FHI-aims file: monoclinic.in
# Created using the Atomic Simulation Environment (ASE)
# Tue Jul 19 17:20:08 2022

# Additional information:
# from Carla Verdi
#=======================================================
lattice_vector 5.1334610628999942 0.0000000000000000 0.0020383499601184 
lattice_vector 0.0000000000000000 5.2151702791170074 0.0000000000000000 
lattice_vector -0.8821939783505666 0.0000000000000000 5.2262639926641690 
atom_frac 0.2771315224672888 0.0426322850076459 0.2094220834054702 Zr
atom_frac 0.7228684505327129 0.9573677539923537 0.7905779215945268 Zr
atom_frac 0.7228684205327104 0.5426322460076461 0.2905779305945236 Zr
atom_frac 0.2771315304672894 0.4573677089923536 0.7094220744054730 Zr
atom_frac 0.0702875322640838 0.3366519493824564 0.3412406384931438 O
atom_frac 0.9297124937359115 0.6633480956175362 0.6587593895068583 O
atom_frac 0.9297124577359156 0.8366519043824638 0.1587593645068529 O
atom_frac 0.0702875292640871 0.1633480396175462 0.8412406524931451 O
atom_frac 0.4486696490359529 0.7577077983880085 0.4800306770404238 O
atom_frac 0.5513303279640489 0.2422921786119932 0.5199693499595820 O
atom_frac 0.5513303429640466 0.2577078213880067 0.0199693549595788 O
atom_frac 0.4486696610359538 0.7422921566119913 0.9800306910404178 O
