#=======================================================
# FHI-aims file: /raven/u/mlang/gknet-aims/new_verdi_monoclinic/relaxation/k24_rho1e-7_cc_light/relaxation/geometry.in.next_step
# Created using the Atomic Simulation Environment (ASE)
# Mon Jan  9 15:53:35 2023

# Additional information:
#  Relaxed with BFGS, fmax=1.000 meV/AA
#  nsteps = 28
#  residual force  = 0.861143 meV/AA
#  residual stress = 0.263692 meV/AA
#=======================================================
lattice_vector 5.1348113073840000 -0.0000000000000000 0.0059924678250000 
lattice_vector -0.0000000000000000 5.2148063499340003 -0.0000000000000000 
lattice_vector -0.8784028325610000 -0.0000000000000000 5.2323409543289996 
atom_frac 0.2766889315120000 0.0426590256690000 0.2099973408130000 Zr
atom_frac 0.7233110114880000 0.9573409743310001 0.7900026731870000 Zr
atom_frac 0.7233110114880000 0.5426590256690000 0.2900026731870000 Zr
atom_frac 0.2766889315120000 0.4573409743310000 0.7099973408130000 Zr
atom_frac 0.0694655495910000 0.3349074384650000 0.3426783720300000 O
atom_frac 0.9305343934090000 0.6650925615350000 0.6573216419700000 O
atom_frac 0.9305343934090000 0.8349074384650000 0.1573216419700000 O
atom_frac 0.0694655495910000 0.1650925615350000 0.8426783720300001 O
atom_frac 0.4492283825140000 0.7574305558790000 0.4792092397079999 O
atom_frac 0.5507715604860000 0.2425694441210000 0.5207907742920000 O
atom_frac 0.5507715604860000 0.2574305558790000 0.0207907742920000 O
atom_frac 0.4492283825140000 0.7425694441210000 0.9792092397080001 O
