#=======================================================
# FHI-aims file: /raven/u/mlang/gknet-aims/new_verdi_monoclinic/relaxation/k12_rho1e-7_cc_light/relaxation/geometry.in.next_step
# Created using the Atomic Simulation Environment (ASE)
# Mon Jan  9 15:26:54 2023

# Additional information:
#  Relaxed with BFGS, fmax=1.000 meV/AA
#  nsteps = 28
#  residual force  = 0.861110 meV/AA
#  residual stress = 0.264186 meV/AA
#=======================================================
lattice_vector 5.1348112860530000 0.0000000000000000 0.0059924729340000 
lattice_vector 0.0000000000000000 5.2148063686080004 0.0000000000000000 
lattice_vector -0.8784028236940000 0.0000000000000000 5.2323409526670002 
atom_frac 0.2766889321160000 0.0426590264480000 0.2099973417980000 Zr
atom_frac 0.7233110108839998 0.9573409735520000 0.7900026722020000 Zr
atom_frac 0.7233110108839998 0.5426590264480000 0.2900026722020000 Zr
atom_frac 0.2766889321160000 0.4573409735519999 0.7099973417980000 Zr
atom_frac 0.0694655491250000 0.3349074382150000 0.3426783723080001 O
atom_frac 0.9305343938750000 0.6650925617849999 0.6573216416920000 O
atom_frac 0.9305343938750000 0.8349074382149999 0.1573216416920000 O
atom_frac 0.0694655491250000 0.1650925617850000 0.8426783723080000 O
atom_frac 0.4492283813320000 0.7574305552260000 0.4792092396950001 O
atom_frac 0.5507715616679999 0.2425694447740000 0.5207907743050000 O
atom_frac 0.5507715616680000 0.2574305552260000 0.0207907743050000 O
atom_frac 0.4492283813320000 0.7425694447740000 0.9792092396950001 O
