#=======================================================
# FHI-aims file: starting_geometries/geometry_2400_2.in
# Created using the Atomic Simulation Environment (ASE)
# Wed Jan 13 17:57:06 2021

# Additional information:
# starting geometry from CC, T=2400, ens=2
#=======================================================
lattice_vector 10.1515389999999996 0.0000000000000000 0.0000000000000000 
lattice_vector 0.0000000000000000 10.1515500000000003 0.0000000000000000 
lattice_vector 0.0000000000000000 0.0000000000000000 10.3735759999999999 
atom_frac 0.7461217653796139 0.3126002502080963 0.3722577913344444 Zr
    velocity -5.2132127136839088 3.0592218153810871 6.8627362057951551
atom_frac 0.2590456717941979 0.3078401002802528 0.4188850537172524 Zr
    velocity 4.3532403671033224 0.6333689165750747 8.3343440940380642
atom_frac 0.7429483076408415 0.8434946160931089 0.3765466633685433 Zr
    velocity 3.6215126277326601 -12.0445533892490104 6.4117709307910351
atom_frac 0.2644571763946334 0.8271755978151120 0.3688435010260685 Zr
    velocity 0.2234475654324010 1.5447950967031701 -4.3664266020641085
atom_frac 0.7844058413212027 0.3234219690589122 0.8994577973882874 Zr
    velocity 3.7849894888798641 -1.5077950744928836 6.1948914643994986
atom_frac 0.2582694269312269 0.3297939329462004 0.8907487668668933 Zr
    velocity -1.4306656723794120 2.8782999365245732 -5.7663932353128216
atom_frac 0.7666291308145494 0.8209015204574671 0.9048932807741515 Zr
    velocity -4.1347025570657774 -2.0628029037344109 -1.8294061391854077
atom_frac 0.2555557871570015 0.8503197275292935 0.8792418583524139 Zr
    velocity -1.2762637659627165 1.7540301787102417 0.2974020677750857
atom_frac 0.7634991443169357 0.5933543123956441 0.6394877870466269 Zr
    velocity 4.4243455096922739 -8.5705854726977755 -1.8595385847179631
atom_frac 0.2562723967272352 0.6078465603774793 0.6510294627426453 Zr
    velocity -5.1418421886549242 -3.3555832718701204 -2.6126993072708458
atom_frac 0.7622191994731047 0.0716554289739005 0.6801121484047545 Zr
    velocity -3.3456920563574815 -7.9533470512123570 0.3170571164180343
atom_frac 0.3129244935176824 0.0500335978249627 0.6441783036052370 Zr
    velocity 3.2283329859276853 4.2866832267717108 5.2761344407277733
atom_frac 0.7440045819653553 0.5610662834739523 0.1721912675050532 Zr
    velocity -5.9246338447657463 3.3867358622024164 -2.5714818919204858
atom_frac 0.2373830470434089 0.5627627199787225 0.1700810530524864 Zr
    velocity -4.4664244211506237 -9.0943599206006347 5.2232212107230724
atom_frac 0.7343288185170741 0.0925110047234166 0.1430737404343497 Zr
    velocity 5.0569806831463451 7.3898978053962496 -5.7060501251891056
atom_frac 0.2749159275258659 0.0849169496283819 0.1509376043516720 Zr
    velocity 4.7355149940488612 5.8780838588937376 -1.1977302483560073
atom_frac 0.0139153511600556 0.3289789756244120 0.6475400257346164 Zr
    velocity -1.4121862612997294 3.2673506754051509 -5.8694033491001445
atom_frac 0.5082774089721765 0.3654549699307002 0.6524731606535682 Zr
    velocity 4.4789136504828830 4.7983026476855528 -2.8101971849831573
atom_frac 0.0123634317909826 0.8757876068186631 0.6096690446958696 Zr
    velocity 3.7447845348893321 5.3978447586769081 -4.2506000245686266
atom_frac 0.4928649478665255 0.8161662022055746 0.6442986835012342 Zr
    velocity -0.8898437947533924 1.4423015047699386 4.2531602860595967
atom_frac 0.0032632845128212 0.3306646462855426 0.1419079013832838 Zr
    velocity -3.7381266130618092 -4.9119103554148413 -2.4052577218170574
atom_frac 0.4815203537118855 0.3345593933931272 0.1698998272148389 Zr
    velocity 0.8437766213054309 1.8155273113527910 0.8395968892616261
atom_frac 0.0031525515490804 0.8373083272997720 0.1494578542635635 Zr
    velocity -2.4552810367173588 5.3722173219317462 -4.1512698567587121
atom_frac 0.5121824946936618 0.8212804478133882 0.1404470685904263 Zr
    velocity 1.8103004494644261 3.6314787772698556 1.3050729345811172
atom_frac 0.0160816177724383 0.5975911757317848 0.4090886411783168 Zr
    velocity -2.6738252398445295 8.9198612421465491 -2.8993197042961714
atom_frac 0.4943936096782962 0.5464104131881338 0.3954989831857404 Zr
    velocity 4.6483663556854697 1.0522815857419803 1.0791505577113198
atom_frac 0.9774246988560061 0.0804171353143116 0.3981884781101522 Zr
    velocity 3.4224675770410444 -5.4901847657184062 3.5290503570428888
atom_frac 0.5390415768485942 0.0829416414242160 0.3881758199872445 Zr
    velocity 0.3896940765349209 -3.0514390859423344 4.3954454570394983
atom_frac 0.0371311926201535 0.6309657973412927 0.9157764381347376 Zr
    velocity 4.2573899862784801 -2.7700346527112423 2.3212509982239973
atom_frac 0.5104805557068737 0.5908090370436042 0.9217866760700456 Zr
    velocity -0.8036511875557756 -4.5745543469765275 -2.8339508407242775
atom_frac 0.0215246959106398 0.0875063620826376 0.9219643255132077 Zr
    velocity -5.6148818635713020 4.5597036811888678 1.0283150712964335
atom_frac 0.5250659372928579 0.1075297624500692 0.8951146644127347 Zr
    velocity -2.4383146685231720 -1.1285882297001664 -2.7706265926702982
atom_frac 0.8586438194248183 0.4991645256143151 0.4832623311382690 O
    velocity 5.9061346053228538 2.0518695506490814 -2.7124598128243842
atom_frac 0.3702847095401003 0.4450433884480696 0.5332863219009529 O
    velocity 14.6837168549888091 -4.4323348084328620 -10.1157137757561078
atom_frac 0.8744344625972477 0.9983663893691112 0.5423613698882622 O
    velocity -10.4357801084896238 14.9233568390197373 11.9850008989375034
atom_frac 0.3808799394850377 0.9443645630470224 0.5070344373049370 O
    velocity 5.6008672755111295 -32.3403840017855657 -2.4629922621226243
atom_frac 0.9158180065111311 0.4362626239342760 0.9972344560834180 O
    velocity 26.6242485354189959 2.6273072368764865 13.5545490483300846
atom_frac 0.4094825779618244 0.4864391693879260 0.0804856743711137 O
    velocity -12.3273135566972449 -8.9219820986733005 8.5414068640797698
atom_frac 0.8519803578550996 0.9397486374001999 0.0416323011466827 O
    velocity -1.3336669233023308 -2.8838406529903398 5.1130913221538030
atom_frac 0.3341056336384070 0.9898220685511080 0.9882765653811183 O
    velocity 20.2143829050336628 -20.7068993648065032 2.4806676256229667
atom_frac 0.8599504055493459 0.4292570444907428 0.6987658739859813 O
    velocity 13.8132684229255744 5.1216886709078393 -4.6810541663389165
atom_frac 0.3644945037397778 0.4897481783569997 0.7876161730535352 O
    velocity 6.6861263258768435 -8.1554133922843093 -5.6956348127601411
atom_frac 0.9076375355500286 0.9605556727790336 0.7689664518773468 O
    velocity -1.2690282065245955 21.1210488967479044 -11.6767772431310064
atom_frac 0.4243926324865619 0.9398281562914037 0.7540487369061546 O
    velocity -10.3283448511523996 2.8717160492041711 9.0845846281781242
atom_frac 0.8738198119516658 0.4469833010722500 0.2687016714390486 O
    velocity 24.5558024105577744 0.3371995777734872 -4.6828291561607012
atom_frac 0.3543404443405084 0.4337844033669735 0.2987191803482232 O
    velocity 3.7635772414167104 9.2626948852480915 2.9837054342347846
atom_frac 0.8737353991350475 0.9778957804473208 0.2879305651204560 O
    velocity -5.5045702204940801 -1.6422072569429154 11.7562337511420143
atom_frac 0.4072085838413270 0.9194871837305633 0.2778375952516278 O
    velocity -16.9870556334766221 -18.0543987172777598 -4.1239543504816236
atom_frac 0.1235962497903027 0.4645811920347139 0.5253944165444973 O
    velocity -11.1335216157706540 -9.2679927749919084 -20.2442156382500649
atom_frac 0.6107651893964059 0.5294798754869946 0.5616400602839368 O
    velocity 2.9196374425860077 -2.1299138846740422 0.6401471853067974
atom_frac 0.1374450159724550 0.9757463579453385 0.4848312163520082 O
    velocity -24.7202743025718767 3.1746297624299489 -1.9199229720102509
atom_frac 0.6516794330396604 0.9954166861218238 0.5265349374217724 O
    velocity 0.7682483698845648 -0.5859696960843727 2.8956283509827663
atom_frac 0.1347028563846329 0.4323616373854239 0.0431861944232153 O
    velocity 8.0028785042418455 -14.4748441306991005 -9.4233115423146678
atom_frac 0.6746879877031454 0.4666345592544981 0.0251404886800849 O
    velocity 9.7589096314907735 15.2041625539245420 -20.0179320835990531
atom_frac 0.0761971697099327 0.8966448158163040 0.9771079606492497 O
    velocity 19.7362724981541611 7.0023446291848703 -2.1286572577726686
atom_frac 0.5989915184288807 0.9773879486383853 0.0320388109172767 O
    velocity 9.7201271907720699 13.7077066895240343 0.3284761276273138
atom_frac 0.1516488327533392 0.5050261506863485 0.8058079836692766 O
    velocity -18.1662915188316276 -5.0452679404605405 -17.7005820044713786
atom_frac 0.6169515242959713 0.4567698972078156 0.7962976441296616 O
    velocity 17.8284053972511813 0.5825174693823479 3.5267768408628579
atom_frac 0.1697334995215997 0.9695179918337594 0.7382889487675224 O
    velocity -14.6408162908373125 -4.9067150966655300 2.2095845499280760
atom_frac 0.6698104878481973 0.9543129029557063 0.7914639435812683 O
    velocity -5.5806470482459876 13.5710781572673742 -5.9085505462498551
atom_frac 0.1061884439393869 0.4543143234284420 0.2666168754149967 O
    velocity -16.0013795467384874 9.1217629551056749 -3.0364806476117527
atom_frac 0.6268681280739798 0.4481550393782230 0.2874531338084379 O
    velocity -15.5531515809207264 -0.5150128731900824 2.5895075847809785
atom_frac 0.1497178664239974 0.9409962281622017 0.2071441661004845 O
    velocity -28.1876039874502275 -1.1674961481035318 -14.2531325982259762
atom_frac 0.6239726833537260 0.9723653471637337 0.2651658299895812 O
    velocity -9.6842509230274914 8.1330422860898270 -5.5072528397560809
atom_frac 0.8900389546846050 0.7549726780639410 0.5221141051070527 O
    velocity 1.2548138275617802 -4.1512409815498037 -13.2459159438697256
atom_frac 0.3824150653413241 0.7053073244972443 0.5389730523013472 O
    velocity -4.4501613189786955 2.1666539435424710 -4.0969484178564839
atom_frac 0.8782148598355384 0.2361253798680990 0.5279811841162585 O
    velocity -0.4486355242214301 6.9531144943693501 -2.2224937892426331
atom_frac 0.4121107193697429 0.2061460486329674 0.5168136253110788 O
    velocity 14.8052368392774678 -3.0792638443021976 25.6175743307219683
atom_frac 0.9030546629432248 0.6811152956937611 0.0548034824249613 O
    velocity 7.8914529501970136 17.7914825850824947 -6.7876162135170688
atom_frac 0.4285906442363074 0.7574944190788598 0.0044913297015417 O
    velocity 9.2151246625539613 -1.4519120355405397 10.5935801528417155
atom_frac 0.8958258841344156 0.2003562933739182 0.0277725974148163 O
    velocity 2.1773031784184056 -9.0266783290722667 -7.9770017118948093
atom_frac 0.3753519274269645 0.2338785554915259 0.0359852812569166 O
    velocity 38.7758648258397898 0.9829878943032980 -1.5522719246446013
atom_frac 0.8721079976149430 0.6801041505976920 0.7933107589899567 O
    velocity -13.9350439152246750 1.2813795132453569 20.4983236377391727
atom_frac 0.3509876748737310 0.7130981889465156 0.7714509364948017 O
    velocity 6.4247800097213066 4.3835792072529642 -9.0888029427781607
atom_frac 0.9071673684157644 0.2164802153365742 0.7929260893254169 O
    velocity -1.7493340127725916 -1.0234449543756348 -0.9343433452196767
atom_frac 0.4000229177073546 0.2081136870724175 0.7561436085299804 O
    velocity -19.1705012178559357 -0.4150458079735305 8.8490267062083596
atom_frac 0.8943727941152568 0.7188060739492984 0.2886986666892882 O
    velocity -11.3908010827883217 -7.4463745478851830 -5.0357269541292915
atom_frac 0.3580732694816028 0.7004516600913161 0.2521287075932157 O
    velocity -16.5830940823633171 -5.0519627965970457 5.1523651319313402
atom_frac 0.8525069262896986 0.1965551201540651 0.2679898580778702 O
    velocity -16.7809509702175816 19.3340414067846140 -12.8412826086270684
atom_frac 0.3627565505092381 0.1896591190507853 0.2827077759877596 O
    velocity 2.5476920973296728 -12.7375789416774925 3.8035321990927304
atom_frac 0.1283958619476318 0.7202528727140191 0.5229785987011615 O
    velocity -9.2331184330580722 7.4948556146418150 7.7982597454101406
atom_frac 0.6360250460545933 0.7476769173180451 0.5117038936235682 O
    velocity 11.8810503794150986 -18.2008180160106434 6.0145076099696526
atom_frac 0.1925325421101175 0.2386028596618250 0.5854449950528150 O
    velocity -2.0165950087470947 -13.9337511243441021 -4.4438088394435846
atom_frac 0.6128879355140142 0.2523152730371224 0.4987920105853564 O
    velocity 13.6861470849397904 11.8600762288026704 18.4029727844675470
atom_frac 0.1965636845802395 0.6936588737680454 0.0067338254426439 O
    velocity 17.2910567218947762 15.2355828941503031 -2.1552550402825581
atom_frac 0.6615238408678724 0.6932015682334225 0.0580371985513964 O
    velocity -10.0785936259980815 8.5603864789885780 -6.1442154084985923
atom_frac 0.1418939098790834 0.1725834764149317 0.0418213748084556 O
    velocity 8.6186816315635628 -0.0861091558580003 2.5213494704778969
atom_frac 0.6241927800306930 0.2263061414266787 0.0038922402457937 O
    velocity -8.0376146194664315 -17.6669759470628875 2.4687459470464379
atom_frac 0.1050999676009716 0.7626609089252381 0.7817391919623473 O
    velocity 1.1724249058248792 0.8997284915788401 -7.4782159526573064
atom_frac 0.6160117170411304 0.7418923001906114 0.8146989524152519 O
    velocity 0.6213615359001385 -10.5699806101456577 19.5261114537955329
atom_frac 0.1454854362476468 0.2071006644305549 0.7983778853116804 O
    velocity -13.5317430339769587 0.3167954154927499 15.4461285997710736
atom_frac 0.6381902950872770 0.2120424861228088 0.7580524970367016 O
    velocity 9.4438281717323509 1.6753664370834682 -11.2836306169260823
atom_frac 0.1283960392606481 0.7081564697016712 0.2916096136954122 O
    velocity 0.0889822655955131 6.1344698904419150 -0.5556869069817351
atom_frac 0.6179839135721195 0.7041202052888476 0.3026390301666464 O
    velocity -13.6959321691190379 -18.2066115534235422 -8.1257077678117984
atom_frac 0.0991221281817466 0.1947689032709291 0.2886998466102721 O
    velocity 3.9582449490942393 -7.3089633547056190 3.5335386995472104
atom_frac 0.6023204816530775 0.2060829154168575 0.2561232732087758 O
    velocity -9.2520771582592687 5.7471446333201337 0.8595258988792671