#=======================================================
# FHI-aims file: 300_new_geometry.in.primitive.supercell_324.0010K
# Created using the Atomic Simulation Environment (ASE)
# Sat Nov 26 17:17:20 2022

# Additional information:
#  created from MB distrubtion
#  T = 10.0 K
#  quantum:             False
#  deterministic:       False
#  plus_minus:          False
#  gauge_eigenvectors:  False
#  Random seed:         1284734345
#  Sample number:       1
#=======================================================
lattice_vector 15.4410000000000007 0.0000000000000000 0.0000000000000000 
lattice_vector 0.0000000000000000 15.6269999999999989 0.0000000000000000 
lattice_vector -2.5748336816398503 0.0000000000000000 15.7235721295096607 
atom 1.2438815868856603 0.2222104594860840 1.1006363299083168 Zr
    velocity 0.1338140301724451 0.2434724959236396 -0.2895860949268053
atom 6.3908815868856603 0.2222104594860840 1.1006363299083168 Zr
    velocity -0.2088635054932983 -0.3965752862897921 -0.0646793184203157
atom 11.5378815868856606 0.2222104594860840 1.1006363299083168 Zr
    velocity 0.6231937566875572 0.0382784895760490 0.1523914972371050
atom 1.2438815868856603 5.4312104594860831 1.1006363299083168 Zr
    velocity -0.5622947002488371 -0.3627433040449139 -0.1490025872763861
atom 6.3908815868856603 5.4312104594860831 1.1006363299083168 Zr
    velocity -0.2465734711088118 0.3222993051026565 -0.2687501110332985
atom 11.5378815868856606 5.4312104594860831 1.1006363299083168 Zr
    velocity -0.1781008782174078 -0.3731741260483818 -0.3801682957829585
atom 1.2438815868856603 10.6402104594860827 1.1006363299083168 Zr
    velocity -0.2441874373242656 0.0901162285127942 0.6865286297942061
atom 6.3908815868856603 10.6402104594860827 1.1006363299083168 Zr
    velocity 0.1577411154797095 -0.0874185981150006 0.1771066779115953
atom 11.5378815868856606 10.6402104594860827 1.1006363299083168 Zr
    velocity 0.2566656019383950 -0.5236046575151660 -0.0385420824194454
atom 0.3856036930057103 0.2222104594860840 6.3418270397448699 Zr
    velocity 0.0938518685780319 -0.0559775487036148 -0.0490404620977743
atom 5.5326036930057105 0.2222104594860840 6.3418270397448699 Zr
    velocity -0.3049814284083883 -0.4065334165114140 0.6157372379035601
atom 10.6796036930057099 0.2222104594860840 6.3418270397448699 Zr
    velocity 0.3489818853811675 -0.4257902922699853 0.1718087029014675
atom 0.3856036930057103 5.4312104594860831 6.3418270397448699 Zr
    velocity 0.1457125169187074 0.0458336479569727 -0.3359608281894507
atom 5.5326036930057105 5.4312104594860831 6.3418270397448699 Zr
    velocity -0.2327469099792773 -0.0840852516723048 -0.1589093819684138
atom 10.6796036930057099 5.4312104594860831 6.3418270397448699 Zr
    velocity -0.0704171878344055 -0.2744728763149234 0.2921757238649467
atom 0.3856036930057103 10.6402104594860827 6.3418270397448699 Zr
    velocity -0.0516100548418669 0.0097845391198634 0.1530468910578684
atom 5.5326036930057105 10.6402104594860827 6.3418270397448699 Zr
    velocity 0.2716335216019823 0.2056440818414217 0.1183775529444720
atom 10.6796036930057099 10.6402104594860827 6.3418270397448699 Zr
    velocity 0.2615170987234494 -0.2154458441108544 0.3037115977873434
atom -0.4726742008742412 0.2222104594860840 11.5830177495814208 Zr
    velocity 0.2155667496167624 0.2690067743061234 0.0445974668437315
atom 4.6743257991257607 0.2222104594860840 11.5830177495814208 Zr
    velocity -0.5009799615591726 -0.3077205892872791 0.3588380312495112
atom 9.8213257991257592 0.2222104594860840 11.5830177495814208 Zr
    velocity 0.5110491898851509 0.1982589387478134 0.1410362514037605
atom -0.4726742008742412 5.4312104594860831 11.5830177495814208 Zr
    velocity -0.1574315216683702 -0.1367502233840902 -0.2926719630282471
atom 4.6743257991257607 5.4312104594860831 11.5830177495814208 Zr
    velocity -0.0873240086485542 -0.1634219289624119 0.4932421602858343
atom 9.8213257991257592 5.4312104594860831 11.5830177495814208 Zr
    velocity -0.3039528441592693 0.2367485616917466 0.1902178835530641
atom -0.4726742008742412 10.6402104594860827 11.5830177495814208 Zr
    velocity -0.0510322112535509 -0.2657442962535657 -0.2309919877879907
atom 4.6743257991257607 10.6402104594860827 11.5830177495814208 Zr
    velocity 0.0943980357235449 -0.4436113635910596 -0.0728317879429435
atom 9.8213257991257592 10.6402104594860827 11.5830177495814208 Zr
    velocity -0.0459820943507385 -0.0016817931804063 -0.2355397825831031
atom 3.0448402138394988 4.9867895405139144 4.1405544533049063 Zr
    velocity 0.7337840484045416 -0.1666069674381052 -0.4834795953347632
atom 8.1918402138394999 4.9867895405139144 4.1405544533049063 Zr
    velocity 0.1823541624612598 -0.1040280523781554 0.0626170705497376
atom 13.3388402138394984 4.9867895405139144 4.1405544533049063 Zr
    velocity 0.3905199923568627 0.5018610946839144 -0.4108950211724485
atom 3.0448402138394988 10.1957895405139158 4.1405544533049063 Zr
    velocity 0.3291480221171803 0.3159184499991056 -0.0471523353151857
atom 8.1918402138394999 10.1957895405139158 4.1405544533049063 Zr
    velocity 0.2792967487683641 0.1134181347189408 0.0333321520132424
atom 13.3388402138394984 10.1957895405139158 4.1405544533049063 Zr
    velocity -0.1514753670678607 0.1421096271682651 -0.1921886970330147
atom 3.0448402138394988 15.4047895405139137 4.1405544533049063 Zr
    velocity 0.4522147768377435 -0.0991840197810441 -0.0460419354488137
atom 8.1918402138394999 15.4047895405139137 4.1405544533049063 Zr
    velocity 0.0033593662313238 0.4272420886923586 0.3847717655199214
atom 13.3388402138394984 15.4047895405139137 4.1405544533049063 Zr
    velocity 0.3217482812818612 -0.4413257703404320 0.0445400108748628
atom 2.1865623199595485 4.9867895405139144 9.3817451631414617 Zr
    velocity -0.1624972729705642 -0.2687013242325073 -0.5991739245219617
atom 7.3335623199595492 4.9867895405139144 9.3817451631414617 Zr
    velocity -0.3626292496281961 -0.9114306470390636 -0.3832113485119596
atom 12.4805623199595477 4.9867895405139144 9.3817451631414617 Zr
    velocity 0.4784620978661213 0.0923123134348168 -0.3000225752373574
atom 2.1865623199595485 10.1957895405139158 9.3817451631414617 Zr
    velocity -0.1204438400996389 0.3739106351051208 0.1769299706722454
atom 7.3335623199595492 10.1957895405139158 9.3817451631414617 Zr
    velocity 0.0716368765377624 0.4614434298035755 -0.0227172048914804
atom 12.4805623199595477 10.1957895405139158 9.3817451631414617 Zr
    velocity -0.4895255299329753 0.0218004224330060 -0.0324502446684735
atom 2.1865623199595485 15.4047895405139137 9.3817451631414617 Zr
    velocity -0.1040092427058487 0.2965633584143403 -0.4891065788868956
atom 7.3335623199595492 15.4047895405139137 9.3817451631414617 Zr
    velocity 0.1075147427380306 0.4261991996419440 0.0907532929548725
atom 12.4805623199595477 15.4047895405139137 9.3817451631414617 Zr
    velocity -0.2734662228816943 0.4462765706328379 0.4633910759815892
atom 1.3282844260796003 4.9867895405139144 14.6229358729780152 Zr
    velocity 0.0938350860183692 -0.1662276743672710 0.2348528667873589
atom 6.4752844260795994 4.9867895405139144 14.6229358729780152 Zr
    velocity 0.4696561265306253 0.2330324516862115 0.0591770587514297
atom 11.6222844260795970 4.9867895405139144 14.6229358729780152 Zr
    velocity -0.6501291759807037 0.5220665712215206 -0.2376788686690068
atom 1.3282844260796003 10.1957895405139158 14.6229358729780152 Zr
    velocity -0.0925205075474742 0.0982343152162886 -0.3268869751072848
atom 6.4752844260795994 10.1957895405139158 14.6229358729780152 Zr
    velocity -0.0402179540864916 -0.3245226869615866 -0.1472640673935567
atom 11.6222844260795970 10.1957895405139158 14.6229358729780152 Zr
    velocity -0.5364887979264281 0.2055804099551066 -0.1504610331084544
atom 1.3282844260796003 15.4047895405139137 14.6229358729780152 Zr
    velocity -0.4151815910487242 0.4648372008606229 -0.1481269196839688
atom 6.4752844260795994 15.4047895405139137 14.6229358729780152 Zr
    velocity 0.0084162537908080 0.6438759463251520 0.1587871286504265
atom 11.6222844260795970 15.4047895405139137 14.6229358729780152 Zr
    velocity -0.1838245259830205 0.0497268250131922 -0.7313604948568335
atom 3.4739791607794754 2.8267104594860841 1.5199590983866309 Zr
    velocity 0.3749102683705844 -0.4184745909755538 0.2137609803484784
atom 8.6209791607794735 2.8267104594860841 1.5199590983866309 Zr
    velocity 0.3255368454573391 0.0620400546266061 0.2361269490904419
atom 13.7679791607794719 2.8267104594860841 1.5199590983866309 Zr
    velocity -0.3088149655938819 0.0514105461199711 -0.2097401771231375
atom 3.4739791607794754 8.0357104594860846 1.5199590983866309 Zr
    velocity 0.1571332625670085 0.3162732783757458 0.1301051059271554
atom 8.6209791607794735 8.0357104594860846 1.5199590983866309 Zr
    velocity -0.2163257922890888 0.9141144970446883 -0.6216542569998746
atom 13.7679791607794719 8.0357104594860846 1.5199590983866309 Zr
    velocity -0.4494309354200012 0.0628407745415722 0.2406503315307169
atom 3.4739791607794754 13.2447104594860843 1.5199590983866309 Zr
    velocity 0.6693575920872207 0.0615706761175627 -0.0556321133029469
atom 8.6209791607794735 13.2447104594860843 1.5199590983866309 Zr
    velocity 0.1571627264102838 0.1063382273763785 -0.0460663686869703
atom 13.7679791607794719 13.2447104594860843 1.5199590983866309 Zr
    velocity -0.4004420271239453 0.4750031840546257 0.1942732735862754
atom 2.6157012668995252 2.8267104594860841 6.7611498082231858 Zr
    velocity 0.3297051847380532 0.0907799384329982 0.4433706462222918
atom 7.7627012668995246 2.8267104594860841 6.7611498082231858 Zr
    velocity -0.4732507934566331 -0.3693338364599645 0.1473287531881060
atom 12.9097012668995230 2.8267104594860841 6.7611498082231858 Zr
    velocity -0.0437244611833541 -0.6622428790843414 0.5979669664402009
atom 2.6157012668995252 8.0357104594860846 6.7611498082231858 Zr
    velocity 0.3410030179932852 0.0254267417493658 -0.0946668027941161
atom 7.7627012668995246 8.0357104594860846 6.7611498082231858 Zr
    velocity -0.2377617828861633 0.3768228978165245 -0.1074847822966090
atom 12.9097012668995230 8.0357104594860846 6.7611498082231858 Zr
    velocity 0.5849658559809389 -0.1861059151707530 0.3813035717706006
atom 2.6157012668995252 13.2447104594860843 6.7611498082231858 Zr
    velocity -0.3181229741297439 -0.1292657911828156 -0.2067711404328860
atom 7.7627012668995246 13.2447104594860843 6.7611498082231858 Zr
    velocity -0.1091863723138175 0.2849266229050776 0.3130662201499011
atom 12.9097012668995230 13.2447104594860843 6.7611498082231858 Zr
    velocity -0.2796905401813826 0.2304478969539727 -0.1110988012369139
atom 1.7574233730195752 2.8267104594860841 12.0023405180597393 Zr
    velocity -0.2039193346466629 0.2171585851308348 0.0103467506880238
atom 6.9044233730195739 2.8267104594860841 12.0023405180597393 Zr
    velocity 0.1643450184714959 0.2414259620804675 -0.6565199463714693
atom 12.0514233730195723 2.8267104594860841 12.0023405180597393 Zr
    velocity -0.1754225115562850 0.3344678543911900 0.0668241397535147
atom 1.7574233730195752 8.0357104594860846 12.0023405180597393 Zr
    velocity 0.4779278972027922 -0.2003063714700457 -0.0610188884267256
atom 6.9044233730195739 8.0357104594860846 12.0023405180597393 Zr
    velocity -0.4348058353460173 0.1839863661778719 -0.2160725958718182
atom 12.0514233730195723 8.0357104594860846 12.0023405180597393 Zr
    velocity -0.1118736980852059 -0.0214645532632782 -0.2727728016366918
atom 1.7574233730195752 13.2447104594860843 12.0023405180597393 Zr
    velocity -0.1414372932973556 0.2151328423259202 -0.1708980672133341
atom 6.9044233730195739 13.2447104594860843 12.0023405180597393 Zr
    velocity -0.3207363883785841 -0.3483139452768040 0.0925470093814836
atom 12.0514233730195723 13.2447104594860843 12.0023405180597393 Zr
    velocity -0.1902849116458722 -0.3399879095018171 -0.4224188120766991
atom 0.8147426399456854 2.3822895405139146 3.7212316848265927 Zr
    velocity -0.2120684898834896 -0.0447674735454894 -0.4195946617996732
atom 5.9617426399456859 2.3822895405139146 3.7212316848265927 Zr
    velocity 0.1682258615472864 0.1996479108621507 0.2680315006790365
atom 11.1087426399456870 2.3822895405139146 3.7212316848265927 Zr
    velocity 0.1707114695779625 -0.1848530496091263 0.5351228564188213
atom 0.8147426399456854 7.5912895405139142 3.7212316848265927 Zr
    velocity 0.5130937816427736 0.0364894852685785 -0.2744196952154310
atom 5.9617426399456859 7.5912895405139142 3.7212316848265927 Zr
    velocity -0.2756246388090206 0.0579555238281027 -0.0721855289596193
atom 11.1087426399456870 7.5912895405139142 3.7212316848265927 Zr
    velocity 0.1153657252466607 -0.5955351312107890 -0.1222759102701004
atom 0.8147426399456854 12.8002895405139139 3.7212316848265927 Zr
    velocity 0.3711118260582221 -0.3281022393117599 -0.0100725534639558
atom 5.9617426399456859 12.8002895405139139 3.7212316848265927 Zr
    velocity -0.1665107662629167 0.2821457880430182 -0.2459388342860971
atom 11.1087426399456870 12.8002895405139139 3.7212316848265927 Zr
    velocity -0.4386495011318057 -0.2193327934303951 0.5864475015454976
atom -0.0435352539342647 2.3822895405139146 8.9624223946631467 Zr
    velocity -0.0059651899089459 0.1435623983558812 0.3480164214085639
atom 5.1034647460657352 2.3822895405139146 8.9624223946631467 Zr
    velocity -0.0421084214895630 0.0090723118156709 0.3299012897893118
atom 10.2504647460657363 2.3822895405139146 8.9624223946631467 Zr
    velocity 0.3138882557637294 0.0410632724768329 0.2673323753354918
atom -0.0435352539342647 7.5912895405139142 8.9624223946631467 Zr
    velocity 0.1049455460965049 0.0511471710710714 -0.2658483109921355
atom 5.1034647460657352 7.5912895405139142 8.9624223946631467 Zr
    velocity -0.1157908467899600 0.0895680471536728 -0.3334775888863722
atom 10.2504647460657363 7.5912895405139142 8.9624223946631467 Zr
    velocity 0.1980029725845064 -0.0003073329065512 -0.0403329966368173
atom -0.0435352539342647 12.8002895405139139 8.9624223946631467 Zr
    velocity -0.4603453749302058 -0.3392550928116099 0.1969062147063424
atom 5.1034647460657352 12.8002895405139139 8.9624223946631467 Zr
    velocity 0.0718283678033278 -0.1369364852898323 0.3991885119418251
atom 10.2504647460657363 12.8002895405139139 8.9624223946631467 Zr
    velocity 0.0641446777767480 -0.2022674789497235 -0.5386338433024681
atom -0.9018131478142143 2.3822895405139146 14.2036131044996967 Zr
    velocity 0.1339666047723116 0.5034248801598746 0.2203168375720559
atom 4.2451868521857854 2.3822895405139146 14.2036131044996967 Zr
    velocity -0.6035370632891821 -0.1167022370496477 0.2216232122884101
atom 9.3921868521857856 2.3822895405139146 14.2036131044996967 Zr
    velocity 0.1130384868194538 0.2892492872398150 0.1364906751513308
atom -0.9018131478142143 7.5912895405139142 14.2036131044996967 Zr
    velocity 0.1235854770552972 -0.5367460214707818 0.0900719137596033
atom 4.2451868521857854 7.5912895405139142 14.2036131044996967 Zr
    velocity -0.2909463324802558 -0.3996620711857545 0.2104467317777834
atom 9.3921868521857856 7.5912895405139142 14.2036131044996967 Zr
    velocity -0.4760752688135946 0.1302821022617987 -0.7326445484396209
atom -0.9018131478142143 12.8002895405139139 14.2036131044996967 Zr
    velocity 0.4131966621787140 -0.1831258700860820 -0.3330530683288207
atom 4.2451868521857854 12.8002895405139139 14.2036131044996967 Zr
    velocity 0.4687944809148301 0.1822208135811875 -0.1409755153728163
atom 9.3921868521857856 12.8002895405139139 14.2036131044996967 Zr
    velocity 0.0267977331070887 0.1987282685223256 0.4155061937746349
atom 0.0634256681534761 1.7445322436109238 1.7960432717909045 O
    velocity -0.8644974615846991 0.1597580884694524 -1.0879713385610765
atom 5.2104256681534746 1.7445322436109238 1.7960432717909045 O
    velocity -0.0542769068744185 1.1015149736929164 0.1290079787338923
atom 10.3574256681534766 1.7445322436109238 1.7960432717909045 O
    velocity 0.0894827366278489 0.0908545564326336 -0.8588061977215748
atom 0.0634256681534761 6.9535322436109235 1.7960432717909045 O
    velocity -0.3835838900108197 -0.4372184355671500 0.1705868188736931
atom 5.2104256681534746 6.9535322436109235 1.7960432717909045 O
    velocity 0.1944605641991572 1.7058247684224344 0.6131131897681946
atom 10.3574256681534766 6.9535322436109235 1.7960432717909045 O
    velocity 0.7895975666913347 -0.2375547099164265 -0.1399161943566958
atom 0.0634256681534761 12.1625322436109222 1.7960432717909045 O
    velocity -0.1910257762949059 0.3653108449452852 0.5170891879502340
atom 5.2104256681534746 12.1625322436109222 1.7960432717909045 O
    velocity -0.1516935883728741 -0.3163936339402099 -0.9483845289130974
atom 10.3574256681534766 12.1625322436109222 1.7960432717909045 O
    velocity -0.9560178760614915 -0.6115857182914981 0.7254964614841071
atom -0.7948522257264738 1.7445322436109238 7.0372339816274572 O
    velocity 0.6613137531881772 -0.5362102185034007 0.1970172932836419
atom 4.3521477742735248 1.7445322436109238 7.0372339816274572 O
    velocity -0.7510173011655187 -0.7066035819288456 0.2023737303692976
atom 9.4991477742735260 1.7445322436109238 7.0372339816274572 O
    velocity 1.0317980617545595 -0.7431179332479659 0.0582104844912381
atom -0.7948522257264738 6.9535322436109235 7.0372339816274572 O
    velocity 0.8573813370183689 -0.6338677411459317 0.3659759436292557
atom 4.3521477742735248 6.9535322436109235 7.0372339816274572 O
    velocity 1.0995858112835410 0.2916758202159486 -0.3574743320722604
atom 9.4991477742735260 6.9535322436109235 7.0372339816274572 O
    velocity -0.4518419612839044 1.0752513629474678 0.7395418798741267
atom -0.7948522257264738 12.1625322436109222 7.0372339816274572 O
    velocity 0.6865969495821251 -0.4027772962700558 0.5094139240532362
atom 4.3521477742735248 12.1625322436109222 7.0372339816274572 O
    velocity 0.8481434490991890 -0.6419628745430540 1.0811549996091629
atom 9.4991477742735260 12.1625322436109222 7.0372339816274572 O
    velocity 0.5787838357185270 -1.0758882832907533 -1.0481609312562299
atom -1.6531301196064236 1.7445322436109238 12.2784246914640089 O
    velocity 1.0590351097683977 0.8086967859632991 0.4206563727216314
atom 3.4938698803935746 1.7445322436109238 12.2784246914640089 O
    velocity 1.2987198866186092 0.1667944342123683 0.7854665901070108
atom 8.6408698803935753 1.7445322436109238 12.2784246914640089 O
    velocity 0.6267952451124330 -0.2478331944403471 -0.4966559337838410
atom -1.6531301196064236 6.9535322436109235 12.2784246914640089 O
    velocity -0.3734939731224685 -1.1726536213481660 -0.6824622225903383
atom 3.4938698803935746 6.9535322436109235 12.2784246914640089 O
    velocity 0.0331106289844167 0.5161919351098776 0.0584058747702282
atom 8.6408698803935753 6.9535322436109235 12.2784246914640089 O
    velocity -0.0795375031573954 -0.5348445100413174 0.2629542212867219
atom -1.6531301196064236 12.1625322436109222 12.2784246914640089 O
    velocity 0.3530407627694065 -1.0092662119995519 0.4619327873693942
atom 3.4938698803935746 12.1625322436109222 12.2784246914640089 O
    velocity 0.9226235762687666 0.4217097574465776 0.3984305413136074
atom 8.6408698803935753 12.1625322436109222 12.2784246914640089 O
    velocity -0.5699979927276988 -0.0876977658959986 0.1656893238970297
atom 4.2252961325716827 3.4644677563890753 3.4451475114223205 O
    velocity 0.3495756564726724 -1.1943135386655666 -0.5349242248187023
atom 9.3722961325716838 3.4644677563890753 3.4451475114223205 O
    velocity -0.8573464480670868 -0.5968173810292603 0.1397712077878749
atom 14.5192961325716841 3.4644677563890753 3.4451475114223205 O
    velocity -1.2372849655368681 -0.0907161854931732 0.1336400051221765
atom 4.2252961325716827 8.6734677563890745 3.4451475114223205 O
    velocity 1.0270386196794683 1.3391263600636567 -0.8323654823103711
atom 9.3722961325716838 8.6734677563890745 3.4451475114223205 O
    velocity 0.4344266030404501 0.3165058132363839 -0.4283748654192918
atom 14.5192961325716841 8.6734677563890745 3.4451475114223205 O
    velocity -0.8214210973539540 0.4579813294869516 -0.6556299639035600
atom 4.2252961325716827 13.8824677563890759 3.4451475114223205 O
    velocity 0.1451537158752077 -0.2547180995259806 -0.5282125012568828
atom 9.3722961325716838 13.8824677563890759 3.4451475114223205 O
    velocity -0.4235865796939500 -0.3698589984977834 0.2470742084413674
atom 14.5192961325716841 13.8824677563890759 3.4451475114223205 O
    velocity -0.3758546047715158 0.9206257570425188 1.1416253989786413
atom 3.3670182386917351 3.4644677563890753 8.6863382212588700 O
    velocity 0.4517809180414887 0.8401349242385604 1.0219727628785165
atom 8.5140182386917331 3.4644677563890753 8.6863382212588700 O
    velocity -0.8307549079226666 -0.2852962072174776 -0.0692629765388023
atom 13.6610182386917334 3.4644677563890753 8.6863382212588700 O
    velocity -0.0662109583934963 -0.7458147886231180 -0.0519975742693729
atom 3.3670182386917351 8.6734677563890745 8.6863382212588700 O
    velocity -0.6879008486071075 -0.2727978499543209 0.8678331730000328
atom 8.5140182386917331 8.6734677563890745 8.6863382212588700 O
    velocity -0.4171629969797880 0.7150865692697362 0.1131080579768884
atom 13.6610182386917334 8.6734677563890745 8.6863382212588700 O
    velocity 0.8461833808838259 1.7204362659477856 0.8924952877518485
atom 3.3670182386917351 13.8824677563890759 8.6863382212588700 O
    velocity -0.1727916689821601 -0.5331498707626954 -1.0658242570405880
atom 8.5140182386917331 13.8824677563890759 8.6863382212588700 O
    velocity 0.3008017655160956 0.1042347459485116 0.2780768952588827
atom 13.6610182386917334 13.8824677563890759 8.6863382212588700 O
    velocity -0.5651728077862834 -0.0503993046822199 -0.8521784019041916
atom 2.5087403448117849 3.4644677563890753 13.9275289310954271 O
    velocity -0.5141652089224394 -0.4259703197970657 0.2384117560817425
atom 7.6557403448117833 3.4644677563890753 13.9275289310954271 O
    velocity 1.2932622044277657 0.6383790630355990 1.0954619712615494
atom 12.8027403448117809 3.4644677563890753 13.9275289310954271 O
    velocity -0.3859059998646090 -0.7309093645645051 -1.0006271966194120
atom 2.5087403448117849 8.6734677563890745 13.9275289310954271 O
    velocity -0.2872173547180012 1.1637649798584035 0.6850652412544253
atom 7.6557403448117833 8.6734677563890745 13.9275289310954271 O
    velocity 0.8560712962366349 -0.1798004690085645 0.1336484304648441
atom 12.8027403448117809 8.6734677563890745 13.9275289310954271 O
    velocity -0.2370736954891166 -0.5350234858278727 -0.2430162298173106
atom 2.5087403448117849 13.8824677563890759 13.9275289310954271 O
    velocity -1.2084963673977320 -0.9762671874673123 0.9916308557356108
atom 7.6557403448117833 13.8824677563890759 13.9275289310954271 O
    velocity -0.6463135512220052 1.1851705655254456 -0.8550727517999779
atom 12.8027403448117809 13.8824677563890759 13.9275289310954271 O
    velocity -0.9035921281278263 -0.5676823964101583 1.7751749099457133
atom 4.6544350795116598 4.3490322436109237 0.8245521565040435 O
    velocity -0.3761612397930642 0.4871363621069033 -0.8627485698669864
atom 9.8014350795116592 4.3490322436109237 0.8245521565040435 O
    velocity 0.9527919907078178 0.0170994790463576 0.2062656924729591
atom 14.9484350795116594 4.3490322436109237 0.8245521565040435 O
    velocity 0.0411801774315808 0.8082606758724348 -0.9458976852662722
atom 4.6544350795116598 9.5580322436109206 0.8245521565040435 O
    velocity 0.7883798075239791 -0.3781213961748301 -0.8615233517781226
atom 9.8014350795116592 9.5580322436109206 0.8245521565040435 O
    velocity -0.8893237717789700 -0.2086143725845976 -0.0459584790992354
atom 14.9484350795116594 9.5580322436109206 0.8245521565040435 O
    velocity 0.6244583632194737 -0.9261068997790097 1.5571664887139256
atom 4.6544350795116598 14.7670322436109220 0.8245521565040435 O
    velocity 0.4505215460971779 1.0810953222066793 -0.3054284855694128
atom 9.8014350795116592 14.7670322436109220 0.8245521565040435 O
    velocity -0.0078685477209065 0.2134286043604302 -0.3903601903330474
atom 14.9484350795116594 14.7670322436109220 0.8245521565040435 O
    velocity 0.1574994448064135 -0.0250505203258961 -0.3306260085626765
atom 3.7961571856317100 4.3490322436109237 6.0657428663405941 O
    velocity -1.2534445772177263 -0.0348876381367096 -0.0938699083680848
atom 8.9431571856317085 4.3490322436109237 6.0657428663405941 O
    velocity -0.8277316288269437 0.0766655047494340 0.8083567800719020
atom 14.0901571856317087 4.3490322436109237 6.0657428663405941 O
    velocity 0.5834047898600779 1.3171521383979519 -1.0113338674825838
atom 3.7961571856317100 9.5580322436109206 6.0657428663405941 O
    velocity 0.3451786870259142 0.9203227440448198 -0.9482867240218037
atom 8.9431571856317085 9.5580322436109206 6.0657428663405941 O
    velocity 0.7808151874778233 0.1691261632816642 1.5495728228271517
atom 14.0901571856317087 9.5580322436109206 6.0657428663405941 O
    velocity 0.4155594551686950 -0.4261183881113083 -0.7527731392208422
atom 3.7961571856317100 14.7670322436109220 6.0657428663405941 O
    velocity -0.2103752373199007 -0.5067388542126884 -1.0517342180788887
atom 8.9431571856317085 14.7670322436109220 6.0657428663405941 O
    velocity -0.1742313777571670 0.6284167375873825 0.4889275185582701
atom 14.0901571856317087 14.7670322436109220 6.0657428663405941 O
    velocity -0.1342999097910965 -0.5570963873636534 -0.2334382095995375
atom 2.9378792917517598 4.3490322436109237 11.3069335761771512 O
    velocity 0.9510609714092125 -0.6425752616504063 0.0669814938536245
atom 8.0848792917517578 4.3490322436109237 11.3069335761771512 O
    velocity -0.3034533809203986 0.1756341579118743 0.1975874505873920
atom 13.2318792917517580 4.3490322436109237 11.3069335761771512 O
    velocity 0.2991616399450585 1.2471718605639239 -0.2144604847461671
atom 2.9378792917517598 9.5580322436109206 11.3069335761771512 O
    velocity 0.6452273766950429 0.6505744678563576 -0.1093257900495776
atom 8.0848792917517578 9.5580322436109206 11.3069335761771512 O
    velocity 0.0404835413432288 0.2919533531624003 0.5589309269446038
atom 13.2318792917517580 9.5580322436109206 11.3069335761771512 O
    velocity -0.1976529090720283 0.2492284866885873 -0.0471160823874666
atom 2.9378792917517598 14.7670322436109220 11.3069335761771512 O
    velocity -0.0141557614677218 -0.1751585678107042 0.9738474813481958
atom 8.0848792917517578 14.7670322436109220 11.3069335761771512 O
    velocity -0.0378067377445020 0.2779132150329043 1.7378852318848894
atom 13.2318792917517580 14.7670322436109220 11.3069335761771512 O
    velocity 0.3439872080346359 -0.7691360118776833 -0.6355862834599926
atom -0.3657132787864993 0.8599677563890764 4.4166386267091839 O
    velocity 0.5210175245410845 0.1826774647601576 -1.2562396938428277
atom 4.7812867212135020 0.8599677563890764 4.4166386267091839 O
    velocity 1.1460250953967759 0.3128054604042519 0.6603368404039721
atom 9.9282867212135013 0.8599677563890764 4.4166386267091839 O
    velocity -0.8807799426913056 0.3396109300627898 -0.1889725803295577
atom -0.3657132787864993 6.0689677563890756 4.4166386267091839 O
    velocity 0.6904215064254416 0.8096402778772972 0.6726404774205009
atom 4.7812867212135020 6.0689677563890756 4.4166386267091839 O
    velocity -1.0076295922789733 0.3030117033101027 0.8931266964795495
atom 9.9282867212135013 6.0689677563890756 4.4166386267091839 O
    velocity -0.7687648187024891 0.4805874669794174 -0.3720496284437204
atom -0.3657132787864993 11.2779677563890743 4.4166386267091839 O
    velocity 1.3335693446197099 -0.1655232662811479 0.4260877523548777
atom 4.7812867212135020 11.2779677563890743 4.4166386267091839 O
    velocity 0.8336580622683609 -0.6844222992174404 0.5239667924174779
atom 9.9282867212135013 11.2779677563890743 4.4166386267091839 O
    velocity 0.4670906306804949 0.3269693930081951 -0.0757733160603733
atom -1.2239911726664487 0.8599677563890764 9.6578293365457331 O
    velocity -0.2287075123714119 -0.2925331584656504 0.3523824196593874
atom 3.9230088273335526 0.8599677563890764 9.6578293365457331 O
    velocity 0.7713959542649519 0.0251317986666275 0.5399301031311243
atom 9.0700088273335506 0.8599677563890764 9.6578293365457331 O
    velocity 0.2604715082480752 0.4230781224941340 0.1938106168135283
atom -1.2239911726664487 6.0689677563890756 9.6578293365457331 O
    velocity -0.9065726157479507 -0.8825269614945296 0.5698468394841918
atom 3.9230088273335526 6.0689677563890756 9.6578293365457331 O
    velocity 0.7078778913588790 0.2166537970790424 -0.5262368039558747
atom 9.0700088273335506 6.0689677563890756 9.6578293365457331 O
    velocity 0.5200408745297515 0.2643161357066718 -0.1278689932169613
atom -1.2239911726664487 11.2779677563890743 9.6578293365457331 O
    velocity 0.0471197052432499 -1.2237754533328216 -1.0128361008718565
atom 3.9230088273335526 11.2779677563890743 9.6578293365457331 O
    velocity 0.1126597570353720 -0.3132077169202647 -0.3917601192668430
atom 9.0700088273335506 11.2779677563890743 9.6578293365457331 O
    velocity -0.0943132481860198 0.1261636222755655 0.9356075895861007
atom -2.0822690665463996 0.8599677563890764 14.8990200463822919 O
    velocity 0.6362770904813154 -1.0051798820592390 0.2806538984089392
atom 3.0647309334536015 0.8599677563890764 14.8990200463822919 O
    velocity -1.2141577654373861 -0.3369461041309582 -0.5155090799389683
atom 8.2117309334535999 0.8599677563890764 14.8990200463822919 O
    velocity 0.3287214394798394 -0.1257619411729295 0.6060164404282212
atom -2.0822690665463996 6.0689677563890756 14.8990200463822919 O
    velocity 1.1683705438139549 0.1402225116979564 -1.0033127014491101
atom 3.0647309334536015 6.0689677563890756 14.8990200463822919 O
    velocity -1.0671730438779818 0.0212538719041445 0.8805096318548721
atom 8.2117309334535999 6.0689677563890756 14.8990200463822919 O
    velocity -0.4357599811011797 -0.1097193492564150 -0.7280600180874608
atom -2.0822690665463996 11.2779677563890743 14.8990200463822919 O