#=======================================================
# FHI-aims file: 600_geometry.in.primitive.supercell_768.0010K
# Created using the Atomic Simulation Environment (ASE)
# Sat Nov 26 17:29:10 2022

# Additional information:
#  created from MB distrubtion
#  T = 10.0 K
#  quantum:             False
#  deterministic:       False
#  plus_minus:          False
#  gauge_eigenvectors:  False
#  Random seed:         626459670
#  Sample number:       1
#=======================================================
lattice_vector 20.6439999999999984 0.0000000000000000 0.0000000000000000 
lattice_vector 0.0000000000000000 20.8520000000000003 0.0000000000000000 
lattice_vector -3.3961775255723858 0.0000000000000000 21.0477642094070667 
atom 1.2496942447473678 0.2223810952775880 1.1049938475211403 Zr
    velocity -0.0362459470144107 0.0673907932586942 0.4620580359098352
atom 6.4106942447473703 0.2223810952775880 1.1049938475211403 Zr
    velocity 0.0925767018290797 -0.1222505649930203 -0.4250563633284764
atom 11.5716942447473663 0.2223810952775880 1.1049938475211403 Zr
    velocity 0.6262164679466226 -0.3060060620733254 0.0932040283837979
atom 16.7326942447473641 0.2223810952775880 1.1049938475211403 Zr
    velocity 0.3112944784647603 -0.0698153510836266 -0.0995267798966564
atom 1.2496942447473678 5.4353810952775881 1.1049938475211403 Zr
    velocity 0.1546319400492438 -0.4861780771500110 0.3164168473889725
atom 6.4106942447473703 5.4353810952775881 1.1049938475211403 Zr
    velocity -0.2405852578960162 0.0307616960760542 0.0267422350526259
atom 11.5716942447473663 5.4353810952775881 1.1049938475211403 Zr
    velocity 0.1451994077812979 -0.1781949307596145 -0.0838918148297763
atom 16.7326942447473641 5.4353810952775881 1.1049938475211403 Zr
    velocity 0.0146595875043298 -0.8073187239486117 0.1422167376699335
atom 1.2496942447473678 10.6483810952775890 1.1049938475211403 Zr
    velocity -0.5928091632998848 -0.2676081126182194 0.1022828334369990
atom 6.4106942447473703 10.6483810952775890 1.1049938475211403 Zr
    velocity 0.4928775628883576 -0.1555508081774719 -0.0453857686081479
atom 11.5716942447473663 10.6483810952775890 1.1049938475211403 Zr
    velocity 0.2931002935244352 0.3591249155591311 -0.3402883795978355
atom 16.7326942447473641 10.6483810952775890 1.1049938475211403 Zr
    velocity -0.0894614353991917 -0.5617528462319773 -0.2230679840900327
atom 1.2496942447473678 15.8613810952775900 1.1049938475211403 Zr
    velocity -0.6091576404277479 0.8164350640333889 -0.2728377831653679
atom 6.4106942447473703 15.8613810952775900 1.1049938475211403 Zr
    velocity -0.0018403528657417 0.1530155237115773 0.0850357331646699
atom 11.5716942447473663 15.8613810952775900 1.1049938475211403 Zr
    velocity -0.0535200664058163 -0.0764123170633882 0.1023753982328602
atom 16.7326942447473641 15.8613810952775900 1.1049938475211403 Zr
    velocity -0.0659203722002703 -0.0112901592978587 -0.3274417235157934
atom 0.4006498633542713 0.2223810952775880 6.3669348998729074 Zr
    velocity -0.3742617678873997 -0.0771717983777739 -0.1947487781456974
atom 5.5616498633542735 0.2223810952775880 6.3669348998729074 Zr
    velocity -0.5341729139668724 -0.1464932647911663 -0.1741774097718988
atom 10.7226498633542704 0.2223810952775880 6.3669348998729074 Zr
    velocity 0.5948680353852065 0.3162195582012418 -0.1624025664559536
atom 15.8836498633542682 0.2223810952775880 6.3669348998729074 Zr
    velocity -0.1146634548420554 0.1423454851619381 0.2925941203130789
atom 0.4006498633542713 5.4353810952775881 6.3669348998729074 Zr
    velocity 0.1783912190868638 0.0282923529043906 -0.0165771914441897
atom 5.5616498633542735 5.4353810952775881 6.3669348998729074 Zr
    velocity -0.0500242653900408 0.3996203148759316 -0.2306840356593703
atom 10.7226498633542704 5.4353810952775881 6.3669348998729074 Zr
    velocity 0.0495964554821038 0.0510591278217399 0.0440612988095520
atom 15.8836498633542682 5.4353810952775881 6.3669348998729074 Zr
    velocity -0.0286984418676576 0.3059706058311277 -0.3547727814462919
atom 0.4006498633542713 10.6483810952775890 6.3669348998729074 Zr
    velocity 0.0202987185884048 -0.2305273482415537 0.0093077793863382
atom 5.5616498633542735 10.6483810952775890 6.3669348998729074 Zr
    velocity 0.0355867212844191 -0.0951037723335185 -0.0701123585358637
atom 10.7226498633542704 10.6483810952775890 6.3669348998729074 Zr
    velocity -0.0448535530811148 0.1965848949428362 -0.0588220218604065
atom 15.8836498633542682 10.6483810952775890 6.3669348998729074 Zr
    velocity -0.1234629798484337 -0.2737271039764708 0.0211952054523067
atom 0.4006498633542713 15.8613810952775900 6.3669348998729074 Zr
    velocity 0.2770566047899831 -0.1412457503903993 0.1021266428647177
atom 5.5616498633542735 15.8613810952775900 6.3669348998729074 Zr
    velocity 0.3146500218682620 0.0358202402114706 0.3488529261995963
atom 10.7226498633542704 15.8613810952775900 6.3669348998729074 Zr
    velocity -0.0178342306740156 -0.0880307482368878 0.0446323216973250
atom 15.8836498633542682 15.8613810952775900 6.3669348998729074 Zr
    velocity -0.0019628378002625 -0.2627620710108796 -0.2497292099788746
atom -0.4483945180388255 0.2223810952775880 11.6288759522246767 Zr
    velocity -0.4391220110418170 -0.2176075762767660 0.0370320926116903
atom 4.7126054819611767 0.2223810952775880 11.6288759522246767 Zr
    velocity 0.0558846388581769 -0.2081080429870269 0.2296722693405007
atom 9.8736054819611745 0.2223810952775880 11.6288759522246767 Zr
    velocity 0.3651333909633870 0.1116927070014430 0.0561116647224590
atom 15.0346054819611705 0.2223810952775880 11.6288759522246767 Zr
    velocity 0.0849971885787136 0.1863614657851033 0.2022364381285694
atom -0.4483945180388255 5.4353810952775881 11.6288759522246767 Zr
    velocity 0.3264730684014410 0.0501129457463692 0.1553098198690683
atom 4.7126054819611767 5.4353810952775881 11.6288759522246767 Zr
    velocity -0.3964956286485665 0.1081153421362835 -0.3629006427855133
atom 9.8736054819611745 5.4353810952775881 11.6288759522246767 Zr
    velocity -0.0272428166405283 0.2025218692677595 0.2771041736560380
atom 15.0346054819611705 5.4353810952775881 11.6288759522246767 Zr
    velocity -0.0934290134217633 0.2687878992202360 -0.0968686593363444
atom -0.4483945180388255 10.6483810952775890 11.6288759522246767 Zr
    velocity -0.0269992605229848 0.3105131783573236 -0.1508524503366669
atom 4.7126054819611767 10.6483810952775890 11.6288759522246767 Zr
    velocity 0.3170058638281890 0.1903957622470557 0.3067632990578252
atom 9.8736054819611745 10.6483810952775890 11.6288759522246767 Zr
    velocity -0.1084191447076189 -0.2648135916478145 0.2936913041666169
atom 15.0346054819611705 10.6483810952775890 11.6288759522246767 Zr
    velocity 0.6512902239818364 -0.0852672499839721 0.3845530488750782
atom -0.4483945180388255 15.8613810952775900 11.6288759522246767 Zr
    velocity 0.1990082211515584 -0.0449282101759318 -0.0373025511520775
atom 4.7126054819611767 15.8613810952775900 11.6288759522246767 Zr
    velocity 0.0643862097394405 -0.0027258143917283 0.1568406851237898
atom 9.8736054819611745 15.8613810952775900 11.6288759522246767 Zr
    velocity 0.4549127744277260 0.3361202823449715 0.2685266934919226
atom 15.0346054819611705 15.8613810952775900 11.6288759522246767 Zr
    velocity 0.0960197937095021 -0.0003588036248581 0.0038641134708263
atom -1.2974388994319215 0.2223810952775880 16.8908170045764408 Zr
    velocity -0.1403238727758348 -0.3205748118173543 0.0009778694909390
atom 3.8635611005680803 0.2223810952775880 16.8908170045764408 Zr
    velocity -0.1251487310326411 -0.4823465683244894 -0.0237474126957861
atom 9.0245611005680768 0.2223810952775880 16.8908170045764408 Zr
    velocity 0.1901918089491366 -0.1134057060679097 0.0491195142473007
atom 14.1855611005680746 0.2223810952775880 16.8908170045764408 Zr
    velocity 0.2878840599860479 0.0056441223515851 0.1314164514014599
atom -1.2974388994319215 5.4353810952775881 16.8908170045764408 Zr
    velocity 0.0285292636808891 -0.0995112434776391 -0.0625478686020298
atom 3.8635611005680803 5.4353810952775881 16.8908170045764408 Zr
    velocity 0.2638858956444282 0.2811870534419487 0.2519459879601085
atom 9.0245611005680768 5.4353810952775881 16.8908170045764408 Zr
    velocity 0.1441785599978792 0.4161728795119717 -0.0188173845538546
atom 14.1855611005680746 5.4353810952775881 16.8908170045764408 Zr
    velocity 0.2031035010062739 -0.3628428069176981 0.1325323205437841
atom -1.2974388994319215 10.6483810952775890 16.8908170045764408 Zr
    velocity -0.1537948397869610 0.5337804475272344 0.3033630107359483
atom 3.8635611005680803 10.6483810952775890 16.8908170045764408 Zr
    velocity -0.2172503540684684 -0.0736940406350979 -0.1709857077096662
atom 9.0245611005680768 10.6483810952775890 16.8908170045764408 Zr
    velocity 0.0187498749190198 -0.1292731783181967 0.3382991068442058
atom 14.1855611005680746 10.6483810952775890 16.8908170045764408 Zr
    velocity -0.0491058842790314 -0.1787125538739960 0.6166672639206182
atom -1.2974388994319215 15.8613810952775900 16.8908170045764408 Zr
    velocity 0.1264328352305691 0.1815581451691859 -0.3451522116776193
atom 3.8635611005680803 15.8613810952775900 16.8908170045764408 Zr
    velocity -0.2126264524040415 -0.3008182354289602 -0.1734185893585556
atom 9.0245611005680768 15.8613810952775900 16.8908170045764408 Zr
    velocity -0.0393728792088434 0.1520272851059160 0.1850404356634587
atom 14.1855611005680746 15.8613810952775900 16.8908170045764408 Zr
    velocity 0.0269585707692588 0.1257274323237570 0.1378588495335629
atom 3.0622610677959141 4.9906189047224121 4.1569472784978005 Zr
    velocity 0.1588886269008221 -0.1044344067754032 0.2048203166439825
atom 8.2232610677959137 4.9906189047224121 4.1569472784978005 Zr
    velocity 0.5361234448033652 0.5125669087271706 0.0603428756425400
atom 13.3842610677959115 4.9906189047224121 4.1569472784978005 Zr
    velocity -0.4554578653181421 -0.4398209724212497 0.2394647234939845
atom 18.5452610677959129 4.9906189047224121 4.1569472784978005 Zr
    velocity -0.0608323003297727 0.0865732035685364 -0.3459173267063999
atom 3.0622610677959141 10.2036189047224095 4.1569472784978005 Zr
    velocity 0.1850216561027102 -0.5182909549367604 -0.1788383098266480
atom 8.2232610677959137 10.2036189047224095 4.1569472784978005 Zr
    velocity -0.1688571953520364 -0.0952746753632826 0.1561186759584818
atom 13.3842610677959115 10.2036189047224095 4.1569472784978005 Zr
    velocity -0.1339546231185473 0.2198280545782943 0.4091501149069488
atom 18.5452610677959129 10.2036189047224095 4.1569472784978005 Zr
    velocity 0.1539939505559291 0.0978525595966308 0.2775561295916473
atom 3.0622610677959141 15.4166189047224105 4.1569472784978005 Zr
    velocity -0.6642095287142864 0.0225284547386628 -0.1858619922182977
atom 8.2232610677959137 15.4166189047224105 4.1569472784978005 Zr
    velocity 0.4603843947938926 0.5527352727244009 -0.0074880982482445
atom 13.3842610677959115 15.4166189047224105 4.1569472784978005 Zr
    velocity -0.2625677894875495 -0.0492110694994840 0.1444639940925608
atom 18.5452610677959129 15.4166189047224105 4.1569472784978005 Zr
    velocity 0.3497984906291943 0.0135695209115867 -0.3142375217466722
atom 3.0622610677959141 20.6296189047224097 4.1569472784978005 Zr
    velocity 0.3129192886321219 -0.3679285864947796 -0.2065428945981338
atom 8.2232610677959137 20.6296189047224097 4.1569472784978005 Zr
    velocity -0.0476482683263830 -0.1992847272308083 -0.0643006654482748
atom 13.3842610677959115 20.6296189047224097 4.1569472784978005 Zr
    velocity 0.1322237463342519 -0.3845508108769500 -0.2631069469694104
atom 18.5452610677959129 20.6296189047224097 4.1569472784978005 Zr
    velocity -0.6091784979702354 0.1073651955434800 0.2129393765152245
atom 2.2132166864028173 4.9906189047224121 9.4188883308495690 Zr
    velocity 0.1162551465253078 0.3091676715997463 0.1274013237618593
atom 7.3742166864028178 4.9906189047224121 9.4188883308495690 Zr
    velocity 0.3982418319759358 -0.3142715450972769 0.7803911196072546
atom 12.5352166864028156 4.9906189047224121 9.4188883308495690 Zr
    velocity -0.4150114742286908 0.1047824950721229 -0.6250794614380694
atom 17.6962166864028170 4.9906189047224121 9.4188883308495690 Zr
    velocity -0.0268806345171286 0.0757075424527567 0.2136583378281595
atom 2.2132166864028173 10.2036189047224095 9.4188883308495690 Zr
    velocity 0.1074505303431484 -0.1632593365825480 -0.8354808661069165
atom 7.3742166864028178 10.2036189047224095 9.4188883308495690 Zr
    velocity -0.0241731955221173 -0.3167332859244413 -0.1356452380672718
atom 12.5352166864028156 10.2036189047224095 9.4188883308495690 Zr
    velocity 0.1829620749092734 -0.3005745042955462 0.2594301294846351
atom 17.6962166864028170 10.2036189047224095 9.4188883308495690 Zr
    velocity -0.0925036449253812 -0.0043050291436242 -0.3881293968152263
atom 2.2132166864028173 15.4166189047224105 9.4188883308495690 Zr
    velocity 0.0900004051904613 0.2879431047218124 0.2413749377426064
atom 7.3742166864028178 15.4166189047224105 9.4188883308495690 Zr
    velocity 0.1142454400082548 0.1700875862611497 0.0277673527303615
atom 12.5352166864028156 15.4166189047224105 9.4188883308495690 Zr
    velocity 0.1101022220822071 -0.1337301200101418 0.0153896079500668
atom 17.6962166864028170 15.4166189047224105 9.4188883308495690 Zr
    velocity 0.1837211085126647 0.1284201369105598 -0.2230587050909376
atom 2.2132166864028173 20.6296189047224097 9.4188883308495690 Zr
    velocity -0.0151491229631928 -0.1979103865670193 -0.4240514588012899
atom 7.3742166864028178 20.6296189047224097 9.4188883308495690 Zr
    velocity 0.4934947611735254 0.0898263083008623 0.1189368119583569
atom 12.5352166864028156 20.6296189047224097 9.4188883308495690 Zr
    velocity 0.0143036674864201 -0.0798675756916820 -0.0297961840181150
atom 17.6962166864028170 20.6296189047224097 9.4188883308495690 Zr
    velocity -0.1431001064221194 -0.6564736574774979 0.3699528723085819
atom 1.3641723050097210 4.9906189047224121 14.6808293832013348 Zr
    velocity -0.0886785407398718 -0.1838894406032345 -0.3888305724767691
atom 6.5251723050097210 4.9906189047224121 14.6808293832013348 Zr
    velocity -0.0502055728868219 -0.1848885804321643 0.2370452272072505
atom 11.6861723050097197 4.9906189047224121 14.6808293832013348 Zr
    velocity -0.5159469952381982 0.2800221747105393 -0.2151002563644261
atom 16.8471723050097211 4.9906189047224121 14.6808293832013348 Zr
    velocity 0.1214397988276767 -0.1753639482157049 -0.1981997267351928
atom 1.3641723050097210 10.2036189047224095 14.6808293832013348 Zr
    velocity 0.1510581032947294 0.1801380481951758 -0.1548297785684729
atom 6.5251723050097210 10.2036189047224095 14.6808293832013348 Zr
    velocity -0.1632527326924066 0.2636037335139819 -0.0277250901298690
atom 11.6861723050097197 10.2036189047224095 14.6808293832013348 Zr
    velocity 0.1403325795937829 -0.2042851943882016 0.1773942849341539
atom 16.8471723050097211 10.2036189047224095 14.6808293832013348 Zr
    velocity -0.4155886741372205 -0.0758901435953723 -0.0378289578773377
atom 1.3641723050097210 15.4166189047224105 14.6808293832013348 Zr
    velocity 0.0285372365513467 -0.0102830974325472 -0.0360196328992243
atom 6.5251723050097210 15.4166189047224105 14.6808293832013348 Zr
    velocity 0.5248305788595780 0.0921650526590095 0.6487556841391947
atom 11.6861723050097197 15.4166189047224105 14.6808293832013348 Zr
    velocity 0.4139154558515949 0.0004258252700695 0.3591615159967150
atom 16.8471723050097211 15.4166189047224105 14.6808293832013348 Zr
    velocity -0.0030342060440913 0.4786574592621739 -0.2995546884717994
atom 1.3641723050097210 20.6296189047224097 14.6808293832013348 Zr
    velocity 0.4150517214046737 0.6234911849888655 0.2807315071399700
atom 6.5251723050097210 20.6296189047224097 14.6808293832013348 Zr
    velocity -0.1215781228102902 0.1189803751417321 0.3013344950792113
atom 11.6861723050097197 20.6296189047224097 14.6808293832013348 Zr
    velocity -0.4092913691906499 -0.2610181696451381 -0.4325606362648607
atom 16.8471723050097211 20.6296189047224097 14.6808293832013348 Zr
    velocity 0.0599927487454798 -0.0308549701910240 0.4310712003453447
atom 0.5151279236166245 4.9906189047224121 19.9427704355531006 Zr
    velocity 0.4324142556749928 0.0422077374993659 -0.0072404898612533
atom 5.6761279236166251 4.9906189047224121 19.9427704355531006 Zr
    velocity -0.2712546689964728 0.0452435556431012 -0.4176448065024476
atom 10.8371279236166220 4.9906189047224121 19.9427704355531006 Zr
    velocity -0.1899563844006386 0.1145036968906715 -0.0865236329632524
atom 15.9981279236166234 4.9906189047224121 19.9427704355531006 Zr
    velocity 0.0251069336411993 -0.0083026978856345 0.0994005456921118
atom 0.5151279236166245 10.2036189047224095 19.9427704355531006 Zr
    velocity -0.4552759372077376 0.3075554260774533 0.1197967993798374
atom 5.6761279236166251 10.2036189047224095 19.9427704355531006 Zr
    velocity 0.6341321365661592 -0.1062057739107418 -0.7310212993711706
atom 10.8371279236166220 10.2036189047224095 19.9427704355531006 Zr
    velocity -0.0476079518585646 0.1549861393604982 -0.1011639219722699
atom 15.9981279236166234 10.2036189047224095 19.9427704355531006 Zr
    velocity -0.4156539389398730 -0.3038664022705185 0.0660434260700254
atom 0.5151279236166245 15.4166189047224105 19.9427704355531006 Zr
    velocity 0.1786756277856689 0.5895172126928678 0.2760429647204029
atom 5.6761279236166251 15.4166189047224105 19.9427704355531006 Zr
    velocity 0.2002598371242560 0.1241565754290684 -0.3391781101823211
atom 10.8371279236166220 15.4166189047224105 19.9427704355531006 Zr
    velocity -0.1657193335125595 0.3707785079009192 0.4910017311123874
atom 15.9981279236166234 15.4166189047224105 19.9427704355531006 Zr
    velocity -0.0375919307922936 0.4540377322266460 -0.1481278675421457
atom 0.5151279236166245 20.6296189047224097 19.9427704355531006 Zr
    velocity -0.1510529939489688 0.2312005581349422 0.0675512595539348
atom 5.6761279236166251 20.6296189047224097 19.9427704355531006 Zr
    velocity -0.4118437782342258 0.3083708418033740 -0.4685229726702935
atom 10.8371279236166220 20.6296189047224097 19.9427704355531006 Zr
    velocity -0.1713310277781225 0.3740502346785154 -0.1765897908297988
atom 15.9981279236166234 20.6296189047224097 19.9427704355531006 Zr
    velocity -0.8664580454177314 0.1389973067906312 -0.2720368145124702
atom 3.4867832584924621 2.8288810952775902 1.5259767523219179 Zr
    velocity -0.0937203048021848 0.1479914648060422 0.5829232513328521
atom 8.6477832584924634 2.8288810952775902 1.5259767523219179 Zr
    velocity 0.1260026655308251 -0.3016555853564448 0.1482140300986937
atom 13.8087832584924612 2.8288810952775902 1.5259767523219179 Zr
    velocity -0.2706323244851925 0.2079564758698472 0.1020668167232353
atom 18.9697832584924626 2.8288810952775902 1.5259767523219179 Zr
    velocity 0.3738794331441669 -0.3873863587503317 -0.2188645000288939
atom 3.4867832584924621 8.0418810952775885 1.5259767523219179 Zr
    velocity 0.0180231942740748 -0.0998140427701192 0.2570426083594650
atom 8.6477832584924634 8.0418810952775885 1.5259767523219179 Zr
    velocity 0.4446330075691438 0.4742980518083371 -0.6046013041550818
atom 13.8087832584924612 8.0418810952775885 1.5259767523219179 Zr
    velocity -0.4155806824996877 -0.1106819791005045 -0.0416517795730356
atom 18.9697832584924626 8.0418810952775885 1.5259767523219179 Zr
    velocity 0.1606386726476786 -0.0540367404639410 -0.4064323089625881
atom 3.4867832584924621 13.2548810952775895 1.5259767523219179 Zr
    velocity 0.3970121029505670 0.3296152838357244 0.2142379740135087
atom 8.6477832584924634 13.2548810952775895 1.5259767523219179 Zr
    velocity 0.3135665150044877 0.4316696087439078 -0.5241619614508241
atom 13.8087832584924612 13.2548810952775895 1.5259767523219179 Zr
    velocity -0.1807942140107354 -0.0885636882536943 0.3599653352414143
atom 18.9697832584924626 13.2548810952775895 1.5259767523219179 Zr
    velocity -0.3514154044358416 0.3693098126382226 0.0194865602523347
atom 3.4867832584924621 18.4678810952775905 1.5259767523219179 Zr
    velocity 0.3395710739332906 -0.1304433316501984 -0.0096915643987044
atom 8.6477832584924634 18.4678810952775905 1.5259767523219179 Zr
    velocity -0.8609124325035937 -0.4834764361055098 -0.1355706028980554
atom 13.8087832584924612 18.4678810952775905 1.5259767523219179 Zr
    velocity 0.3078035893757771 0.1718980470271589 -0.6044176487291527
atom 18.9697832584924626 18.4678810952775905 1.5259767523219179 Zr
    velocity -0.4257165826857685 -0.1286760070900043 0.5477649432305528
atom 2.6377388770993657 2.8288810952775902 6.7879178046736843 Zr
    velocity -0.3243445449982913 -0.6348590621540845 -0.1473327917494398
atom 7.7987388770993666 2.8288810952775902 6.7879178046736843 Zr
    velocity -0.1699641885044161 0.2436144416595493 -0.2061668500078897
atom 12.9597388770993636 2.8288810952775902 6.7879178046736843 Zr
    velocity 0.4631603546890257 -0.3301786904678660 0.5781780779551019
atom 18.1207388770993667 2.8288810952775902 6.7879178046736843 Zr
    velocity 0.1867622778241064 -0.3868402235462318 -0.0093097521136787
atom 2.6377388770993657 8.0418810952775885 6.7879178046736843 Zr
    velocity 0.3039200632936329 -0.0439184676595316 -0.0823854978387118
atom 7.7987388770993666 8.0418810952775885 6.7879178046736843 Zr
    velocity -0.2186123201331027 0.2636629457972544 -0.1872733152600177
atom 12.9597388770993636 8.0418810952775885 6.7879178046736843 Zr
    velocity -0.0393645449284922 -0.3304227991716953 -0.2360710580079015
atom 18.1207388770993667 8.0418810952775885 6.7879178046736843 Zr
    velocity -0.2348296726059375 0.1522145077657318 -0.0290855218368716
atom 2.6377388770993657 13.2548810952775895 6.7879178046736843 Zr
    velocity -0.1878206426781737 0.0234913925343026 0.8431757534454893
atom 7.7987388770993666 13.2548810952775895 6.7879178046736843 Zr
    velocity -0.0598475722653663 -0.0157612870370756 0.0680463585540941
atom 12.9597388770993636 13.2548810952775895 6.7879178046736843 Zr
    velocity -0.2814525721623127 -0.3879649747830016 -0.2407677166899458
atom 18.1207388770993667 13.2548810952775895 6.7879178046736843 Zr
    velocity -0.3572712675694691 0.0909449339290529 -0.0895526459734064
atom 2.6377388770993657 18.4678810952775905 6.7879178046736843 Zr
    velocity 0.2940468632301864 0.3009333449683203 0.1188038827035118
atom 7.7987388770993666 18.4678810952775905 6.7879178046736843 Zr
    velocity -0.0468058360657185 0.2847244101436290 -0.0627187444597129
atom 12.9597388770993636 18.4678810952775905 6.7879178046736843 Zr
    velocity -0.3501587787702102 0.2661078906049904 -0.1698684267395774
atom 18.1207388770993667 18.4678810952775905 6.7879178046736843 Zr
    velocity 0.4779562313566116 0.1031196416494796 0.4297825911384456
atom 1.7886944957062691 2.8288810952775902 12.0498588570254519 Zr
    velocity 0.4622976366211808 -0.0763547376534801 -0.1494785411475344
atom 6.9496944957062698 2.8288810952775902 12.0498588570254519 Zr
    velocity -0.3542003131804673 0.1952101223915783 0.2278243957471991
atom 12.1106944957062677 2.8288810952775902 12.0498588570254519 Zr
    velocity -0.0615109566467100 -0.4827324583927365 -0.4270631157323934
atom 17.2716944957062672 2.8288810952775902 12.0498588570254519 Zr
    velocity -0.3011738034109584 0.0550448974689483 0.0923957167734013
atom 1.7886944957062691 8.0418810952775885 12.0498588570254519 Zr
    velocity -0.3736287354742344 -0.2602354603862994 -0.6896964770441802
atom 6.9496944957062698 8.0418810952775885 12.0498588570254519 Zr
    velocity 0.5484601779291173 -0.3497958881190777 0.0355314524027097
atom 12.1106944957062677 8.0418810952775885 12.0498588570254519 Zr
    velocity 0.0163021440181463 -0.1607622593544667 0.3695261613072496
atom 17.2716944957062672 8.0418810952775885 12.0498588570254519 Zr
    velocity -0.7396473207683796 0.1376795740690849 -0.0929570199663985
atom 1.7886944957062691 13.2548810952775895 12.0498588570254519 Zr
    velocity 0.4980540907395095 -0.5097823884367200 0.3247437039575031
atom 6.9496944957062698 13.2548810952775895 12.0498588570254519 Zr
    velocity 0.1869849015310153 0.1204805982681793 0.1293626443444725
atom 12.1106944957062677 13.2548810952775895 12.0498588570254519 Zr
    velocity 0.1802449027625092 0.5928984890791913 0.0112756686806520
atom 17.2716944957062672 13.2548810952775895 12.0498588570254519 Zr
    velocity -0.4501452647785782 -0.0967697399796073 0.0237811677230214
atom 1.7886944957062691 18.4678810952775905 12.0498588570254519 Zr
    velocity -0.0611454075791212 0.0193652116990804 -0.1681247787717669
atom 6.9496944957062698 18.4678810952775905 12.0498588570254519 Zr
    velocity -0.1842307139032057 0.2495001303064556 -0.2319167394198172
atom 12.1106944957062677 18.4678810952775905 12.0498588570254519 Zr
    velocity 0.0546730310463713 0.4888037771883423 -0.4819547870619814
atom 17.2716944957062672 18.4678810952775905 12.0498588570254519 Zr
    velocity -0.1360543857347045 0.0652447556638368 0.2071887128656104
atom 0.9396501143131727 2.8288810952775902 17.3117999093772177 Zr
    velocity 0.2524752113440566 -0.5290686971463932 0.1665010807915299
atom 6.1006501143131731 2.8288810952775902 17.3117999093772177 Zr
    velocity -0.0358298157745283 -0.3766881664345759 -0.3756480961790837
atom 11.2616501143131718 2.8288810952775902 17.3117999093772177 Zr
    velocity -0.2279859905222716 -0.2745759110871378 0.1533789971703496
atom 16.4226501143131713 2.8288810952775902 17.3117999093772177 Zr
    velocity 0.2253142765668420 -0.2119674114659790 -0.0792779397876800
atom 0.9396501143131727 8.0418810952775885 17.3117999093772177 Zr
    velocity 0.5342276962487391 0.0901454106287032 -0.1011950338265434
atom 6.1006501143131731 8.0418810952775885 17.3117999093772177 Zr
    velocity -0.4793347849725048 -0.1471659727921460 0.4299094538992672
atom 11.2616501143131718 8.0418810952775885 17.3117999093772177 Zr
    velocity 0.5109429694934687 -0.3247093767258535 0.2253099768039988
atom 16.4226501143131713 8.0418810952775885 17.3117999093772177 Zr
    velocity 0.0522505127428550 0.6181531413398753 0.1182858443390271
atom 0.9396501143131727 13.2548810952775895 17.3117999093772177 Zr
    velocity -0.4031799409117798 -0.1762890793868319 -0.2153180471443764
atom 6.1006501143131731 13.2548810952775895 17.3117999093772177 Zr
    velocity -0.2684085320754852 -0.0836893290681051 -0.8229541596724000
atom 11.2616501143131718 13.2548810952775895 17.3117999093772177 Zr
    velocity -0.4331976825863843 -0.0136566920954353 0.3345423856007391
atom 16.4226501143131713 13.2548810952775895 17.3117999093772177 Zr
    velocity 0.0626856489519137 0.1514871237485735 -0.6209276951121272
atom 0.9396501143131727 18.4678810952775905 17.3117999093772177 Zr
    velocity 0.2312137054253846 -0.3485919773824779 -0.2722340311444167
atom 6.1006501143131731 18.4678810952775905 17.3117999093772177 Zr
    velocity 0.1607604586059825 0.1752889175259474 -0.3741738545415864
atom 11.2616501143131718 18.4678810952775905 17.3117999093772177 Zr
    velocity -0.2364597739041202 0.1661272460366998 0.3150032950004802
atom 16.4226501143131713 18.4678810952775905 17.3117999093772177 Zr
    velocity -0.2618255777647474 0.0759560203573827 0.0747459000552480
atom 0.8251720540508196 2.3841189047224121 3.7359643736970236 Zr
    velocity -0.1970037215110685 0.2609137868291491 -0.2162521157166951
atom 5.9861720540508214 2.3841189047224121 3.7359643736970236 Zr
    velocity 0.1849237063987086 0.2649035087204773 -0.1763894148584313
atom 11.1471720540508201 2.3841189047224121 3.7359643736970236 Zr
    velocity 0.6431677125247195 0.1244899123946537 -0.0894115892509804
atom 16.3081720540508215 2.3841189047224121 3.7359643736970236 Zr
    velocity 0.0741182491232323 0.0330164414753380 0.1529982105334572
atom 0.8251720540508196 7.5971189047224117 3.7359643736970236 Zr
    velocity -0.5486845815843849 0.0236283860334730 0.1512004240223698
atom 5.9861720540508214 7.5971189047224117 3.7359643736970236 Zr
    velocity -0.4910905948160292 -0.1208782094634192 0.1296474665552411
atom 11.1471720540508201 7.5971189047224117 3.7359643736970236 Zr
    velocity 0.4275070876839440 0.0365126697712528 -0.1412272643020359
atom 16.3081720540508215 7.5971189047224117 3.7359643736970236 Zr
    velocity -0.1646435550265371 -0.0190089086813528 -0.3452184135671411
atom 0.8251720540508196 12.8101189047224118 3.7359643736970236 Zr
    velocity -0.3200067092062755 -0.2476714250589444 -0.0109367756517703
atom 5.9861720540508214 12.8101189047224118 3.7359643736970236 Zr
    velocity -0.2297230441152993 -0.3646409610708132 0.3870762150200263
atom 11.1471720540508201 12.8101189047224118 3.7359643736970236 Zr
    velocity -0.3994418121873094 0.4684696014185273 0.1172784840527862
atom 16.3081720540508215 12.8101189047224118 3.7359643736970236 Zr
    velocity 0.0440583928030954 0.0050259279717122 0.1093383329604495
atom 0.8251720540508196 18.0231189047224127 3.7359643736970236 Zr
    velocity -0.4779888986112956 -0.2177789831305689 0.3128769866006267
atom 5.9861720540508214 18.0231189047224127 3.7359643736970236 Zr
    velocity 0.0411716263832477 0.1433304106263494 -0.1879947246017238
atom 11.1471720540508201 18.0231189047224127 3.7359643736970236 Zr
    velocity 0.1035614764490163 -0.2406606936319518 0.1842521799577480
atom 16.3081720540508215 18.0231189047224127 3.7359643736970236 Zr
    velocity -0.0621516692699797 0.0467124442927738 -0.1782551228301491
atom -0.0238723273422769 2.3841189047224121 8.9979054260487903 Zr
    velocity 0.2151081085114619 0.0776422633708144 -0.1289180781331496
atom 5.1371276726577255 2.3841189047224121 8.9979054260487903 Zr
    velocity -0.3563262190227129 -0.1676664191213085 0.3086211963932993
atom 10.2981276726577242 2.3841189047224121 8.9979054260487903 Zr
    velocity -0.4043224836320786 0.1783264329117090 0.4072463338091671
atom 15.4591276726577238 2.3841189047224121 8.9979054260487903 Zr
    velocity 0.2723337920398634 -0.2717946010192747 0.0212206513328092