#=======================================================
# FHI-aims file: 1200_geometry.in.primitive.supercell_1500.0010K
# Created using the Atomic Simulation Environment (ASE)
# Thu Aug 11 18:09:47 2022

# Additional information:
#  created from MB distrubtion
#  T = 10.0 K
#  quantum:             False
#  deterministic:       False
#  plus_minus:          False
#  gauge_eigenvectors:  False
#  Random seed:         1543911928
#  Sample number:       1
#=======================================================
lattice_vector 25.9649999999999963 0.0000000000000000 0.0000000000000000 
lattice_vector 0.0000000000000000 26.1850000000000023 0.0000000000000000 
lattice_vector -4.0920372589452203 0.0000000000000000 26.6172900775305088 
atom 1.2649819641330082 0.2234049100266120 1.1179122487589008 Zr
    velocity -0.3152625149174391 0.0982345162133215 0.0292633017072506
atom 6.4579819641330074 0.2234049100266120 1.1179122487589008 Zr
    velocity 0.2146659151987646 0.1478171215994497 0.1223769952511522
atom 11.6509819641330079 0.2234049100266120 1.1179122487589008 Zr
    velocity -0.0791585954184548 -0.0340335093451502 -0.2621075066699860
atom 16.8439819641330075 0.2234049100266120 1.1179122487589008 Zr
    velocity 0.1006966383817393 0.2009379579731752 0.3183261776276077
atom 22.0369819641330054 0.2234049100266120 1.1179122487589008 Zr
    velocity 0.3581143144166422 -0.0764557859350040 0.4139566317557280
atom 1.2649819641330082 5.4604049100266119 1.1179122487589008 Zr
    velocity -0.2985264750966209 0.0756184174729772 -0.2832630318969409
atom 6.4579819641330074 5.4604049100266119 1.1179122487589008 Zr
    velocity -0.2378148354837908 -0.0442732303165016 0.0023241725652824
atom 11.6509819641330079 5.4604049100266119 1.1179122487589008 Zr
    velocity 0.2381578457381928 0.2620651177080927 -0.0385465184634502
atom 16.8439819641330075 5.4604049100266119 1.1179122487589008 Zr
    velocity -0.5367872667330781 -0.0506787579687822 0.1559727259391651
atom 22.0369819641330054 5.4604049100266119 1.1179122487589008 Zr
    velocity 0.4759420314075418 0.3896676256165868 0.0761901451624208
atom 1.2649819641330082 10.6974049100266146 1.1179122487589008 Zr
    velocity -0.0016239868422260 -0.2737841196976308 -0.1118323427812986
atom 6.4579819641330074 10.6974049100266146 1.1179122487589008 Zr
    velocity -0.1185312188789100 0.7977561956588036 -0.2900137228598117
atom 11.6509819641330079 10.6974049100266146 1.1179122487589008 Zr
    velocity -0.0889034038800815 -0.4296587974670811 0.5978644128420522
atom 16.8439819641330075 10.6974049100266146 1.1179122487589008 Zr
    velocity 0.3088284979925550 -0.0685254011204620 -0.3212916306768318
atom 22.0369819641330054 10.6974049100266146 1.1179122487589008 Zr
    velocity -0.3346088807264674 0.5737063206175415 0.0896148909864325
atom 1.2649819641330082 15.9344049100266147 1.1179122487589008 Zr
    velocity 0.5569412299412134 -0.0300645378501772 0.3890873828537987
atom 6.4579819641330074 15.9344049100266147 1.1179122487589008 Zr
    velocity 0.1184073273392216 0.3798009685240997 0.1425828392597475
atom 11.6509819641330079 15.9344049100266147 1.1179122487589008 Zr
    velocity 0.1116279668825702 0.8986492031882956 0.1860900323491058
atom 16.8439819641330075 15.9344049100266147 1.1179122487589008 Zr
    velocity 0.5184085756986928 -0.0388044744649364 0.2295740016459303
atom 22.0369819641330054 15.9344049100266147 1.1179122487589008 Zr
    velocity 0.1619045023747025 -0.4498201131389335 -0.3820638105512586
atom 1.2649819641330082 21.1714049100266166 1.1179122487589008 Zr
    velocity 0.2704121212053894 0.0167356642628021 0.0441780399003053
atom 6.4579819641330074 21.1714049100266166 1.1179122487589008 Zr
    velocity 0.3681346219600068 0.6566992165009191 -0.3741150298312850
atom 11.6509819641330079 21.1714049100266166 1.1179122487589008 Zr
    velocity -0.0237395059306093 -0.0649292092444139 -0.2210116785970065
atom 16.8439819641330075 21.1714049100266166 1.1179122487589008 Zr
    velocity 0.0906265613034041 -0.2532913669220807 0.5420369454370977
atom 22.0369819641330054 21.1714049100266166 1.1179122487589008 Zr
    velocity 0.1606736867130273 0.1931347918290992 0.7197962812784736
atom 0.4465745123439642 0.2234049100266120 6.4413702642650028 Zr
    velocity 0.1309185775068114 0.2272254200135010 0.3540677770321480
atom 5.6395745123439633 0.2234049100266120 6.4413702642650028 Zr
    velocity -0.3597237137724001 -0.1177197631975619 -0.3632018950823183
atom 10.8325745123439638 0.2234049100266120 6.4413702642650028 Zr
    velocity -0.0975594172342274 -0.2900148577977285 -0.2827813392612297
atom 16.0255745123439617 0.2234049100266120 6.4413702642650028 Zr
    velocity -0.0837520663675139 0.0301333363884684 -0.3180159190875979
atom 21.2185745123439595 0.2234049100266120 6.4413702642650028 Zr
    velocity 0.0440985577391287 0.0933835745733575 0.3007175281644971
atom 0.4465745123439642 5.4604049100266119 6.4413702642650028 Zr
    velocity -0.2773489727109460 0.2191149080071162 -0.0713423781146704
atom 5.6395745123439633 5.4604049100266119 6.4413702642650028 Zr
    velocity 0.3400281389756566 0.0710486085736601 -0.4775882258295615
atom 10.8325745123439638 5.4604049100266119 6.4413702642650028 Zr
    velocity 0.2552538121049411 0.0048738569128280 0.0334135016095792
atom 16.0255745123439617 5.4604049100266119 6.4413702642650028 Zr
    velocity -0.1680908395220782 0.1889788621946537 -0.1749775719972219
atom 21.2185745123439595 5.4604049100266119 6.4413702642650028 Zr
    velocity -0.3879670104436627 0.0698057500991233 0.1412671033587952
atom 0.4465745123439642 10.6974049100266146 6.4413702642650028 Zr
    velocity -0.1004961231587076 -0.3050770768619876 -0.3570146877441399
atom 5.6395745123439633 10.6974049100266146 6.4413702642650028 Zr
    velocity -0.0643031836494046 0.4234169881483039 0.0795370201029111
atom 10.8325745123439638 10.6974049100266146 6.4413702642650028 Zr
    velocity 0.0106902033745135 -0.0979840375241230 -0.0214467411660243
atom 16.0255745123439617 10.6974049100266146 6.4413702642650028 Zr
    velocity -0.3234741313145317 -0.0793610953419187 -0.1314854171864309
atom 21.2185745123439595 10.6974049100266146 6.4413702642650028 Zr
    velocity -0.2717952745482632 0.4607776035880333 -0.3017258879314407
atom 0.4465745123439642 15.9344049100266147 6.4413702642650028 Zr
    velocity -0.1071062961369632 -0.3466583456797999 0.2677212241320756
atom 5.6395745123439633 15.9344049100266147 6.4413702642650028 Zr
    velocity -0.3740889865852032 -0.1255770036411531 -0.3859409634512738
atom 10.8325745123439638 15.9344049100266147 6.4413702642650028 Zr
    velocity 0.3135732338874220 0.1216748958209121 -0.3327997583523979
atom 16.0255745123439617 15.9344049100266147 6.4413702642650028 Zr
    velocity -0.0499775999454300 -0.2299436680595254 0.0683154351032592
atom 21.2185745123439595 15.9344049100266147 6.4413702642650028 Zr
    velocity -0.0047026806403502 0.3171214624393634 0.0652388822486915
atom 0.4465745123439642 21.1714049100266166 6.4413702642650028 Zr
    velocity 0.4515437461573742 0.6168599985309845 0.0942005208928466
atom 5.6395745123439633 21.1714049100266166 6.4413702642650028 Zr
    velocity -0.3893024168262624 -0.4681201168685200 0.2843713299005560
atom 10.8325745123439638 21.1714049100266166 6.4413702642650028 Zr
    velocity 0.1357644867526395 -0.0655459673419646 0.0198379678183848
atom 16.0255745123439617 21.1714049100266166 6.4413702642650028 Zr
    velocity 0.0925382130507576 -0.1623281176822015 -0.3360761057556736
atom 21.2185745123439595 21.1714049100266166 6.4413702642650028 Zr
    velocity -0.4288203902640068 -0.4191183222105441 0.1389852650558673
atom -0.3718329394450799 0.2234049100266120 11.7648282797711037 Zr
    velocity -0.1339603515808657 -0.1274703402172470 -0.2217631517979451
atom 4.8211670605549193 0.2234049100266120 11.7648282797711037 Zr
    velocity -0.4170683505662824 -0.0470421536801944 -0.4222756785879493
atom 10.0141670605549198 0.2234049100266120 11.7648282797711037 Zr
    velocity -0.2288858700009181 0.3197401851844202 0.1614431275476124
atom 15.2071670605549176 0.2234049100266120 11.7648282797711037 Zr
    velocity 0.0772023957690639 -0.2360350502997707 0.1390768197174674
atom 20.4001670605549137 0.2234049100266120 11.7648282797711037 Zr
    velocity 0.0159087231756486 -0.2607560018370869 -0.2352417357131210
atom -0.3718329394450799 5.4604049100266119 11.7648282797711037 Zr
    velocity 0.2877702658517927 0.0257364867984950 -0.6891232297904956
atom 4.8211670605549193 5.4604049100266119 11.7648282797711037 Zr
    velocity -0.0753245220898150 -0.1113857038062606 0.2506320404257237
atom 10.0141670605549198 5.4604049100266119 11.7648282797711037 Zr
    velocity -0.0734898909844117 0.4881262112937808 -0.4906312994937175
atom 15.2071670605549176 5.4604049100266119 11.7648282797711037 Zr
    velocity 0.0287567664848461 -0.1497932678912163 0.0627326624824716
atom 20.4001670605549137 5.4604049100266119 11.7648282797711037 Zr
    velocity 0.3888080731245029 0.1077158202583523 -0.1896459922354984
atom -0.3718329394450799 10.6974049100266146 11.7648282797711037 Zr
    velocity 0.4697434712893405 -0.1842815183023556 0.3413486306076354
atom 4.8211670605549193 10.6974049100266146 11.7648282797711037 Zr
    velocity -0.2959921490845193 -0.4831236829161958 0.2698308076222394
atom 10.0141670605549198 10.6974049100266146 11.7648282797711037 Zr
    velocity -0.3265897921203863 -0.4399389749347066 -0.1136927767472742
atom 15.2071670605549176 10.6974049100266146 11.7648282797711037 Zr
    velocity 0.0120095352625303 -0.4132538508459702 -0.0975175547186466
atom 20.4001670605549137 10.6974049100266146 11.7648282797711037 Zr
    velocity 0.3241409271859942 -0.0673753597846102 0.0607414616331642
atom -0.3718329394450799 15.9344049100266147 11.7648282797711037 Zr
    velocity 0.4597203071938485 -0.4737410093812068 -0.4418967887119872
atom 4.8211670605549193 15.9344049100266147 11.7648282797711037 Zr
    velocity -0.2310601687363155 -0.1135765481105964 0.2576059394747796
atom 10.0141670605549198 15.9344049100266147 11.7648282797711037 Zr
    velocity -0.0080747053995806 0.0222483297272159 -0.1727388843778409
atom 15.2071670605549176 15.9344049100266147 11.7648282797711037 Zr
    velocity 0.4846995057424200 -0.2586047041642736 -0.0718334272763503
atom 20.4001670605549137 15.9344049100266147 11.7648282797711037 Zr
    velocity -0.1998127142145251 -0.0639881178117378 0.0811132380558354
atom -0.3718329394450799 21.1714049100266166 11.7648282797711037 Zr
    velocity -0.2095912344189403 0.0054213866751654 0.2336722446667870
atom 4.8211670605549193 21.1714049100266166 11.7648282797711037 Zr
    velocity -0.4679095645634220 -0.1932357093374379 -0.1418297213313473
atom 10.0141670605549198 21.1714049100266166 11.7648282797711037 Zr
    velocity 0.0083869624340790 0.3626722961486905 -0.3527524308608802
atom 15.2071670605549176 21.1714049100266166 11.7648282797711037 Zr
    velocity 0.5544835486830889 -0.0467859574031166 0.0079094415420262
atom 20.4001670605549137 21.1714049100266166 11.7648282797711037 Zr
    velocity -0.3221203818278863 -0.1535184604064673 0.3139187903331075
atom -1.1902403912341240 0.2234049100266120 17.0882862952772037 Zr
    velocity 0.1206705851174909 -0.0517115951746522 -0.3745505774330682
atom 4.0027596087658752 0.2234049100266120 17.0882862952772037 Zr
    velocity -0.5567746102782181 0.3488516283839171 0.2067345999848435
atom 9.1957596087658757 0.2234049100266120 17.0882862952772037 Zr
    velocity -0.1289009725405549 0.3653375848206956 0.3440058940654065
atom 14.3887596087658736 0.2234049100266120 17.0882862952772037 Zr
    velocity -0.2553189198858147 0.2026285289236017 0.0447383857258512
atom 19.5817596087658714 0.2234049100266120 17.0882862952772037 Zr
    velocity 0.0577779843883247 -0.3420391313133214 -0.1501643006272224
atom -1.1902403912341240 5.4604049100266119 17.0882862952772037 Zr
    velocity -0.1725346134353503 -0.4008739210642105 0.4113141947458840
atom 4.0027596087658752 5.4604049100266119 17.0882862952772037 Zr
    velocity 0.0832826381687957 -0.0000622764379963 -0.1913969727884230
atom 9.1957596087658757 5.4604049100266119 17.0882862952772037 Zr
    velocity 0.3256868517101332 -0.2595204347341049 0.3946576234647628
atom 14.3887596087658736 5.4604049100266119 17.0882862952772037 Zr
    velocity 0.1004685851765464 0.0900943292583058 -0.1408930313068229
atom 19.5817596087658714 5.4604049100266119 17.0882862952772037 Zr
    velocity -0.1383696728428248 -0.0127721766724328 0.3539385561477471
atom -1.1902403912341240 10.6974049100266146 17.0882862952772037 Zr
    velocity 0.1330235831049202 0.2589639440658020 0.4275095385051825
atom 4.0027596087658752 10.6974049100266146 17.0882862952772037 Zr
    velocity 0.6855355737036528 -0.3257061243852841 -0.5122390656322815
atom 9.1957596087658757 10.6974049100266146 17.0882862952772037 Zr
    velocity -0.1349008294070550 0.2495931226770449 0.4901919632951354
atom 14.3887596087658736 10.6974049100266146 17.0882862952772037 Zr
    velocity 0.6979306447032283 -0.1553635384634941 0.1092322285251642
atom 19.5817596087658714 10.6974049100266146 17.0882862952772037 Zr
    velocity 0.1453808843480610 0.4815301756460098 0.6580902297940068
atom -1.1902403912341240 15.9344049100266147 17.0882862952772037 Zr
    velocity -0.0947522677866083 -0.4027413311435096 0.1203126782718478
atom 4.0027596087658752 15.9344049100266147 17.0882862952772037 Zr
    velocity 0.3478794516868197 -0.1277939323950797 -0.2360217024731035
atom 9.1957596087658757 15.9344049100266147 17.0882862952772037 Zr
    velocity 0.1496215218419188 0.4431471661481739 0.4272457279440381
atom 14.3887596087658736 15.9344049100266147 17.0882862952772037 Zr
    velocity -0.2443315164816515 0.2035417425239438 0.0560237924171398
atom 19.5817596087658714 15.9344049100266147 17.0882862952772037 Zr
    velocity -0.0544735982199166 -0.2875972997480395 0.2388605828826300
atom -1.1902403912341240 21.1714049100266166 17.0882862952772037 Zr
    velocity 0.3380074467916688 0.2576388585257991 -0.0624514930724259
atom 4.0027596087658752 21.1714049100266166 17.0882862952772037 Zr
    velocity 0.1153724171361957 0.1046014056761084 -0.0834744563924713
atom 9.1957596087658757 21.1714049100266166 17.0882862952772037 Zr
    velocity -0.5154581693938701 0.1564743202814949 -0.0078819749022016
atom 14.3887596087658736 21.1714049100266166 17.0882862952772037 Zr
    velocity -0.4191915123838482 -0.3570675459089675 -0.2172867905003502
atom 19.5817596087658714 21.1714049100266166 17.0882862952772037 Zr
    velocity 0.1299681640208205 -0.0614007379667133 -0.0090675310686012
atom -2.0086478430231680 0.2234049100266120 22.4117443107833090 Zr
    velocity -0.2129117602868555 -0.3161830467028543 0.0114910578336382
atom 3.1843521569768312 0.2234049100266120 22.4117443107833090 Zr
    velocity -0.5401591464659161 -0.2018964225076621 0.1269038301216701
atom 8.3773521569768317 0.2234049100266120 22.4117443107833090 Zr
    velocity -0.4565430339727096 -0.3380151070477346 -0.0461436990494540
atom 13.5703521569768295 0.2234049100266120 22.4117443107833090 Zr
    velocity 0.4277667069436669 0.7684898032520884 -0.0019185778865570
atom 18.7633521569768291 0.2234049100266120 22.4117443107833090 Zr
    velocity -0.1011941523416810 0.1183724172830816 0.3671254194039305
atom -2.0086478430231680 5.4604049100266119 22.4117443107833090 Zr
    velocity 0.2465374233252776 -0.0209784849995824 0.1001561827114338
atom 3.1843521569768312 5.4604049100266119 22.4117443107833090 Zr
    velocity -0.8331335893504010 -0.0043404782102205 -0.0251158981457414
atom 8.3773521569768317 5.4604049100266119 22.4117443107833090 Zr
    velocity 0.0367717564510107 -0.2532435792215377 0.1098005303283568
atom 13.5703521569768295 5.4604049100266119 22.4117443107833090 Zr
    velocity -0.0774418763753048 0.1640873877525691 0.3495154934060915
atom 18.7633521569768291 5.4604049100266119 22.4117443107833090 Zr
    velocity 0.3014029522983248 -0.3032237209740758 -0.1701288750882893
atom -2.0086478430231680 10.6974049100266146 22.4117443107833090 Zr
    velocity -0.2342785256930708 0.2593769837234166 -0.5955021020632681
atom 3.1843521569768312 10.6974049100266146 22.4117443107833090 Zr
    velocity 0.0855265146699327 0.1954717277913400 0.2823944262060599
atom 8.3773521569768317 10.6974049100266146 22.4117443107833090 Zr
    velocity -0.3095097301388458 -0.0772087482994549 -0.2734284947664458
atom 13.5703521569768295 10.6974049100266146 22.4117443107833090 Zr
    velocity 0.5005949292339013 0.6664245644610507 -0.0319749732753217
atom 18.7633521569768291 10.6974049100266146 22.4117443107833090 Zr
    velocity -0.0242218262425824 0.0878754385122143 0.3029377795631926
atom -2.0086478430231680 15.9344049100266147 22.4117443107833090 Zr
    velocity 0.0278142402749519 -0.3710551062395422 0.1328633630748384
atom 3.1843521569768312 15.9344049100266147 22.4117443107833090 Zr
    velocity -0.2318410104214660 -0.1654646240869548 0.4673301704608971
atom 8.3773521569768317 15.9344049100266147 22.4117443107833090 Zr
    velocity -0.3964437414601782 0.2559861901176013 0.5298596386431469
atom 13.5703521569768295 15.9344049100266147 22.4117443107833090 Zr
    velocity -0.6825786185580928 0.4299564995255860 -0.6524994891919426
atom 18.7633521569768291 15.9344049100266147 22.4117443107833090 Zr
    velocity 0.0589595873581103 -0.3738269748089614 -0.3316261840670419
atom -2.0086478430231680 21.1714049100266166 22.4117443107833090 Zr
    velocity -0.5329433644862038 -0.4916934280896214 0.3014246156226528
atom 3.1843521569768312 21.1714049100266166 22.4117443107833090 Zr
    velocity 0.6694442413952888 -0.1697862898886448 -0.1515297082123268
atom 8.3773521569768317 21.1714049100266166 22.4117443107833090 Zr
    velocity 0.5615915810680149 0.5210249457136271 -0.3948950282660552
atom 13.5703521569768295 21.1714049100266166 22.4117443107833090 Zr
    velocity 0.1123010367700295 0.2404687880044474 0.3975271392154488
atom 18.7633521569768291 21.1714049100266166 22.4117443107833090 Zr
    velocity -0.0717798864437008 0.2317692692567528 0.3551032130816759
atom 3.1096102766192431 5.0135950899733883 4.2055458412756126 Zr
    velocity -0.0513228520796534 0.2288266215990648 -0.0104560819742013
atom 8.3026102766192427 5.0135950899733883 4.2055458412756126 Zr
    velocity -0.3323012677172272 -0.3155060682444888 -0.1711767853046065
atom 13.4956102766192405 5.0135950899733883 4.2055458412756126 Zr
    velocity 0.1042796913580187 0.5618125518938033 -0.2407055872371672
atom 18.6886102766192437 5.0135950899733883 4.2055458412756126 Zr
    velocity 0.0244583451804558 0.2972676304487992 -0.0742222132016573
atom 23.8816102766192415 5.0135950899733883 4.2055458412756126 Zr
    velocity 0.1083149839750436 -0.3089237883930505 0.0630714589432230
atom 3.1096102766192431 10.2505950899733893 4.2055458412756126 Zr
    velocity -0.0147484520947149 0.1942586234230481 0.2162332612190422
atom 8.3026102766192427 10.2505950899733893 4.2055458412756126 Zr
    velocity -0.1708342382160883 0.0923083111654930 -0.2034759671405148
atom 13.4956102766192405 10.2505950899733893 4.2055458412756126 Zr
    velocity 0.4194091448799803 -0.3721099715655323 -0.0551097470570319
atom 18.6886102766192437 10.2505950899733893 4.2055458412756126 Zr
    velocity -0.1415820557068823 0.0967302295682081 0.1400082923922216
atom 23.8816102766192415 10.2505950899733893 4.2055458412756126 Zr
    velocity 0.0904654567570653 -0.2319279220941239 0.6054552584691617
atom 3.1096102766192431 15.4875950899733894 4.2055458412756126 Zr
    velocity -0.0821803650779380 -0.8208528863455669 -0.3125321211344332
atom 8.3026102766192427 15.4875950899733894 4.2055458412756126 Zr
    velocity 0.0997071999152292 -0.1501754278118478 0.6074514570956967
atom 13.4956102766192405 15.4875950899733894 4.2055458412756126 Zr
    velocity -0.1131807330500490 0.0867198235079418 0.5316394775968029
atom 18.6886102766192437 15.4875950899733894 4.2055458412756126 Zr
    velocity 0.1881540820792762 -0.2655154228006753 0.0470353489532591
atom 23.8816102766192415 15.4875950899733894 4.2055458412756126 Zr
    velocity -0.1692318137780741 -0.4168364937248346 0.2124491293291787
atom 3.1096102766192431 20.7245950899733877 4.2055458412756126 Zr
    velocity 0.4535681837898999 0.3341713633565000 -0.1376390130877833
atom 8.3026102766192427 20.7245950899733877 4.2055458412756126 Zr
    velocity -0.0295348294399589 0.0076195394578840 0.0628164315268670
atom 13.4956102766192405 20.7245950899733877 4.2055458412756126 Zr
    velocity -0.6613575446687480 0.3386664254248835 -0.0971429558757851
atom 18.6886102766192437 20.7245950899733877 4.2055458412756126 Zr
    velocity 0.1287447979194928 0.4282760628123034 -0.2048290246349368
atom 23.8816102766192415 20.7245950899733877 4.2055458412756126 Zr
    velocity -0.2229484908411212 -0.1836096436863704 -0.3020137720213298
atom 3.1096102766192431 25.9615950899733932 4.2055458412756126 Zr
    velocity -0.0691015902602627 -0.6771225585505395 -0.0925768268391501
atom 8.3026102766192427 25.9615950899733932 4.2055458412756126 Zr
    velocity 0.7788493854861945 -0.0384166435387207 -0.4717700789825539
atom 13.4956102766192405 25.9615950899733932 4.2055458412756126 Zr
    velocity -0.2990970711003976 -0.0839745791124408 -0.1665819191908706
atom 18.6886102766192437 25.9615950899733932 4.2055458412756126 Zr
    velocity 0.2037266260959378 -0.1306150207614959 -0.5233999475259584
atom 23.8816102766192415 25.9615950899733932 4.2055458412756126 Zr
    velocity 0.1587514378984769 -0.2076784896479933 -0.1500953429891322
atom 2.2912028248301985 5.0135950899733883 9.5290038567817170 Zr
    velocity 0.2801959627965711 -0.5355871246604792 0.5850355886720859
atom 7.4842028248301977 5.0135950899733883 9.5290038567817170 Zr
    velocity -0.1491269495010439 0.1327461651036577 -0.1268774417579153
atom 12.6772028248301964 5.0135950899733883 9.5290038567817170 Zr
    velocity 0.1184073565884082 -0.4587556247990124 -0.2307459517178063
atom 17.8702028248301978 5.0135950899733883 9.5290038567817170 Zr
    velocity -0.1804088489957227 -0.1041044266044894 -0.4917284231796180
atom 23.0632028248301957 5.0135950899733883 9.5290038567817170 Zr
    velocity -0.1142886818032193 -0.1591647268454884 -0.0284833540035560
atom 2.2912028248301985 10.2505950899733893 9.5290038567817170 Zr
    velocity -0.3651924417327417 0.1357213247742788 0.0710679068869270
atom 7.4842028248301977 10.2505950899733893 9.5290038567817170 Zr
    velocity 0.4308103485868861 0.4161053418330710 -0.1504392666580592
atom 12.6772028248301964 10.2505950899733893 9.5290038567817170 Zr
    velocity 0.0816854800534020 0.0209771537312706 -0.1406458483915962
atom 17.8702028248301978 10.2505950899733893 9.5290038567817170 Zr
    velocity 0.0085730739048054 0.3069297348917432 -0.3721978042273037
atom 23.0632028248301957 10.2505950899733893 9.5290038567817170 Zr
    velocity -0.5013193754968817 -0.0391307160808102 0.1380356539217092
atom 2.2912028248301985 15.4875950899733894 9.5290038567817170 Zr
    velocity 0.5606748387205102 -0.3391682056212854 -0.2329308828660336
atom 7.4842028248301977 15.4875950899733894 9.5290038567817170 Zr
    velocity 0.1619524389019804 -0.3281853684228516 -0.1106573638018413
atom 12.6772028248301964 15.4875950899733894 9.5290038567817170 Zr
    velocity -0.0803403925587559 0.1293821788938850 0.3553135163560496
atom 17.8702028248301978 15.4875950899733894 9.5290038567817170 Zr
    velocity 0.1808709415048717 0.2815354254767394 -0.5941502002085933
atom 23.0632028248301957 15.4875950899733894 9.5290038567817170 Zr
    velocity -0.0069061109823900 0.7373118676788707 0.1541987793667187
atom 2.2912028248301985 20.7245950899733877 9.5290038567817170 Zr
    velocity 0.2328624716266781 -0.1938952457279233 0.3262226731537378
atom 7.4842028248301977 20.7245950899733877 9.5290038567817170 Zr
    velocity 0.2105128078386528 -0.1819032867537866 -0.2814628059224121
atom 12.6772028248301964 20.7245950899733877 9.5290038567817170 Zr
    velocity -0.3825104553104188 0.4151051852910359 0.4000858573415287
atom 17.8702028248301978 20.7245950899733877 9.5290038567817170 Zr
    velocity 0.1736598618557545 0.4138272606180202 0.0220599801635929
atom 23.0632028248301957 20.7245950899733877 9.5290038567817170 Zr
    velocity 0.0153772028227505 0.6255648751518295 0.3750178801919870
atom 2.2912028248301985 25.9615950899733932 9.5290038567817170 Zr
    velocity 0.0514028760418992 -0.1983019823258684 0.1124894721284528
atom 7.4842028248301977 25.9615950899733932 9.5290038567817170 Zr
    velocity -0.6228523608718847 0.1740337693115932 0.2376558777355199
atom 12.6772028248301964 25.9615950899733932 9.5290038567817170 Zr
    velocity 0.0091279343109254 0.6484340261667176 -0.0379746428303467
atom 17.8702028248301978 25.9615950899733932 9.5290038567817170 Zr
    velocity 0.6434499307584826 -0.0915983270334666 0.2790702971499318
atom 23.0632028248301957 25.9615950899733932 9.5290038567817170 Zr
    velocity 0.2249031468943266 -0.1716255206409270 -0.1936103425900632
atom 1.4727953730411549 5.0135950899733883 14.8524618722878170 Zr
    velocity 0.5464854003040795 0.2416924970757215 -0.1459958845889543
atom 6.6657953730411545 5.0135950899733883 14.8524618722878170 Zr
    velocity -0.1489848697302829 -0.1116089236954960 0.1755025791193691
atom 11.8587953730411524 5.0135950899733883 14.8524618722878170 Zr
    velocity -0.0497571232971389 0.0348686959075203 0.0181063467376933
atom 17.0517953730411556 5.0135950899733883 14.8524618722878170 Zr
    velocity -0.1160598286553231 0.0144761713002484 0.2390864511791402
atom 22.2447953730411534 5.0135950899733883 14.8524618722878170 Zr
    velocity -0.3605377177811615 0.2737992952150816 -0.0315126938848215
atom 1.4727953730411549 10.2505950899733893 14.8524618722878170 Zr
    velocity -0.1951086764235967 -0.3653637763593278 0.4961242872941687
atom 6.6657953730411545 10.2505950899733893 14.8524618722878170 Zr
    velocity -0.2818680514990786 0.1435731807210954 -0.1261070318986587
atom 11.8587953730411524 10.2505950899733893 14.8524618722878170 Zr
    velocity 0.3015939321924811 0.2065139226738872 0.0513685312260375
atom 17.0517953730411556 10.2505950899733893 14.8524618722878170 Zr
    velocity -0.0861979425644383 0.2741755021693688 0.3399046404967529
atom 22.2447953730411534 10.2505950899733893 14.8524618722878170 Zr
    velocity 0.4014554759318700 -0.3437561440462232 0.1233256659473614
atom 1.4727953730411549 15.4875950899733894 14.8524618722878170 Zr
    velocity 0.1919763227292806 0.1315610313891544 -0.1846743504773323
atom 6.6657953730411545 15.4875950899733894 14.8524618722878170 Zr
    velocity 0.1396959423079401 0.1798640864160563 0.4329585359040561
atom 11.8587953730411524 15.4875950899733894 14.8524618722878170 Zr
    velocity -0.0046055804533238 -0.1702492940542946 0.2257259138985126
atom 17.0517953730411556 15.4875950899733894 14.8524618722878170 Zr
    velocity 0.3233690359734421 -0.1975718219889576 0.4042038944506089
atom 22.2447953730411534 15.4875950899733894 14.8524618722878170 Zr
    velocity -0.1324064005028829 -0.5235728933468488 0.4073713065830190
atom 1.4727953730411549 20.7245950899733877 14.8524618722878170 Zr
    velocity -0.0929028558859121 -0.0549837431281823 0.2119621779024311
atom 6.6657953730411545 20.7245950899733877 14.8524618722878170 Zr
    velocity -0.1371832931903352 0.2444772352547416 0.0999480255797972
atom 11.8587953730411524 20.7245950899733877 14.8524618722878170 Zr
    velocity -0.0907844858553419 0.2424243294233533 0.5817747260332146
atom 17.0517953730411556 20.7245950899733877 14.8524618722878170 Zr
    velocity -0.0651955434673998 0.6081438229889895 0.0267728742571030
atom 22.2447953730411534 20.7245950899733877 14.8524618722878170 Zr
    velocity -0.2409971190979154 0.0644310083967512 -0.0496117986810359
atom 1.4727953730411549 25.9615950899733932 14.8524618722878170 Zr
    velocity 0.1909602989286199 -0.2254416242683259 0.0344757429010652
atom 6.6657953730411545 25.9615950899733932 14.8524618722878170 Zr
    velocity -0.2547759242363171 0.1754749037904643 -0.0280278519419136
atom 11.8587953730411524 25.9615950899733932 14.8524618722878170 Zr
    velocity 0.2681277390913457 -0.4441538269880002 -0.2284725654075118
atom 17.0517953730411556 25.9615950899733932 14.8524618722878170 Zr
    velocity 0.5960734095928973 0.5052630588308559 -0.0325544588181351
atom 22.2447953730411534 25.9615950899733932 14.8524618722878170 Zr
    velocity -0.0332186609974942 0.1803067675527029 -0.3208837513348199
atom 0.6543879212521106 5.0135950899733883 20.1759198877939205 Zr
    velocity -0.1755979698761027 -0.1909897508250038 0.3928064925733915
atom 5.8473879212521096 5.0135950899733883 20.1759198877939205 Zr
    velocity -0.2659084729437445 0.1475241603629314 0.0737299860555184
atom 11.0403879212521083 5.0135950899733883 20.1759198877939205 Zr
    velocity -0.2397814063267242 0.2077357309592980 -0.3463409485987036
atom 16.2333879212521097 5.0135950899733883 20.1759198877939205 Zr
    velocity -0.0679936434667284 0.3582545404643598 -1.0513734262376717
atom 21.4263879212521076 5.0135950899733883 20.1759198877939205 Zr
    velocity -0.2003750294808474 0.4350144398096459 0.4811732453519286
atom 0.6543879212521106 10.2505950899733893 20.1759198877939205 Zr
    velocity -0.2682479663742460 -0.3679598000568119 -0.7409064100706318
atom 5.8473879212521096 10.2505950899733893 20.1759198877939205 Zr
    velocity 0.6971582977342997 -0.2959750130921922 -0.3648695407598680
atom 11.0403879212521083 10.2505950899733893 20.1759198877939205 Zr
    velocity -0.0006550787309764 -0.5096502906587471 -0.1984420391019744
atom 16.2333879212521097 10.2505950899733893 20.1759198877939205 Zr
    velocity 0.0370436160518629 0.0986307687944222 0.0121105763884646
atom 21.4263879212521076 10.2505950899733893 20.1759198877939205 Zr
    velocity 0.3621722441172480 0.0944154290833155 -0.3371705930717593
atom 0.6543879212521106 15.4875950899733894 20.1759198877939205 Zr
    velocity 0.1006830157519744 -0.0550118064769356 -0.8296587186924415
atom 5.8473879212521096 15.4875950899733894 20.1759198877939205 Zr