# initial guess
lattice_vector      2.53788614      2.53788614      0.00000000
lattice_vector     -2.53788614      2.53788614      0.00000000
lattice_vector      0.00000000      0.00000000      5.18678806
atom_frac       0.00000000     -0.00000000     -0.00000000 Zr
atom_frac       0.50000000      0.50000000      0.50000000 Zr
atom_frac       0.50000000      0.00000000      0.20233958 O
atom_frac       0.50000000      0.00000000      0.70233958 O
atom_frac       0.00000000      0.50000000      0.29766042 O
atom_frac       0.00000000      0.50000000      0.79766042 O
