#=======================================================
# FHI-aims file: 1400_geometry.in.primitive.supercell_768
# Created using the Atomic Simulation Environment (ASE)
# Wed Jan 11 12:37:55 2023

# Additional information:
#  Number of atoms:     768
#  Spacegroup:          137
#  supercell:           True
#  supercell_matrix:    [4, 0, 0, 0, 4, 0, 0, 0, 4]
#  Supercell matrix:    [4 0 0 0 4 0 0 0 4]
#=======================================================
lattice_vector 20.5967032967032999 0.0000000000000000 0.0000000000000000 
lattice_vector 0.0000000000000000 20.5967032967032999 0.0000000000000000 
lattice_vector 0.0000000000000000 0.0000000000000000 21.1109890109890124 
atom_frac 0.1250000000000000 0.0000000000000000 0.0000000000000000 Zr
atom_frac 0.3750000000000000 0.0000000000000000 0.0000000000000000 Zr
atom_frac 0.6250000000000000 0.0000000000000000 0.0000000000000000 Zr
atom_frac 0.8749999999999999 0.0000000000000000 0.0000000000000000 Zr
atom_frac 0.1250000000000000 0.2500000000000000 0.0000000000000000 Zr
atom_frac 0.3750000000000000 0.2500000000000000 0.0000000000000000 Zr
atom_frac 0.6250000000000000 0.2500000000000000 0.0000000000000000 Zr
atom_frac 0.8749999999999999 0.2500000000000000 0.0000000000000000 Zr
atom_frac 0.1250000000000000 0.5000000000000000 0.0000000000000000 Zr
atom_frac 0.3750000000000000 0.5000000000000000 0.0000000000000000 Zr
atom_frac 0.6250000000000000 0.5000000000000000 0.0000000000000000 Zr
atom_frac 0.8749999999999999 0.5000000000000000 0.0000000000000000 Zr
atom_frac 0.1250000000000000 0.7500000000000000 0.0000000000000000 Zr
atom_frac 0.3750000000000000 0.7500000000000000 0.0000000000000000 Zr
atom_frac 0.6250000000000000 0.7500000000000000 0.0000000000000000 Zr
atom_frac 0.8749999999999999 0.7500000000000000 0.0000000000000000 Zr
atom_frac 0.1250000000000000 0.0000000000000000 0.2500000000000000 Zr
atom_frac 0.3750000000000000 0.0000000000000000 0.2500000000000000 Zr
atom_frac 0.6250000000000000 0.0000000000000000 0.2500000000000000 Zr
atom_frac 0.8749999999999999 0.0000000000000000 0.2500000000000000 Zr
atom_frac 0.1250000000000000 0.2500000000000000 0.2500000000000000 Zr
atom_frac 0.3750000000000000 0.2500000000000000 0.2500000000000000 Zr
atom_frac 0.6250000000000000 0.2500000000000000 0.2500000000000000 Zr
atom_frac 0.8749999999999999 0.2500000000000000 0.2500000000000000 Zr
atom_frac 0.1250000000000000 0.5000000000000000 0.2500000000000000 Zr
atom_frac 0.3750000000000000 0.5000000000000000 0.2500000000000000 Zr
atom_frac 0.6250000000000000 0.5000000000000000 0.2500000000000000 Zr
atom_frac 0.8749999999999999 0.5000000000000000 0.2500000000000000 Zr
atom_frac 0.1250000000000000 0.7500000000000000 0.2500000000000000 Zr
atom_frac 0.3750000000000000 0.7500000000000000 0.2500000000000000 Zr
atom_frac 0.6250000000000000 0.7500000000000000 0.2500000000000000 Zr
atom_frac 0.8749999999999999 0.7500000000000000 0.2500000000000000 Zr
atom_frac 0.1250000000000000 0.0000000000000000 0.5000000000000000 Zr
atom_frac 0.3750000000000000 0.0000000000000000 0.5000000000000000 Zr
atom_frac 0.6250000000000000 0.0000000000000000 0.5000000000000000 Zr
atom_frac 0.8749999999999999 0.0000000000000000 0.5000000000000000 Zr
atom_frac 0.1250000000000000 0.2500000000000000 0.5000000000000000 Zr
atom_frac 0.3750000000000000 0.2500000000000000 0.5000000000000000 Zr
atom_frac 0.6250000000000000 0.2500000000000000 0.5000000000000000 Zr
atom_frac 0.8749999999999999 0.2500000000000000 0.5000000000000000 Zr
atom_frac 0.1250000000000000 0.5000000000000000 0.5000000000000000 Zr
atom_frac 0.3750000000000000 0.5000000000000000 0.5000000000000000 Zr
atom_frac 0.6250000000000000 0.5000000000000000 0.5000000000000000 Zr
atom_frac 0.8749999999999999 0.5000000000000000 0.5000000000000000 Zr
atom_frac 0.1250000000000000 0.7500000000000000 0.5000000000000000 Zr
atom_frac 0.3750000000000000 0.7500000000000000 0.5000000000000000 Zr
atom_frac 0.6250000000000000 0.7500000000000000 0.5000000000000000 Zr
atom_frac 0.8749999999999999 0.7500000000000000 0.5000000000000000 Zr
atom_frac 0.1250000000000000 0.0000000000000000 0.7499999999999999 Zr
atom_frac 0.3750000000000000 0.0000000000000000 0.7499999999999999 Zr
atom_frac 0.6250000000000000 0.0000000000000000 0.7499999999999999 Zr
atom_frac 0.8749999999999999 0.0000000000000000 0.7499999999999999 Zr
atom_frac 0.1250000000000000 0.2500000000000000 0.7499999999999999 Zr
atom_frac 0.3750000000000000 0.2500000000000000 0.7499999999999999 Zr
atom_frac 0.6250000000000000 0.2500000000000000 0.7499999999999999 Zr
atom_frac 0.8749999999999999 0.2500000000000000 0.7499999999999999 Zr
atom_frac 0.1250000000000000 0.5000000000000000 0.7499999999999999 Zr
atom_frac 0.3750000000000000 0.5000000000000000 0.7499999999999999 Zr
atom_frac 0.6250000000000000 0.5000000000000000 0.7499999999999999 Zr
atom_frac 0.8749999999999999 0.5000000000000000 0.7499999999999999 Zr
atom_frac 0.1250000000000000 0.7500000000000000 0.7499999999999999 Zr
atom_frac 0.3750000000000000 0.7500000000000000 0.7499999999999999 Zr
atom_frac 0.6250000000000000 0.7500000000000000 0.7499999999999999 Zr
atom_frac 0.8749999999999999 0.7500000000000000 0.7499999999999999 Zr
atom_frac 0.0000000000000000 0.1250000000000000 0.0000000000000000 Zr
atom_frac 0.2500000000000000 0.1250000000000000 0.0000000000000000 Zr
atom_frac 0.5000000000000000 0.1250000000000000 0.0000000000000000 Zr
atom_frac 0.7500000000000000 0.1250000000000000 0.0000000000000000 Zr
atom_frac 0.0000000000000000 0.3750000000000000 0.0000000000000000 Zr
atom_frac 0.2500000000000000 0.3750000000000000 0.0000000000000000 Zr
atom_frac 0.5000000000000000 0.3750000000000000 0.0000000000000000 Zr
atom_frac 0.7500000000000000 0.3750000000000000 0.0000000000000000 Zr
atom_frac 0.0000000000000000 0.6250000000000000 0.0000000000000000 Zr
atom_frac 0.2500000000000000 0.6250000000000000 0.0000000000000000 Zr
atom_frac 0.5000000000000000 0.6250000000000000 0.0000000000000000 Zr
atom_frac 0.7500000000000000 0.6250000000000000 0.0000000000000000 Zr
atom_frac 0.0000000000000000 0.8749999999999999 0.0000000000000000 Zr
atom_frac 0.2500000000000000 0.8749999999999999 0.0000000000000000 Zr
atom_frac 0.5000000000000000 0.8749999999999999 0.0000000000000000 Zr
atom_frac 0.7500000000000000 0.8749999999999999 0.0000000000000000 Zr
atom_frac 0.0000000000000000 0.1250000000000000 0.2500000000000000 Zr
atom_frac 0.2500000000000000 0.1250000000000000 0.2500000000000000 Zr
atom_frac 0.5000000000000000 0.1250000000000000 0.2500000000000000 Zr
atom_frac 0.7500000000000000 0.1250000000000000 0.2500000000000000 Zr
atom_frac 0.0000000000000000 0.3750000000000000 0.2500000000000000 Zr
atom_frac 0.2500000000000000 0.3750000000000000 0.2500000000000000 Zr
atom_frac 0.5000000000000000 0.3750000000000000 0.2500000000000000 Zr
atom_frac 0.7500000000000000 0.3750000000000000 0.2500000000000000 Zr
atom_frac 0.0000000000000000 0.6250000000000000 0.2500000000000000 Zr
atom_frac 0.2500000000000000 0.6250000000000000 0.2500000000000000 Zr
atom_frac 0.5000000000000000 0.6250000000000000 0.2500000000000000 Zr
atom_frac 0.7500000000000000 0.6250000000000000 0.2500000000000000 Zr
atom_frac 0.0000000000000000 0.8749999999999999 0.2500000000000000 Zr
atom_frac 0.2500000000000000 0.8749999999999999 0.2500000000000000 Zr
atom_frac 0.5000000000000000 0.8749999999999999 0.2500000000000000 Zr
atom_frac 0.7500000000000000 0.8749999999999999 0.2500000000000000 Zr
atom_frac 0.0000000000000000 0.1250000000000000 0.5000000000000000 Zr
atom_frac 0.2500000000000000 0.1250000000000000 0.5000000000000000 Zr
atom_frac 0.5000000000000000 0.1250000000000000 0.5000000000000000 Zr
atom_frac 0.7500000000000000 0.1250000000000000 0.5000000000000000 Zr
atom_frac 0.0000000000000000 0.3750000000000000 0.5000000000000000 Zr
atom_frac 0.2500000000000000 0.3750000000000000 0.5000000000000000 Zr
atom_frac 0.5000000000000000 0.3750000000000000 0.5000000000000000 Zr
atom_frac 0.7500000000000000 0.3750000000000000 0.5000000000000000 Zr
atom_frac 0.0000000000000000 0.6250000000000000 0.5000000000000000 Zr
atom_frac 0.2500000000000000 0.6250000000000000 0.5000000000000000 Zr
atom_frac 0.5000000000000000 0.6250000000000000 0.5000000000000000 Zr
atom_frac 0.7500000000000000 0.6250000000000000 0.5000000000000000 Zr
atom_frac 0.0000000000000000 0.8749999999999999 0.5000000000000000 Zr
atom_frac 0.2500000000000000 0.8749999999999999 0.5000000000000000 Zr
atom_frac 0.5000000000000000 0.8749999999999999 0.5000000000000000 Zr
atom_frac 0.7500000000000000 0.8749999999999999 0.5000000000000000 Zr
atom_frac 0.0000000000000000 0.1250000000000000 0.7499999999999999 Zr
atom_frac 0.2500000000000000 0.1250000000000000 0.7499999999999999 Zr
atom_frac 0.5000000000000000 0.1250000000000000 0.7499999999999999 Zr
atom_frac 0.7500000000000000 0.1250000000000000 0.7499999999999999 Zr
atom_frac 0.0000000000000000 0.3750000000000000 0.7499999999999999 Zr
atom_frac 0.2500000000000000 0.3750000000000000 0.7499999999999999 Zr
atom_frac 0.5000000000000000 0.3750000000000000 0.7499999999999999 Zr
atom_frac 0.7500000000000000 0.3750000000000000 0.7499999999999999 Zr
atom_frac 0.0000000000000000 0.6250000000000000 0.7499999999999999 Zr
atom_frac 0.2500000000000000 0.6250000000000000 0.7499999999999999 Zr
atom_frac 0.5000000000000000 0.6250000000000000 0.7499999999999999 Zr
atom_frac 0.7500000000000000 0.6250000000000000 0.7499999999999999 Zr
atom_frac 0.0000000000000000 0.8749999999999999 0.7499999999999999 Zr
atom_frac 0.2500000000000000 0.8749999999999999 0.7499999999999999 Zr
atom_frac 0.5000000000000000 0.8749999999999999 0.7499999999999999 Zr
atom_frac 0.7500000000000000 0.8749999999999999 0.7499999999999999 Zr
atom_frac 0.0000000000000000 0.0000000000000000 0.1250000000000000 Zr
atom_frac 0.2500000000000000 0.0000000000000000 0.1250000000000000 Zr
atom_frac 0.5000000000000000 0.0000000000000000 0.1250000000000000 Zr
atom_frac 0.7500000000000000 0.0000000000000000 0.1250000000000000 Zr
atom_frac 0.0000000000000000 0.2500000000000000 0.1250000000000000 Zr
atom_frac 0.2500000000000000 0.2500000000000000 0.1250000000000000 Zr
atom_frac 0.5000000000000000 0.2500000000000000 0.1250000000000000 Zr
atom_frac 0.7500000000000000 0.2500000000000000 0.1250000000000000 Zr
atom_frac 0.0000000000000000 0.5000000000000000 0.1250000000000000 Zr
atom_frac 0.2500000000000000 0.5000000000000000 0.1250000000000000 Zr
atom_frac 0.5000000000000000 0.5000000000000000 0.1250000000000000 Zr
atom_frac 0.7500000000000000 0.5000000000000000 0.1250000000000000 Zr
atom_frac 0.0000000000000000 0.7500000000000000 0.1250000000000000 Zr
atom_frac 0.2500000000000000 0.7500000000000000 0.1250000000000000 Zr
atom_frac 0.5000000000000000 0.7500000000000000 0.1250000000000000 Zr
atom_frac 0.7500000000000000 0.7500000000000000 0.1250000000000000 Zr
atom_frac 0.0000000000000000 0.0000000000000000 0.3749999999999999 Zr
atom_frac 0.2500000000000000 0.0000000000000000 0.3749999999999999 Zr
atom_frac 0.5000000000000000 0.0000000000000000 0.3749999999999999 Zr
atom_frac 0.7500000000000000 0.0000000000000000 0.3749999999999999 Zr
atom_frac 0.0000000000000000 0.2500000000000000 0.3749999999999999 Zr
atom_frac 0.2500000000000000 0.2500000000000000 0.3749999999999999 Zr
atom_frac 0.5000000000000000 0.2500000000000000 0.3749999999999999 Zr
atom_frac 0.7500000000000000 0.2500000000000000 0.3749999999999999 Zr
atom_frac 0.0000000000000000 0.5000000000000000 0.3749999999999999 Zr
atom_frac 0.2500000000000000 0.5000000000000000 0.3749999999999999 Zr
atom_frac 0.5000000000000000 0.5000000000000000 0.3749999999999999 Zr
atom_frac 0.7500000000000000 0.5000000000000000 0.3749999999999999 Zr
atom_frac 0.0000000000000000 0.7500000000000000 0.3749999999999999 Zr
atom_frac 0.2500000000000000 0.7500000000000000 0.3749999999999999 Zr
atom_frac 0.5000000000000000 0.7500000000000000 0.3749999999999999 Zr
atom_frac 0.7500000000000000 0.7500000000000000 0.3749999999999999 Zr
atom_frac 0.0000000000000000 0.0000000000000000 0.6250000000000000 Zr
atom_frac 0.2500000000000000 0.0000000000000000 0.6250000000000000 Zr
atom_frac 0.5000000000000000 0.0000000000000000 0.6250000000000000 Zr
atom_frac 0.7500000000000000 0.0000000000000000 0.6250000000000000 Zr
atom_frac 0.0000000000000000 0.2500000000000000 0.6250000000000000 Zr
atom_frac 0.2500000000000000 0.2500000000000000 0.6250000000000000 Zr
atom_frac 0.5000000000000000 0.2500000000000000 0.6250000000000000 Zr
atom_frac 0.7500000000000000 0.2500000000000000 0.6250000000000000 Zr
atom_frac 0.0000000000000000 0.5000000000000000 0.6250000000000000 Zr
atom_frac 0.2500000000000000 0.5000000000000000 0.6250000000000000 Zr
atom_frac 0.5000000000000000 0.5000000000000000 0.6250000000000000 Zr
atom_frac 0.7500000000000000 0.5000000000000000 0.6250000000000000 Zr
atom_frac 0.0000000000000000 0.7500000000000000 0.6250000000000000 Zr
atom_frac 0.2500000000000000 0.7500000000000000 0.6250000000000000 Zr
atom_frac 0.5000000000000000 0.7500000000000000 0.6250000000000000 Zr
atom_frac 0.7500000000000000 0.7500000000000000 0.6250000000000000 Zr
atom_frac 0.0000000000000000 0.0000000000000000 0.8750000000000000 Zr
atom_frac 0.2500000000000000 0.0000000000000000 0.8750000000000000 Zr
atom_frac 0.5000000000000000 0.0000000000000000 0.8750000000000000 Zr
atom_frac 0.7500000000000000 0.0000000000000000 0.8750000000000000 Zr
atom_frac 0.0000000000000000 0.2500000000000000 0.8750000000000000 Zr
atom_frac 0.2500000000000000 0.2500000000000000 0.8750000000000000 Zr
atom_frac 0.5000000000000000 0.2500000000000000 0.8750000000000000 Zr
atom_frac 0.7500000000000000 0.2500000000000000 0.8750000000000000 Zr
atom_frac 0.0000000000000000 0.5000000000000000 0.8750000000000000 Zr
atom_frac 0.2500000000000000 0.5000000000000000 0.8750000000000000 Zr
atom_frac 0.5000000000000000 0.5000000000000000 0.8750000000000000 Zr
atom_frac 0.7500000000000000 0.5000000000000000 0.8750000000000000 Zr
atom_frac 0.0000000000000000 0.7500000000000000 0.8750000000000000 Zr
atom_frac 0.2500000000000000 0.7500000000000000 0.8750000000000000 Zr
atom_frac 0.5000000000000000 0.7500000000000000 0.8750000000000000 Zr
atom_frac 0.7500000000000000 0.7500000000000000 0.8750000000000000 Zr
atom_frac 0.1250000000000000 0.1250000000000000 0.1250000000000000 Zr
atom_frac 0.3750000000000000 0.1250000000000000 0.1250000000000000 Zr
atom_frac 0.6250000000000000 0.1250000000000000 0.1250000000000000 Zr
atom_frac 0.8749999999999999 0.1250000000000000 0.1250000000000000 Zr
atom_frac 0.1250000000000000 0.3750000000000000 0.1250000000000000 Zr
atom_frac 0.3750000000000000 0.3750000000000000 0.1250000000000000 Zr
atom_frac 0.6250000000000000 0.3750000000000000 0.1250000000000000 Zr
atom_frac 0.8749999999999999 0.3750000000000000 0.1250000000000000 Zr
atom_frac 0.1250000000000000 0.6250000000000000 0.1250000000000000 Zr
atom_frac 0.3750000000000000 0.6250000000000000 0.1250000000000000 Zr
atom_frac 0.6250000000000000 0.6250000000000000 0.1250000000000000 Zr
atom_frac 0.8749999999999999 0.6250000000000000 0.1250000000000000 Zr
atom_frac 0.1250000000000000 0.8749999999999999 0.1250000000000000 Zr
atom_frac 0.3750000000000000 0.8749999999999999 0.1250000000000000 Zr
atom_frac 0.6250000000000000 0.8749999999999999 0.1250000000000000 Zr
atom_frac 0.8749999999999999 0.8749999999999999 0.1250000000000000 Zr
atom_frac 0.1250000000000000 0.1250000000000000 0.3749999999999999 Zr
atom_frac 0.3750000000000000 0.1250000000000000 0.3749999999999999 Zr
atom_frac 0.6250000000000000 0.1250000000000000 0.3749999999999999 Zr
atom_frac 0.8749999999999999 0.1250000000000000 0.3749999999999999 Zr
atom_frac 0.1250000000000000 0.3750000000000000 0.3749999999999999 Zr
atom_frac 0.3750000000000000 0.3750000000000000 0.3749999999999999 Zr
atom_frac 0.6250000000000000 0.3750000000000000 0.3749999999999999 Zr
atom_frac 0.8749999999999999 0.3750000000000000 0.3749999999999999 Zr
atom_frac 0.1250000000000000 0.6250000000000000 0.3749999999999999 Zr
atom_frac 0.3750000000000000 0.6250000000000000 0.3749999999999999 Zr
atom_frac 0.6250000000000000 0.6250000000000000 0.3749999999999999 Zr
atom_frac 0.8749999999999999 0.6250000000000000 0.3749999999999999 Zr
atom_frac 0.1250000000000000 0.8749999999999999 0.3749999999999999 Zr
atom_frac 0.3750000000000000 0.8749999999999999 0.3749999999999999 Zr
atom_frac 0.6250000000000000 0.8749999999999999 0.3749999999999999 Zr
atom_frac 0.8749999999999999 0.8749999999999999 0.3749999999999999 Zr
atom_frac 0.1250000000000000 0.1250000000000000 0.6250000000000000 Zr
atom_frac 0.3750000000000000 0.1250000000000000 0.6250000000000000 Zr
atom_frac 0.6250000000000000 0.1250000000000000 0.6250000000000000 Zr
atom_frac 0.8749999999999999 0.1250000000000000 0.6250000000000000 Zr
atom_frac 0.1250000000000000 0.3750000000000000 0.6250000000000000 Zr
atom_frac 0.3750000000000000 0.3750000000000000 0.6250000000000000 Zr
atom_frac 0.6250000000000000 0.3750000000000000 0.6250000000000000 Zr
atom_frac 0.8749999999999999 0.3750000000000000 0.6250000000000000 Zr
atom_frac 0.1250000000000000 0.6250000000000000 0.6250000000000000 Zr
atom_frac 0.3750000000000000 0.6250000000000000 0.6250000000000000 Zr
atom_frac 0.6250000000000000 0.6250000000000000 0.6250000000000000 Zr
atom_frac 0.8749999999999999 0.6250000000000000 0.6250000000000000 Zr
atom_frac 0.1250000000000000 0.8749999999999999 0.6250000000000000 Zr
atom_frac 0.3750000000000000 0.8749999999999999 0.6250000000000000 Zr
atom_frac 0.6250000000000000 0.8749999999999999 0.6250000000000000 Zr
atom_frac 0.8749999999999999 0.8749999999999999 0.6250000000000000 Zr
atom_frac 0.1250000000000000 0.1250000000000000 0.8750000000000000 Zr
atom_frac 0.3750000000000000 0.1250000000000000 0.8750000000000000 Zr
atom_frac 0.6250000000000000 0.1250000000000000 0.8750000000000000 Zr
atom_frac 0.8749999999999999 0.1250000000000000 0.8750000000000000 Zr
atom_frac 0.1250000000000000 0.3750000000000000 0.8750000000000000 Zr
atom_frac 0.3750000000000000 0.3750000000000000 0.8750000000000000 Zr
atom_frac 0.6250000000000000 0.3750000000000000 0.8750000000000000 Zr
atom_frac 0.8749999999999999 0.3750000000000000 0.8750000000000000 Zr
atom_frac 0.1250000000000000 0.6250000000000000 0.8750000000000000 Zr
atom_frac 0.3750000000000000 0.6250000000000000 0.8750000000000000 Zr
atom_frac 0.6250000000000000 0.6250000000000000 0.8750000000000000 Zr
atom_frac 0.8749999999999999 0.6250000000000000 0.8750000000000000 Zr
atom_frac 0.1250000000000000 0.8749999999999999 0.8750000000000000 Zr
atom_frac 0.3750000000000000 0.8749999999999999 0.8750000000000000 Zr
atom_frac 0.6250000000000000 0.8749999999999999 0.8750000000000000 Zr
atom_frac 0.8749999999999999 0.8749999999999999 0.8750000000000000 Zr
atom_frac 0.0625000000000000 0.1874999999999999 0.0502200997385000 O
atom_frac 0.3125000000000000 0.1874999999999999 0.0502200997385000 O
atom_frac 0.5625000000000000 0.1874999999999999 0.0502200997385000 O
atom_frac 0.8125000000000000 0.1874999999999999 0.0502200997385000 O
atom_frac 0.0625000000000000 0.4374999999999999 0.0502200997385000 O
atom_frac 0.3125000000000000 0.4374999999999999 0.0502200997385000 O
atom_frac 0.5625000000000000 0.4374999999999999 0.0502200997385000 O
atom_frac 0.8125000000000000 0.4374999999999999 0.0502200997385000 O
atom_frac 0.0625000000000000 0.6875000000000000 0.0502200997385000 O
atom_frac 0.3125000000000000 0.6875000000000000 0.0502200997385000 O
atom_frac 0.5625000000000000 0.6875000000000000 0.0502200997385000 O
atom_frac 0.8125000000000000 0.6875000000000000 0.0502200997385000 O
atom_frac 0.0625000000000000 0.9374999999999999 0.0502200997385000 O
atom_frac 0.3125000000000000 0.9374999999999999 0.0502200997385000 O
atom_frac 0.5625000000000000 0.9374999999999999 0.0502200997385000 O
atom_frac 0.8125000000000000 0.9374999999999999 0.0502200997385000 O
atom_frac 0.0625000000000000 0.1874999999999999 0.3002200997385000 O
atom_frac 0.3125000000000000 0.1874999999999999 0.3002200997385000 O
atom_frac 0.5625000000000000 0.1874999999999999 0.3002200997385000 O
atom_frac 0.8125000000000000 0.1874999999999999 0.3002200997385000 O
atom_frac 0.0625000000000000 0.4374999999999999 0.3002200997385000 O
atom_frac 0.3125000000000000 0.4374999999999999 0.3002200997385000 O
atom_frac 0.5625000000000000 0.4374999999999999 0.3002200997385000 O
atom_frac 0.8125000000000000 0.4374999999999999 0.3002200997385000 O
atom_frac 0.0625000000000000 0.6875000000000000 0.3002200997385000 O
atom_frac 0.3125000000000000 0.6875000000000000 0.3002200997385000 O
atom_frac 0.5625000000000000 0.6875000000000000 0.3002200997385000 O
atom_frac 0.8125000000000000 0.6875000000000000 0.3002200997385000 O
atom_frac 0.0625000000000000 0.9374999999999999 0.3002200997385000 O
atom_frac 0.3125000000000000 0.9374999999999999 0.3002200997385000 O
atom_frac 0.5625000000000000 0.9374999999999999 0.3002200997385000 O
atom_frac 0.8125000000000000 0.9374999999999999 0.3002200997385000 O
atom_frac 0.0625000000000000 0.1874999999999999 0.5502200997385001 O
atom_frac 0.3125000000000000 0.1874999999999999 0.5502200997385001 O
atom_frac 0.5625000000000000 0.1874999999999999 0.5502200997385001 O
atom_frac 0.8125000000000000 0.1874999999999999 0.5502200997385001 O
atom_frac 0.0625000000000000 0.4374999999999999 0.5502200997385001 O
atom_frac 0.3125000000000000 0.4374999999999999 0.5502200997385001 O
atom_frac 0.5625000000000000 0.4374999999999999 0.5502200997385001 O
atom_frac 0.8125000000000000 0.4374999999999999 0.5502200997385001 O
atom_frac 0.0625000000000000 0.6875000000000000 0.5502200997385001 O
atom_frac 0.3125000000000000 0.6875000000000000 0.5502200997385001 O
atom_frac 0.5625000000000000 0.6875000000000000 0.5502200997385001 O
atom_frac 0.8125000000000000 0.6875000000000000 0.5502200997385001 O
atom_frac 0.0625000000000000 0.9374999999999999 0.5502200997385001 O
atom_frac 0.3125000000000000 0.9374999999999999 0.5502200997385001 O
atom_frac 0.5625000000000000 0.9374999999999999 0.5502200997385001 O
atom_frac 0.8125000000000000 0.9374999999999999 0.5502200997385001 O
atom_frac 0.0625000000000000 0.1874999999999999 0.8002200997384999 O
atom_frac 0.3125000000000000 0.1874999999999999 0.8002200997384999 O
atom_frac 0.5625000000000000 0.1874999999999999 0.8002200997384999 O
atom_frac 0.8125000000000000 0.1874999999999999 0.8002200997384999 O
atom_frac 0.0625000000000000 0.4374999999999999 0.8002200997384999 O
atom_frac 0.3125000000000000 0.4374999999999999 0.8002200997384999 O
atom_frac 0.5625000000000000 0.4374999999999999 0.8002200997384999 O
atom_frac 0.8125000000000000 0.4374999999999999 0.8002200997384999 O
atom_frac 0.0625000000000000 0.6875000000000000 0.8002200997384999 O
atom_frac 0.3125000000000000 0.6875000000000000 0.8002200997384999 O
atom_frac 0.5625000000000000 0.6875000000000000 0.8002200997384999 O
atom_frac 0.8125000000000000 0.6875000000000000 0.8002200997384999 O
atom_frac 0.0625000000000000 0.9374999999999999 0.8002200997384999 O
atom_frac 0.3125000000000000 0.9374999999999999 0.8002200997384999 O
atom_frac 0.5625000000000000 0.9374999999999999 0.8002200997384999 O
atom_frac 0.8125000000000000 0.9374999999999999 0.8002200997384999 O
atom_frac 0.1874999999999999 0.0625000000000000 0.0502200997385000 O
atom_frac 0.4374999999999999 0.0625000000000000 0.0502200997385000 O
atom_frac 0.6875000000000000 0.0625000000000000 0.0502200997385000 O
atom_frac 0.9374999999999999 0.0625000000000000 0.0502200997385000 O
atom_frac 0.1874999999999999 0.3125000000000000 0.0502200997385000 O
atom_frac 0.4374999999999999 0.3125000000000000 0.0502200997385000 O
atom_frac 0.6875000000000000 0.3125000000000000 0.0502200997385000 O
atom_frac 0.9374999999999999 0.3125000000000000 0.0502200997385000 O
atom_frac 0.1874999999999999 0.5625000000000000 0.0502200997385000 O
atom_frac 0.4374999999999999 0.5625000000000000 0.0502200997385000 O
atom_frac 0.6875000000000000 0.5625000000000000 0.0502200997385000 O
atom_frac 0.9374999999999999 0.5625000000000000 0.0502200997385000 O
atom_frac 0.1874999999999999 0.8125000000000000 0.0502200997385000 O
atom_frac 0.4374999999999999 0.8125000000000000 0.0502200997385000 O
atom_frac 0.6875000000000000 0.8125000000000000 0.0502200997385000 O
atom_frac 0.9374999999999999 0.8125000000000000 0.0502200997385000 O
atom_frac 0.1874999999999999 0.0625000000000000 0.3002200997385000 O
atom_frac 0.4374999999999999 0.0625000000000000 0.3002200997385000 O
atom_frac 0.6875000000000000 0.0625000000000000 0.3002200997385000 O
atom_frac 0.9374999999999999 0.0625000000000000 0.3002200997385000 O
atom_frac 0.1874999999999999 0.3125000000000000 0.3002200997385000 O
atom_frac 0.4374999999999999 0.3125000000000000 0.3002200997385000 O
atom_frac 0.6875000000000000 0.3125000000000000 0.3002200997385000 O
atom_frac 0.9374999999999999 0.3125000000000000 0.3002200997385000 O
atom_frac 0.1874999999999999 0.5625000000000000 0.3002200997385000 O
atom_frac 0.4374999999999999 0.5625000000000000 0.3002200997385000 O
atom_frac 0.6875000000000000 0.5625000000000000 0.3002200997385000 O
atom_frac 0.9374999999999999 0.5625000000000000 0.3002200997385000 O
atom_frac 0.1874999999999999 0.8125000000000000 0.3002200997385000 O
atom_frac 0.4374999999999999 0.8125000000000000 0.3002200997385000 O
atom_frac 0.6875000000000000 0.8125000000000000 0.3002200997385000 O
atom_frac 0.9374999999999999 0.8125000000000000 0.3002200997385000 O
atom_frac 0.1874999999999999 0.0625000000000000 0.5502200997385001 O
atom_frac 0.4374999999999999 0.0625000000000000 0.5502200997385001 O
atom_frac 0.6875000000000000 0.0625000000000000 0.5502200997385001 O
atom_frac 0.9374999999999999 0.0625000000000000 0.5502200997385001 O
atom_frac 0.1874999999999999 0.3125000000000000 0.5502200997385001 O
atom_frac 0.4374999999999999 0.3125000000000000 0.5502200997385001 O
atom_frac 0.6875000000000000 0.3125000000000000 0.5502200997385001 O
atom_frac 0.9374999999999999 0.3125000000000000 0.5502200997385001 O
atom_frac 0.1874999999999999 0.5625000000000000 0.5502200997385001 O
atom_frac 0.4374999999999999 0.5625000000000000 0.5502200997385001 O
atom_frac 0.6875000000000000 0.5625000000000000 0.5502200997385001 O
atom_frac 0.9374999999999999 0.5625000000000000 0.5502200997385001 O
atom_frac 0.1874999999999999 0.8125000000000000 0.5502200997385001 O
atom_frac 0.4374999999999999 0.8125000000000000 0.5502200997385001 O
atom_frac 0.6875000000000000 0.8125000000000000 0.5502200997385001 O
atom_frac 0.9374999999999999 0.8125000000000000 0.5502200997385001 O
atom_frac 0.1874999999999999 0.0625000000000000 0.8002200997384999 O
atom_frac 0.4374999999999999 0.0625000000000000 0.8002200997384999 O
atom_frac 0.6875000000000000 0.0625000000000000 0.8002200997384999 O
atom_frac 0.9374999999999999 0.0625000000000000 0.8002200997384999 O
atom_frac 0.1874999999999999 0.3125000000000000 0.8002200997384999 O
atom_frac 0.4374999999999999 0.3125000000000000 0.8002200997384999 O
atom_frac 0.6875000000000000 0.3125000000000000 0.8002200997384999 O
atom_frac 0.9374999999999999 0.3125000000000000 0.8002200997384999 O
atom_frac 0.1874999999999999 0.5625000000000000 0.8002200997384999 O
atom_frac 0.4374999999999999 0.5625000000000000 0.8002200997384999 O
atom_frac 0.6875000000000000 0.5625000000000000 0.8002200997384999 O
atom_frac 0.9374999999999999 0.5625000000000000 0.8002200997384999 O
atom_frac 0.1874999999999999 0.8125000000000000 0.8002200997384999 O
atom_frac 0.4374999999999999 0.8125000000000000 0.8002200997384999 O
atom_frac 0.6875000000000000 0.8125000000000000 0.8002200997384999 O
atom_frac 0.9374999999999999 0.8125000000000000 0.8002200997384999 O
atom_frac 0.0625000000000000 0.1874999999999999 0.1752200997385000 O
atom_frac 0.3125000000000000 0.1874999999999999 0.1752200997385000 O
atom_frac 0.5625000000000000 0.1874999999999999 0.1752200997385000 O
atom_frac 0.8125000000000000 0.1874999999999999 0.1752200997385000 O
atom_frac 0.0625000000000000 0.4374999999999999 0.1752200997385000 O
atom_frac 0.3125000000000000 0.4374999999999999 0.1752200997385000 O
atom_frac 0.5625000000000000 0.4374999999999999 0.1752200997385000 O
atom_frac 0.8125000000000000 0.4374999999999999 0.1752200997385000 O
atom_frac 0.0625000000000000 0.6875000000000000 0.1752200997385000 O
atom_frac 0.3125000000000000 0.6875000000000000 0.1752200997385000 O
atom_frac 0.5625000000000000 0.6875000000000000 0.1752200997385000 O
atom_frac 0.8125000000000000 0.6875000000000000 0.1752200997385000 O
atom_frac 0.0625000000000000 0.9374999999999999 0.1752200997385000 O
atom_frac 0.3125000000000000 0.9374999999999999 0.1752200997385000 O
atom_frac 0.5625000000000000 0.9374999999999999 0.1752200997385000 O
atom_frac 0.8125000000000000 0.9374999999999999 0.1752200997385000 O
atom_frac 0.0625000000000000 0.1874999999999999 0.4252200997384999 O
atom_frac 0.3125000000000000 0.1874999999999999 0.4252200997384999 O
atom_frac 0.5625000000000000 0.1874999999999999 0.4252200997384999 O
atom_frac 0.8125000000000000 0.1874999999999999 0.4252200997384999 O
atom_frac 0.0625000000000000 0.4374999999999999 0.4252200997384999 O
atom_frac 0.3125000000000000 0.4374999999999999 0.4252200997384999 O
atom_frac 0.5625000000000000 0.4374999999999999 0.4252200997384999 O
atom_frac 0.8125000000000000 0.4374999999999999 0.4252200997384999 O
atom_frac 0.0625000000000000 0.6875000000000000 0.4252200997384999 O
atom_frac 0.3125000000000000 0.6875000000000000 0.4252200997384999 O
atom_frac 0.5625000000000000 0.6875000000000000 0.4252200997384999 O
atom_frac 0.8125000000000000 0.6875000000000000 0.4252200997384999 O
atom_frac 0.0625000000000000 0.9374999999999999 0.4252200997384999 O
atom_frac 0.3125000000000000 0.9374999999999999 0.4252200997384999 O
atom_frac 0.5625000000000000 0.9374999999999999 0.4252200997384999 O
atom_frac 0.8125000000000000 0.9374999999999999 0.4252200997384999 O
atom_frac 0.0625000000000000 0.1874999999999999 0.6752200997384998 O
atom_frac 0.3125000000000000 0.1874999999999999 0.6752200997384998 O
atom_frac 0.5625000000000000 0.1874999999999999 0.6752200997384998 O
atom_frac 0.8125000000000000 0.1874999999999999 0.6752200997384998 O
atom_frac 0.0625000000000000 0.4374999999999999 0.6752200997384998 O