#=======================================================
# FHI-aims file: 1400_geometry.in.primitive.supercell_4116.0010K
# Created using the Atomic Simulation Environment (ASE)
# Wed Jan 11 12:38:46 2023

# Additional information:
#  created from MB distrubtion
#  T = 10.0 K
#  quantum:             False
#  deterministic:       False
#  plus_minus:          False
#  gauge_eigenvectors:  False
#  Random seed:         436213827
#  Sample number:       1
#=======================================================
lattice_vector 36.0442307692307722 0.0000000000000000 0.0000000000000000 
lattice_vector 0.0000000000000000 36.0442307692307722 0.0000000000000000 
lattice_vector 0.0000000000000000 0.0000000000000000 36.9442307692307708 
atom 2.5745879120879112 0.0000000000000000 0.0000000000000000 Zr
    velocity -0.3781183449604797 -0.2150825917144359 -0.3654723326487500
atom 7.7237637362637379 0.0000000000000000 0.0000000000000000 Zr
    velocity 0.2111445065268584 -0.1153304722137743 0.0459393441750943
atom 12.8729395604395638 0.0000000000000000 0.0000000000000000 Zr
    velocity -0.2004285097422292 0.4444177113998419 0.3179447574569762
atom 18.0221153846153861 0.0000000000000000 0.0000000000000000 Zr
    velocity -0.3440312174022294 0.1366552618194370 0.2029818307778919
atom 23.1712912087912066 0.0000000000000000 0.0000000000000000 Zr
    velocity 0.0539784525161605 -0.1528785037211456 -0.2232258713872134
atom 28.3204670329670343 0.0000000000000000 0.0000000000000000 Zr
    velocity -0.0134273085309394 -0.0496946482554193 -0.0493016107087449
atom 33.4696428571428584 0.0000000000000000 0.0000000000000000 Zr
    velocity -0.1260566354998595 -0.1092767076591842 0.4113422248173654
atom 2.5745879120879112 5.1491758241758223 0.0000000000000000 Zr
    velocity -0.1407066049808718 0.6944291532302450 -0.0189274887661248
atom 7.7237637362637379 5.1491758241758223 0.0000000000000000 Zr
    velocity -0.5745599717659182 0.2959936196807429 0.0740442585494965
atom 12.8729395604395638 5.1491758241758223 0.0000000000000000 Zr
    velocity -0.2117811379433020 0.3742119412140991 -0.1333048928693132
atom 18.0221153846153861 5.1491758241758223 0.0000000000000000 Zr
    velocity -0.2997532871903008 0.5754627969636268 0.1791702752490966
atom 23.1712912087912066 5.1491758241758223 0.0000000000000000 Zr
    velocity 0.3283591684790931 0.3477464646872681 0.2797953722671638
atom 28.3204670329670343 5.1491758241758223 0.0000000000000000 Zr
    velocity -0.6049798410334845 -0.1606133751964288 0.1851892389672848
atom 33.4696428571428584 5.1491758241758223 0.0000000000000000 Zr
    velocity -0.0156886113430390 -0.3776226584061094 0.1823987765639955
atom 2.5745879120879112 10.2983516483516482 0.0000000000000000 Zr
    velocity -0.0400214836321575 0.1121734539153113 0.2155872885047543
atom 7.7237637362637379 10.2983516483516482 0.0000000000000000 Zr
    velocity -0.2339945139617319 -0.1697442011853803 0.2405656650137507
atom 12.8729395604395638 10.2983516483516482 0.0000000000000000 Zr
    velocity -0.1409384037536368 -0.2467767026841471 -0.2799496394275457
atom 18.0221153846153861 10.2983516483516482 0.0000000000000000 Zr
    velocity 0.0039818183425235 0.1745625852460329 -0.3143923360364188
atom 23.1712912087912066 10.2983516483516482 0.0000000000000000 Zr
    velocity -0.0162078029192773 -0.1943042362770448 0.1231250104776954
atom 28.3204670329670343 10.2983516483516482 0.0000000000000000 Zr
    velocity 0.0131053363593265 -0.4633446957721022 0.1386407770769385
atom 33.4696428571428584 10.2983516483516482 0.0000000000000000 Zr
    velocity 0.7959806682074300 -0.1176079036672080 -0.3950542494306097
atom 2.5745879120879112 15.4475274725274705 0.0000000000000000 Zr
    velocity -0.0403701831303082 -0.5412685176516624 -0.0612062852339783
atom 7.7237637362637379 15.4475274725274705 0.0000000000000000 Zr
    velocity 0.1658111069098919 0.3132765381078079 -0.0515413560667861
atom 12.8729395604395638 15.4475274725274705 0.0000000000000000 Zr
    velocity -0.2003361440580833 -0.0501793496703046 -0.1802265125784356
atom 18.0221153846153861 15.4475274725274705 0.0000000000000000 Zr
    velocity -0.1907811806636812 -0.1212229304714917 -0.2982260160172314
atom 23.1712912087912066 15.4475274725274705 0.0000000000000000 Zr
    velocity 0.3634272260800190 0.4706472503353810 -0.1102840121887027
atom 28.3204670329670343 15.4475274725274705 0.0000000000000000 Zr
    velocity -0.4557307312176298 0.0730086026510351 0.1024922772863035
atom 33.4696428571428584 15.4475274725274705 0.0000000000000000 Zr
    velocity -0.0642973373984018 -0.0089960148610536 0.4488897098582099
atom 2.5745879120879112 20.5967032967032964 0.0000000000000000 Zr
    velocity -0.0019461183971809 -0.3749188980606760 0.5402062443891082
atom 7.7237637362637379 20.5967032967032964 0.0000000000000000 Zr
    velocity -0.3227356100565229 -0.1253273158796711 -0.1997467461314322
atom 12.8729395604395638 20.5967032967032964 0.0000000000000000 Zr
    velocity 0.2897230204891152 0.0485568757664716 0.3877639823476490
atom 18.0221153846153861 20.5967032967032964 0.0000000000000000 Zr
    velocity -0.3004116709116470 0.2325453540062029 -0.2102353202776701
atom 23.1712912087912066 20.5967032967032964 0.0000000000000000 Zr
    velocity 0.1752856125043181 -0.1707807919513969 0.1576660792240625
atom 28.3204670329670343 20.5967032967032964 0.0000000000000000 Zr
    velocity -0.0436367161127193 -0.6402449969266233 -0.0928686321110736
atom 33.4696428571428584 20.5967032967032964 0.0000000000000000 Zr
    velocity 0.6626233351427200 0.0236518832908072 -0.3216648924523262
atom 2.5745879120879112 25.7458791208791240 0.0000000000000000 Zr
    velocity -0.1260315061679879 0.1050270081697974 0.2813162965717226
atom 7.7237637362637379 25.7458791208791240 0.0000000000000000 Zr
    velocity -0.5990771331912130 -0.2430558017989252 -0.0612191182718935
atom 12.8729395604395638 25.7458791208791240 0.0000000000000000 Zr
    velocity 0.0322856404866244 -0.0518230705859763 -0.0645777764409084
atom 18.0221153846153861 25.7458791208791240 0.0000000000000000 Zr
    velocity 0.3032846823649626 -0.1762457842273021 -0.1141714758937998
atom 23.1712912087912066 25.7458791208791240 0.0000000000000000 Zr
    velocity 0.1683632062489399 0.0125472713504830 0.1164438557367549
atom 28.3204670329670343 25.7458791208791240 0.0000000000000000 Zr
    velocity -0.1149543229347077 0.1671461723665326 0.0996279253332878
atom 33.4696428571428584 25.7458791208791240 0.0000000000000000 Zr
    velocity 0.4484167485464462 0.1194946564572479 -0.5921497658287692
atom 2.5745879120879112 30.8950549450549445 0.0000000000000000 Zr
    velocity 0.1455728201390401 0.0048912535898041 -0.1623876712912154
atom 7.7237637362637379 30.8950549450549445 0.0000000000000000 Zr
    velocity 0.3720154767355155 -0.1399884663901583 -0.1349419064368834
atom 12.8729395604395638 30.8950549450549445 0.0000000000000000 Zr
    velocity -0.3053059412768424 -0.2588316346827731 0.2518292494207902
atom 18.0221153846153861 30.8950549450549445 0.0000000000000000 Zr
    velocity -0.3973510823097043 -0.2960689873887513 -0.2379036600325820
atom 23.1712912087912066 30.8950549450549445 0.0000000000000000 Zr
    velocity 0.1267542819035968 -0.2159605850335779 0.3598511964787490
atom 28.3204670329670343 30.8950549450549445 0.0000000000000000 Zr
    velocity -0.2934233093053121 -0.0281640019278228 -0.1691421621075875
atom 33.4696428571428584 30.8950549450549445 0.0000000000000000 Zr
    velocity -0.2404028238680569 -0.1552428090602365 0.3022168215982474
atom 2.5745879120879112 0.0000000000000000 5.2777472527472504 Zr
    velocity 0.1952301336049915 0.0292499584962581 0.0849902611881408
atom 7.7237637362637379 0.0000000000000000 5.2777472527472504 Zr
    velocity -0.1947017908229299 0.1915227303108463 -0.0527592611123059
atom 12.8729395604395638 0.0000000000000000 5.2777472527472504 Zr
    velocity 0.3777773997606100 0.2659541612743490 0.0886702125473667
atom 18.0221153846153861 0.0000000000000000 5.2777472527472504 Zr
    velocity -0.1986140761748596 -0.0318898018213021 -0.0899236901906809
atom 23.1712912087912066 0.0000000000000000 5.2777472527472504 Zr
    velocity -0.3552020636635474 -0.0557425771178519 0.0404277383878764
atom 28.3204670329670343 0.0000000000000000 5.2777472527472504 Zr
    velocity 0.0496410592140446 0.0570845739452728 -0.0737800108545220
atom 33.4696428571428584 0.0000000000000000 5.2777472527472504 Zr
    velocity -0.2303843241740320 -0.4706996021071693 -0.0491185984011491
atom 2.5745879120879112 5.1491758241758223 5.2777472527472504 Zr
    velocity 0.0953266308194684 -0.2044904089564643 -0.1899617957706262
atom 7.7237637362637379 5.1491758241758223 5.2777472527472504 Zr
    velocity -0.0644405123173985 0.2154916177350148 -0.2603439404622829
atom 12.8729395604395638 5.1491758241758223 5.2777472527472504 Zr
    velocity -0.6142208149479627 0.5835884100457736 0.1349835746928843
atom 18.0221153846153861 5.1491758241758223 5.2777472527472504 Zr
    velocity 0.1752660539695738 0.1714860430524157 0.0902476204081832
atom 23.1712912087912066 5.1491758241758223 5.2777472527472504 Zr
    velocity -0.2394270038911056 -0.5311002846153143 -0.1406460631438105
atom 28.3204670329670343 5.1491758241758223 5.2777472527472504 Zr
    velocity -0.0516862833077731 -0.2688235318086654 -0.0120164076417663
atom 33.4696428571428584 5.1491758241758223 5.2777472527472504 Zr
    velocity -0.2932360050541646 -0.3447190922273725 0.4855274210700096
atom 2.5745879120879112 10.2983516483516482 5.2777472527472504 Zr
    velocity 0.1918159470650156 0.2977145322654159 0.0992849392405012
atom 7.7237637362637379 10.2983516483516482 5.2777472527472504 Zr
    velocity 0.1248469782729812 -0.2176546504282091 -0.4250114605883548
atom 12.8729395604395638 10.2983516483516482 5.2777472527472504 Zr
    velocity -0.0225924987039334 0.4063831284917870 -0.3494533142585712
atom 18.0221153846153861 10.2983516483516482 5.2777472527472504 Zr
    velocity -0.0075427225233277 0.1278988314684570 -0.0372440356956089
atom 23.1712912087912066 10.2983516483516482 5.2777472527472504 Zr
    velocity 0.3378342960999460 0.1571257127027799 0.0303645149343249
atom 28.3204670329670343 10.2983516483516482 5.2777472527472504 Zr
    velocity -0.0470768161365869 -0.1295762472464847 0.0553004081033642
atom 33.4696428571428584 10.2983516483516482 5.2777472527472504 Zr
    velocity 0.4680542708223981 -0.0929233968934574 -0.2160069878411423
atom 2.5745879120879112 15.4475274725274705 5.2777472527472504 Zr
    velocity 0.2720725831555184 -0.1950005143347048 -0.0520271399797350
atom 7.7237637362637379 15.4475274725274705 5.2777472527472504 Zr
    velocity -0.5029483842681792 -0.2457855318981113 0.2228274306532119
atom 12.8729395604395638 15.4475274725274705 5.2777472527472504 Zr
    velocity -0.6120513304012463 -0.2899104665734782 -0.2551635972898074
atom 18.0221153846153861 15.4475274725274705 5.2777472527472504 Zr
    velocity -0.8929156750165124 0.7372127642270447 0.2052869973416012
atom 23.1712912087912066 15.4475274725274705 5.2777472527472504 Zr
    velocity -0.0675648777257643 -0.0939691351305438 -0.5017964969855517
atom 28.3204670329670343 15.4475274725274705 5.2777472527472504 Zr
    velocity -0.1707073907557166 0.2390229840776902 0.2611976797620286
atom 33.4696428571428584 15.4475274725274705 5.2777472527472504 Zr
    velocity -0.3960869718956891 0.0186927846553645 0.0522939265720179
atom 2.5745879120879112 20.5967032967032964 5.2777472527472504 Zr
    velocity -0.0607540848690408 0.1948069475519124 0.0537826868710886
atom 7.7237637362637379 20.5967032967032964 5.2777472527472504 Zr
    velocity 0.2082414201814012 0.2470082936761505 0.0631336856370057
atom 12.8729395604395638 20.5967032967032964 5.2777472527472504 Zr
    velocity -0.1689221046607120 0.2909859062911290 0.2696023882100376
atom 18.0221153846153861 20.5967032967032964 5.2777472527472504 Zr
    velocity -0.0792678639530591 -0.0250437239278102 0.2168369928532629
atom 23.1712912087912066 20.5967032967032964 5.2777472527472504 Zr
    velocity 0.4591929469286056 0.3759435929761470 -0.1764409360315984
atom 28.3204670329670343 20.5967032967032964 5.2777472527472504 Zr
    velocity -0.2396652047506285 0.4922573693251721 -0.3096390143303474
atom 33.4696428571428584 20.5967032967032964 5.2777472527472504 Zr
    velocity -0.1455952272230512 0.3698040592070702 -0.2607864902772764
atom 2.5745879120879112 25.7458791208791240 5.2777472527472504 Zr
    velocity -0.0893775370559895 -0.1170172062477141 0.1624085861671704
atom 7.7237637362637379 25.7458791208791240 5.2777472527472504 Zr
    velocity 0.2889222900822720 -0.2023626746617912 -0.3637023521549565
atom 12.8729395604395638 25.7458791208791240 5.2777472527472504 Zr
    velocity -0.2299978134266082 -0.2012396367269256 0.0905026502472372
atom 18.0221153846153861 25.7458791208791240 5.2777472527472504 Zr
    velocity 0.0936546067595443 0.6638581762062084 -0.6108863903209443
atom 23.1712912087912066 25.7458791208791240 5.2777472527472504 Zr
    velocity 0.3821276856198405 0.2817633953424993 -0.0308297599466755
atom 28.3204670329670343 25.7458791208791240 5.2777472527472504 Zr
    velocity 0.0685821498526234 -0.1635975996694193 -0.1890957097011487
atom 33.4696428571428584 25.7458791208791240 5.2777472527472504 Zr
    velocity 0.2803578245135263 0.2998803628875484 0.2617513871836295
atom 2.5745879120879112 30.8950549450549445 5.2777472527472504 Zr
    velocity -0.3448050862226288 0.3235062085025253 -0.2582188166600664
atom 7.7237637362637379 30.8950549450549445 5.2777472527472504 Zr
    velocity -0.1731117279833299 0.1822309055783773 -0.2135271917980422
atom 12.8729395604395638 30.8950549450549445 5.2777472527472504 Zr
    velocity -0.2312609003369941 -0.2832431384572990 0.0277185332230558
atom 18.0221153846153861 30.8950549450549445 5.2777472527472504 Zr
    velocity -0.0026356067155194 -0.0435344991866770 -0.0554309096697023
atom 23.1712912087912066 30.8950549450549445 5.2777472527472504 Zr
    velocity 0.2791364311351577 -0.6332877364210547 0.3769318036795572
atom 28.3204670329670343 30.8950549450549445 5.2777472527472504 Zr
    velocity -0.3902839246327880 -0.0227675806308104 -0.3271914481213832
atom 33.4696428571428584 30.8950549450549445 5.2777472527472504 Zr
    velocity -0.3522575621947159 0.4457539031041475 -0.1621564356605057
atom 2.5745879120879112 0.0000000000000000 10.5554945054945062 Zr
    velocity 0.0889577412729574 -0.2951832391418698 -0.1718465799946352
atom 7.7237637362637379 0.0000000000000000 10.5554945054945062 Zr
    velocity -0.0194533043065974 -0.1185228656024606 -0.2997517809152102
atom 12.8729395604395638 0.0000000000000000 10.5554945054945062 Zr
    velocity -0.2259773512129611 0.3750717190145865 0.5613295420003374
atom 18.0221153846153861 0.0000000000000000 10.5554945054945062 Zr
    velocity -0.2786432773364053 -0.2273289430096178 -0.1953357373234084
atom 23.1712912087912066 0.0000000000000000 10.5554945054945062 Zr
    velocity -0.0526900636988033 -0.3563582616796374 -0.4930222061823393
atom 28.3204670329670343 0.0000000000000000 10.5554945054945062 Zr
    velocity -0.0386152611454517 0.1475603711552611 -0.1296210474951159
atom 33.4696428571428584 0.0000000000000000 10.5554945054945062 Zr
    velocity 0.0615033581354112 0.1532408327233507 0.0034909278596146
atom 2.5745879120879112 5.1491758241758223 10.5554945054945062 Zr
    velocity -0.2974245372668093 0.0210742563304554 0.5839356468677901
atom 7.7237637362637379 5.1491758241758223 10.5554945054945062 Zr
    velocity -0.0415409187924920 -0.3950950449784006 0.3148093348067201
atom 12.8729395604395638 5.1491758241758223 10.5554945054945062 Zr
    velocity 0.0540864772577880 -0.1893574946573070 0.3152061470380497
atom 18.0221153846153861 5.1491758241758223 10.5554945054945062 Zr
    velocity -0.1735485479599512 0.0879092809725678 -0.2589367705624431
atom 23.1712912087912066 5.1491758241758223 10.5554945054945062 Zr
    velocity 0.2000545568095535 0.0751385899141699 0.6680028778374792
atom 28.3204670329670343 5.1491758241758223 10.5554945054945062 Zr
    velocity -0.3297932655199809 0.1023902057497519 -0.4906277195077912
atom 33.4696428571428584 5.1491758241758223 10.5554945054945062 Zr
    velocity 0.0198646186299099 0.3533275170576032 0.1798738021682337
atom 2.5745879120879112 10.2983516483516482 10.5554945054945062 Zr
    velocity 0.3284358340178953 -0.2954129722025698 0.2530396489960631
atom 7.7237637362637379 10.2983516483516482 10.5554945054945062 Zr
    velocity 0.2266051069107974 0.0135509714536968 -0.1151965533692710
atom 12.8729395604395638 10.2983516483516482 10.5554945054945062 Zr
    velocity -0.2644425390676686 -0.7407986418462433 -0.3670910527653454
atom 18.0221153846153861 10.2983516483516482 10.5554945054945062 Zr
    velocity -0.1308317547567917 0.1606282119873839 -0.3080553317033317
atom 23.1712912087912066 10.2983516483516482 10.5554945054945062 Zr
    velocity -0.2814361492186449 0.1355545961893676 -0.1677576078440865
atom 28.3204670329670343 10.2983516483516482 10.5554945054945062 Zr
    velocity -0.1609027585903426 -0.5801970826687844 -0.2912545515490281
atom 33.4696428571428584 10.2983516483516482 10.5554945054945062 Zr
    velocity 0.0104735565804519 0.0750278745029882 -0.0452508201284511
atom 2.5745879120879112 15.4475274725274705 10.5554945054945062 Zr
    velocity -0.5833945081852898 -0.0595326371384678 0.2522272166764390
atom 7.7237637362637379 15.4475274725274705 10.5554945054945062 Zr
    velocity 0.2771034719629920 0.2890349720907067 -0.1882139702136896
atom 12.8729395604395638 15.4475274725274705 10.5554945054945062 Zr
    velocity -0.4174735830284750 0.1091784404816530 -0.4159956363881627
atom 18.0221153846153861 15.4475274725274705 10.5554945054945062 Zr
    velocity -0.1471608208192933 0.2220253336204516 0.0886414640362409
atom 23.1712912087912066 15.4475274725274705 10.5554945054945062 Zr
    velocity 0.1053671466960945 -0.0519726695215865 -0.3766537412697219
atom 28.3204670329670343 15.4475274725274705 10.5554945054945062 Zr
    velocity 0.1048338229371025 -0.0375139551213255 -0.3854801617211995
atom 33.4696428571428584 15.4475274725274705 10.5554945054945062 Zr
    velocity -0.5685582209481631 -0.2106155442443647 0.3316027617855870
atom 2.5745879120879112 20.5967032967032964 10.5554945054945062 Zr
    velocity -0.1011388421943754 -0.1810954474523595 -0.0299183031095119
atom 7.7237637362637379 20.5967032967032964 10.5554945054945062 Zr
    velocity 0.3636731095845992 -0.0618993331539428 0.3248311301842242
atom 12.8729395604395638 20.5967032967032964 10.5554945054945062 Zr
    velocity -0.1262058535901549 -0.2903605356305292 -0.3593542469634387
atom 18.0221153846153861 20.5967032967032964 10.5554945054945062 Zr
    velocity -0.1090449703364668 -0.2179397820561674 0.3429958951856925
atom 23.1712912087912066 20.5967032967032964 10.5554945054945062 Zr
    velocity -0.0450815879553705 0.2888701006135017 0.7020799577238525
atom 28.3204670329670343 20.5967032967032964 10.5554945054945062 Zr
    velocity -0.2051602783072333 0.1753157625740623 0.3062977569272860
atom 33.4696428571428584 20.5967032967032964 10.5554945054945062 Zr
    velocity 0.5995696921254517 -0.3786258738263328 -0.6537759381371386
atom 2.5745879120879112 25.7458791208791240 10.5554945054945062 Zr
    velocity 0.0922277172536445 -0.0745318356745543 -0.3703632776363890
atom 7.7237637362637379 25.7458791208791240 10.5554945054945062 Zr
    velocity -0.4350928523615604 0.2291592685887140 -0.7082272597801240
atom 12.8729395604395638 25.7458791208791240 10.5554945054945062 Zr
    velocity 0.0873564021803575 -0.2427147285810178 0.4223971979767827
atom 18.0221153846153861 25.7458791208791240 10.5554945054945062 Zr
    velocity -0.2858829263703772 0.3608479303404233 -0.7341531780592234
atom 23.1712912087912066 25.7458791208791240 10.5554945054945062 Zr
    velocity -0.0752140133430459 -0.0938920662728043 -0.3115471328969870
atom 28.3204670329670343 25.7458791208791240 10.5554945054945062 Zr
    velocity -0.3961191169115406 0.0646422466090996 0.3126481975663871
atom 33.4696428571428584 25.7458791208791240 10.5554945054945062 Zr
    velocity 0.4075666807680132 0.7253405919138821 -0.0560714340204953
atom 2.5745879120879112 30.8950549450549445 10.5554945054945062 Zr
    velocity -0.1077198150680270 -0.0406846847412514 0.0718427483245917
atom 7.7237637362637379 30.8950549450549445 10.5554945054945062 Zr
    velocity 0.0271343619203493 0.3971892546594673 -0.1737071456748404
atom 12.8729395604395638 30.8950549450549445 10.5554945054945062 Zr
    velocity -0.0549191206015352 -0.0484870884541327 0.0253412086823052
atom 18.0221153846153861 30.8950549450549445 10.5554945054945062 Zr
    velocity -0.2875862467696148 -0.0881127749491359 -0.4189870648416714
atom 23.1712912087912066 30.8950549450549445 10.5554945054945062 Zr
    velocity 0.1329066643467615 -0.1906352698417935 -0.0207539156087839
atom 28.3204670329670343 30.8950549450549445 10.5554945054945062 Zr
    velocity 0.0596958314028478 0.0580112491601916 0.4273890214884589
atom 33.4696428571428584 30.8950549450549445 10.5554945054945062 Zr
    velocity 0.0982620032921511 -0.1062332307484800 -0.0184653837555525
atom 2.5745879120879112 0.0000000000000000 15.8332417582417566 Zr
    velocity -0.2041794496606960 -0.5031316561200897 0.3550308916369957
atom 7.7237637362637379 0.0000000000000000 15.8332417582417566 Zr
    velocity 0.2574717696466193 -0.4804411087489819 0.0070525010663934
atom 12.8729395604395638 0.0000000000000000 15.8332417582417566 Zr
    velocity 0.1759843414512358 -0.0644147279121687 -0.1130634211674347
atom 18.0221153846153861 0.0000000000000000 15.8332417582417566 Zr
    velocity -0.4546370508798712 -0.3626121164508892 -0.1819692923085148
atom 23.1712912087912066 0.0000000000000000 15.8332417582417566 Zr
    velocity 0.2137305767945317 -0.1039785773842614 -0.1257411560631234
atom 28.3204670329670343 0.0000000000000000 15.8332417582417566 Zr
    velocity 0.0856097516444884 0.3084171241953076 0.2484645292585344
atom 33.4696428571428584 0.0000000000000000 15.8332417582417566 Zr
    velocity 0.1724423121432841 -0.6264816766359030 -0.1399164800694322
atom 2.5745879120879112 5.1491758241758223 15.8332417582417566 Zr
    velocity -0.1047206567138354 0.3812735098187613 -0.1277319621873950
atom 7.7237637362637379 5.1491758241758223 15.8332417582417566 Zr
    velocity -0.0523615409359351 -0.1690969344546094 -0.0210838889691571
atom 12.8729395604395638 5.1491758241758223 15.8332417582417566 Zr
    velocity 0.1584999064935000 0.4579512320340976 -0.1630444156062293
atom 18.0221153846153861 5.1491758241758223 15.8332417582417566 Zr
    velocity -0.0268434647561405 -0.5213064913388632 -0.1562479745343255
atom 23.1712912087912066 5.1491758241758223 15.8332417582417566 Zr
    velocity 0.0890839505228941 0.2261763010584731 0.3468720850818042
atom 28.3204670329670343 5.1491758241758223 15.8332417582417566 Zr
    velocity -0.3043208076701530 -0.4735772860970017 0.3536048196188880
atom 33.4696428571428584 5.1491758241758223 15.8332417582417566 Zr
    velocity -0.2204067590340979 -0.3151348605950811 0.3955620826882980
atom 2.5745879120879112 10.2983516483516482 15.8332417582417566 Zr
    velocity 0.8594635773240412 0.0755693559559010 0.3299974530102555
atom 7.7237637362637379 10.2983516483516482 15.8332417582417566 Zr
    velocity -0.1288993697560541 -0.0555975456489459 -0.1543800735425989
atom 12.8729395604395638 10.2983516483516482 15.8332417582417566 Zr
    velocity 0.1163505489200010 0.1549673096990783 0.5684356409601737
atom 18.0221153846153861 10.2983516483516482 15.8332417582417566 Zr
    velocity 0.2627217530952209 0.0531484572483548 0.1027073427098975
atom 23.1712912087912066 10.2983516483516482 15.8332417582417566 Zr
    velocity -0.5551238018487404 0.3454883293390521 -0.5519353768334282
atom 28.3204670329670343 10.2983516483516482 15.8332417582417566 Zr
    velocity -0.6115771451950257 0.3510977455561063 0.0121165669300242
atom 33.4696428571428584 10.2983516483516482 15.8332417582417566 Zr
    velocity -0.0212556873306448 -0.0927280286608169 0.1316710924557432
atom 2.5745879120879112 15.4475274725274705 15.8332417582417566 Zr
    velocity -0.1161118771199263 0.7917696028715242 -0.1693764435826657
atom 7.7237637362637379 15.4475274725274705 15.8332417582417566 Zr
    velocity -0.1867567134132939 0.5633888300249059 0.1836132532252022
atom 12.8729395604395638 15.4475274725274705 15.8332417582417566 Zr
    velocity 0.1052800611119903 0.0345966702516686 0.0978107119305964
atom 18.0221153846153861 15.4475274725274705 15.8332417582417566 Zr
    velocity -0.0680013565668922 0.1616242085377992 -0.0705932020783242
atom 23.1712912087912066 15.4475274725274705 15.8332417582417566 Zr
    velocity -0.0047927847468679 0.0006099578683570 0.1716156376666968
atom 28.3204670329670343 15.4475274725274705 15.8332417582417566 Zr
    velocity 0.1890177749531096 0.4614230062639542 0.2296269059419950
atom 33.4696428571428584 15.4475274725274705 15.8332417582417566 Zr
    velocity -0.1416429235106673 0.0956084530941802 -0.1564282032977257
atom 2.5745879120879112 20.5967032967032964 15.8332417582417566 Zr
    velocity -0.5917980434526161 0.0253946099508117 -0.1527548794114457
atom 7.7237637362637379 20.5967032967032964 15.8332417582417566 Zr
    velocity 0.1155785261722944 0.4427638870009259 0.1490391826962414
atom 12.8729395604395638 20.5967032967032964 15.8332417582417566 Zr
    velocity 0.1026906322479835 0.0333042829585392 0.0832298131111546
atom 18.0221153846153861 20.5967032967032964 15.8332417582417566 Zr
    velocity 0.3792939492522525 -0.2509347474087817 0.1912343827558364
atom 23.1712912087912066 20.5967032967032964 15.8332417582417566 Zr
    velocity 0.2537927027889171 0.2560605183754233 0.0231886990952889
atom 28.3204670329670343 20.5967032967032964 15.8332417582417566 Zr
    velocity 0.1503226211516006 -0.1932310279197743 -0.0727156859833289
atom 33.4696428571428584 20.5967032967032964 15.8332417582417566 Zr
    velocity 0.6952406048892475 -0.2742747612839131 0.2705463854046387
atom 2.5745879120879112 25.7458791208791240 15.8332417582417566 Zr
    velocity -0.2264183053418528 0.2631452177691956 0.3305448940935540
atom 7.7237637362637379 25.7458791208791240 15.8332417582417566 Zr
    velocity 0.1770005856023655 0.3470498650228840 -0.1311930143911287
atom 12.8729395604395638 25.7458791208791240 15.8332417582417566 Zr
    velocity 0.0495437937863083 0.6648053824931801 -0.0769036687936273
atom 18.0221153846153861 25.7458791208791240 15.8332417582417566 Zr
    velocity 0.0845780779616560 0.0824041475047554 -0.2112507359728107
atom 23.1712912087912066 25.7458791208791240 15.8332417582417566 Zr
    velocity 0.1882790655029735 0.3777717744312374 0.7244521191717483
atom 28.3204670329670343 25.7458791208791240 15.8332417582417566 Zr
    velocity 0.5274265825867349 -0.0047661648738984 0.1939396510301232
atom 33.4696428571428584 25.7458791208791240 15.8332417582417566 Zr
    velocity 0.0141528369276899 0.2877188797542803 -0.5238676959349449
atom 2.5745879120879112 30.8950549450549445 15.8332417582417566 Zr
    velocity 0.1809890773752272 -0.0140403102409569 0.0322682701973554
atom 7.7237637362637379 30.8950549450549445 15.8332417582417566 Zr
    velocity -0.0723013266985290 0.0818376795421970 -0.4565575344843300
atom 12.8729395604395638 30.8950549450549445 15.8332417582417566 Zr
    velocity -0.1922085755537835 -0.1883404838874951 0.0331983357932568
atom 18.0221153846153861 30.8950549450549445 15.8332417582417566 Zr
    velocity 0.1375997008332644 -0.3496727550076757 -0.4296262057999863
atom 23.1712912087912066 30.8950549450549445 15.8332417582417566 Zr
    velocity -0.1053183408700090 -0.5369578530393971 -0.1047439923189396
atom 28.3204670329670343 30.8950549450549445 15.8332417582417566 Zr
    velocity -0.3235723903131690 -0.5514383522502638 -0.0825275517432996
atom 33.4696428571428584 30.8950549450549445 15.8332417582417566 Zr
    velocity -0.5139632825429249 -0.1617678148879299 -0.2212705259216808
atom 2.5745879120879112 0.0000000000000000 21.1109890109890124 Zr
    velocity 0.0940917404309273 -0.1277789944026512 -0.1478354796611092
atom 7.7237637362637379 0.0000000000000000 21.1109890109890124 Zr
    velocity -0.3797343227710444 0.1252196110740127 -0.4899159034137751
atom 12.8729395604395638 0.0000000000000000 21.1109890109890124 Zr
    velocity -0.2526104066457469 -0.0881836585112092 -0.3032396268611668
atom 18.0221153846153861 0.0000000000000000 21.1109890109890124 Zr
    velocity 0.0838947989162806 -0.2322205224415448 -0.0059153118755066
atom 23.1712912087912066 0.0000000000000000 21.1109890109890124 Zr
    velocity -0.7942255196188557 -0.2802319654137003 -0.4814940958350329
atom 28.3204670329670343 0.0000000000000000 21.1109890109890124 Zr
    velocity 0.0066093377353243 -0.0278836011653114 -0.0290575154860062
atom 33.4696428571428584 0.0000000000000000 21.1109890109890124 Zr
    velocity -0.2395703829212130 -0.4397885749957341 0.3519924097627170
atom 2.5745879120879112 5.1491758241758223 21.1109890109890124 Zr
    velocity 0.0776442432721024 -0.2747868944449815 -0.0177438762705958
atom 7.7237637362637379 5.1491758241758223 21.1109890109890124 Zr
    velocity -0.3749493137073093 -0.1179208958533749 -0.0964576772194233
atom 12.8729395604395638 5.1491758241758223 21.1109890109890124 Zr
    velocity -0.5852375252701444 0.0533236290811228 -0.0592339268380257
atom 18.0221153846153861 5.1491758241758223 21.1109890109890124 Zr
    velocity -0.1717234195873077 -0.3279714338469886 0.2254103397486800
atom 23.1712912087912066 5.1491758241758223 21.1109890109890124 Zr
    velocity -0.7854797489431129 0.0789401238755489 0.3087273471680527
atom 28.3204670329670343 5.1491758241758223 21.1109890109890124 Zr
    velocity 0.6923211552075103 0.1632815643305302 -0.2435408827970830
atom 33.4696428571428584 5.1491758241758223 21.1109890109890124 Zr
    velocity 0.1627279453658014 0.5608536331155933 0.1763303592261073
atom 2.5745879120879112 10.2983516483516482 21.1109890109890124 Zr
    velocity 0.0205327301041868 -0.1692061647742290 0.1268213646653133