#=======================================================
# FHI-aims file: 1800_geometry.in.primitive.supercell_2592.0010K
# Created using the Atomic Simulation Environment (ASE)
# Mon Oct 31 16:18:55 2022

# Additional information:
#  created from MB distrubtion
#  T = 10.0 K
#  quantum:             False
#  deterministic:       False
#  plus_minus:          False
#  gauge_eigenvectors:  False
#  Random seed:         734472848
#  Sample number:       1
#=======================================================
lattice_vector 31.0442307692307722 0.0000000000000000 0.0000000000000000 
lattice_vector 0.0000000000000000 31.0442307692307722 0.0000000000000000 
lattice_vector 0.0000000000000000 0.0000000000000000 31.8313186813186846 
atom 2.5870192307692301 0.0000000000000000 0.0000000000000000 Zr
    velocity -0.4255852048944145 0.3141091350516231 -0.3450086202737587
atom 7.7610576923076930 0.0000000000000000 0.0000000000000000 Zr
    velocity -0.3458297264061687 -0.0774098782034205 -0.3617193902804926
atom 12.9350961538461515 0.0000000000000000 0.0000000000000000 Zr
    velocity 0.1788935925862108 -0.2507840256832545 0.0015947572452571
atom 18.1091346153846153 0.0000000000000000 0.0000000000000000 Zr
    velocity 0.2395348997236307 0.3161050351651475 0.4212511375497977
atom 23.2831730769230774 0.0000000000000000 0.0000000000000000 Zr
    velocity 0.8005408138505562 -0.3190030447197724 -0.0101718004506262
atom 28.4572115384615394 0.0000000000000000 0.0000000000000000 Zr
    velocity -0.0849423304964336 -0.0290368860462456 0.1444593434518714
atom 2.5870192307692301 5.1740384615384638 0.0000000000000000 Zr
    velocity -0.0713368127454943 0.3039385507757770 0.7350589053318912
atom 7.7610576923076930 5.1740384615384638 0.0000000000000000 Zr
    velocity -0.3383355775159126 0.4947622519788418 0.4642073390531195
atom 12.9350961538461515 5.1740384615384638 0.0000000000000000 Zr
    velocity -0.0993461322306552 0.0726830213864446 -0.1136378445997800
atom 18.1091346153846153 5.1740384615384638 0.0000000000000000 Zr
    velocity -0.0655158310285740 -0.0973080647966344 -0.4921357535120863
atom 23.2831730769230774 5.1740384615384638 0.0000000000000000 Zr
    velocity -0.2546258809411781 -0.3659764174978501 -0.0905575095880730
atom 28.4572115384615394 5.1740384615384638 0.0000000000000000 Zr
    velocity 0.1819177756876927 -0.0890257916735345 0.2219531235820042
atom 2.5870192307692301 10.3480769230769241 0.0000000000000000 Zr
    velocity -0.0489663324061501 -0.2207419779857944 0.0499407927818899
atom 7.7610576923076930 10.3480769230769241 0.0000000000000000 Zr
    velocity 0.4135207662887558 -0.0014424993596419 0.3393134449117162
atom 12.9350961538461515 10.3480769230769241 0.0000000000000000 Zr
    velocity -0.3101584107789823 0.8540799263603492 -0.0716672580649262
atom 18.1091346153846153 10.3480769230769241 0.0000000000000000 Zr
    velocity 0.1265328064948442 -0.1666170653970449 0.1742185045917168
atom 23.2831730769230774 10.3480769230769241 0.0000000000000000 Zr
    velocity 0.0742868887775027 -0.1280894802056532 -0.0449270917922462
atom 28.4572115384615394 10.3480769230769241 0.0000000000000000 Zr
    velocity -0.1498803541380017 -0.5438379847713708 -0.3452088770168530
atom 2.5870192307692301 15.5221153846153861 0.0000000000000000 Zr
    velocity 0.0324224375672439 -0.0139483038061569 -0.1767723847948807
atom 7.7610576923076930 15.5221153846153861 0.0000000000000000 Zr
    velocity -0.2156030247917614 -0.1924899383360481 0.5333163819023712
atom 12.9350961538461515 15.5221153846153861 0.0000000000000000 Zr
    velocity 0.6206480754165263 0.1071494291118190 -0.1694982644533087
atom 18.1091346153846153 15.5221153846153861 0.0000000000000000 Zr
    velocity 0.4173211436558920 -0.0986382562663737 -0.0672526756940402
atom 23.2831730769230774 15.5221153846153861 0.0000000000000000 Zr
    velocity -0.3288236677079388 -0.4933467787750848 0.5147160033196444
atom 28.4572115384615394 15.5221153846153861 0.0000000000000000 Zr
    velocity -0.0554636822371294 0.4109031540727741 0.3438406850575097
atom 2.5870192307692301 20.6961538461538481 0.0000000000000000 Zr
    velocity 0.4184417002622777 -0.0192525368682454 -0.1531725533097615
atom 7.7610576923076930 20.6961538461538481 0.0000000000000000 Zr
    velocity 0.3749157699146073 -0.2430901528674941 0.4724311021100605
atom 12.9350961538461515 20.6961538461538481 0.0000000000000000 Zr
    velocity 0.1487556521154574 -0.1814225505230593 -0.0436298639319262
atom 18.1091346153846153 20.6961538461538481 0.0000000000000000 Zr
    velocity 0.0991061568250472 0.3987130302799347 -0.2566124012117296
atom 23.2831730769230774 20.6961538461538481 0.0000000000000000 Zr
    velocity 0.0191761277968716 -0.4653621803731642 0.1156768240188421
atom 28.4572115384615394 20.6961538461538481 0.0000000000000000 Zr
    velocity -0.2510369653548594 0.1355717680231919 0.4661530419876746
atom 2.5870192307692301 25.8701923076923066 0.0000000000000000 Zr
    velocity 0.3553868053708109 -0.0618060083069559 0.4171614032032640
atom 7.7610576923076930 25.8701923076923066 0.0000000000000000 Zr
    velocity -0.7530322238066605 0.0811913311727756 -0.3497428903150333
atom 12.9350961538461515 25.8701923076923066 0.0000000000000000 Zr
    velocity -0.1915148220272075 0.0277607310383436 0.5137942430867594
atom 18.1091346153846153 25.8701923076923066 0.0000000000000000 Zr
    velocity 0.2686351298993874 0.2477776195241349 -0.0313118714956582
atom 23.2831730769230774 25.8701923076923066 0.0000000000000000 Zr
    velocity 0.1323229087951964 0.5659424811194211 -0.0868201530373395
atom 28.4572115384615394 25.8701923076923066 0.0000000000000000 Zr
    velocity 0.0389348779596100 0.0091649207625008 0.6357955188972092
atom 2.5870192307692301 0.0000000000000000 5.3052197802197822 Zr
    velocity 0.1000692614981362 0.0250207348031826 0.2406032577904128
atom 7.7610576923076930 0.0000000000000000 5.3052197802197822 Zr
    velocity 0.2987623510876581 -0.0551877350585283 -0.2067533557515013
atom 12.9350961538461515 0.0000000000000000 5.3052197802197822 Zr
    velocity 0.5342078103295972 0.3364267883032999 0.2357333113739969
atom 18.1091346153846153 0.0000000000000000 5.3052197802197822 Zr
    velocity -0.2669012357568698 0.0570205283285512 0.2803749869748869
atom 23.2831730769230774 0.0000000000000000 5.3052197802197822 Zr
    velocity -0.0960290831766116 0.1432162576618200 0.1420509008688932
atom 28.4572115384615394 0.0000000000000000 5.3052197802197822 Zr
    velocity -0.4637288230813870 0.0537482723096637 0.0442241428966316
atom 2.5870192307692301 5.1740384615384638 5.3052197802197822 Zr
    velocity -0.1767691844761104 0.2400031826270995 0.2245669505221257
atom 7.7610576923076930 5.1740384615384638 5.3052197802197822 Zr
    velocity -0.4400659377704856 0.5921599926758045 0.0971407354548544
atom 12.9350961538461515 5.1740384615384638 5.3052197802197822 Zr
    velocity 0.1229154188008016 -0.2893524961117968 0.5510410080346857
atom 18.1091346153846153 5.1740384615384638 5.3052197802197822 Zr
    velocity -0.1341753458640174 -0.1861271339706209 0.4842853244417433
atom 23.2831730769230774 5.1740384615384638 5.3052197802197822 Zr
    velocity -0.0387259302676548 -0.1388103793127585 0.1466388231843782
atom 28.4572115384615394 5.1740384615384638 5.3052197802197822 Zr
    velocity 0.6182563671721589 -0.3017650267949293 0.0345040479095588
atom 2.5870192307692301 10.3480769230769241 5.3052197802197822 Zr
    velocity -0.0833380284777602 0.4098776272033993 -0.1978348187954667
atom 7.7610576923076930 10.3480769230769241 5.3052197802197822 Zr
    velocity 0.1970298797892475 -0.0407985960704503 -0.4209182452246700
atom 12.9350961538461515 10.3480769230769241 5.3052197802197822 Zr
    velocity -0.3566699761227815 0.0836916423399683 -0.7366012794598866
atom 18.1091346153846153 10.3480769230769241 5.3052197802197822 Zr
    velocity -0.1261720764045937 0.1670172581667081 0.4251331560095307
atom 23.2831730769230774 10.3480769230769241 5.3052197802197822 Zr
    velocity -0.4483695319422449 0.1096597574069698 0.3250221101793027
atom 28.4572115384615394 10.3480769230769241 5.3052197802197822 Zr
    velocity 0.0741727645314397 -0.4837764241617185 0.0266832424945337
atom 2.5870192307692301 15.5221153846153861 5.3052197802197822 Zr
    velocity -0.1519529206359566 0.0060446462661458 -0.1830713930510077
atom 7.7610576923076930 15.5221153846153861 5.3052197802197822 Zr
    velocity -0.1431424514204107 0.2992992215014108 -0.1506956912874173
atom 12.9350961538461515 15.5221153846153861 5.3052197802197822 Zr
    velocity -0.0034425683595166 -0.5484676482390541 -0.2597686362453764
atom 18.1091346153846153 15.5221153846153861 5.3052197802197822 Zr
    velocity -0.3868863622641734 -0.2180938580266459 0.0072839089394066
atom 23.2831730769230774 15.5221153846153861 5.3052197802197822 Zr
    velocity 0.1580442139904564 0.1015797553782588 0.0077193780263434
atom 28.4572115384615394 15.5221153846153861 5.3052197802197822 Zr
    velocity 0.1016823026934114 -0.1159446400404965 -0.3716495569738035
atom 2.5870192307692301 20.6961538461538481 5.3052197802197822 Zr
    velocity 0.3014183638289767 0.1704474620558175 -0.0079826681925108
atom 7.7610576923076930 20.6961538461538481 5.3052197802197822 Zr
    velocity -0.0446782875202744 0.1146224660913462 -0.0121510056336401
atom 12.9350961538461515 20.6961538461538481 5.3052197802197822 Zr
    velocity -0.1071389705365036 0.4683996553915322 -0.2807033932784860
atom 18.1091346153846153 20.6961538461538481 5.3052197802197822 Zr
    velocity -0.1960837895610959 0.2757234830758486 -0.1197946590832754
atom 23.2831730769230774 20.6961538461538481 5.3052197802197822 Zr
    velocity -0.3147563881508711 -0.2575886876303161 0.3951334096987201
atom 28.4572115384615394 20.6961538461538481 5.3052197802197822 Zr
    velocity -0.4478058601986361 0.2450047294405698 0.0511407224423173
atom 2.5870192307692301 25.8701923076923066 5.3052197802197822 Zr
    velocity 0.1790149514954882 -0.2076769320403394 -0.3245087455533107
atom 7.7610576923076930 25.8701923076923066 5.3052197802197822 Zr
    velocity -0.1784298312166157 -0.0106894326005407 -0.1496774446239029
atom 12.9350961538461515 25.8701923076923066 5.3052197802197822 Zr
    velocity 0.0807899088322596 -0.3191802830976074 0.5761243510308393
atom 18.1091346153846153 25.8701923076923066 5.3052197802197822 Zr
    velocity -0.1164623082403870 0.1702627226507669 0.1087823326112493
atom 23.2831730769230774 25.8701923076923066 5.3052197802197822 Zr
    velocity 0.0803005543211645 0.1674609717591042 0.3868621330594508
atom 28.4572115384615394 25.8701923076923066 5.3052197802197822 Zr
    velocity -0.1293160526508956 -0.4171091734058832 -0.1718879029938973
atom 2.5870192307692301 0.0000000000000000 10.6104395604395609 Zr
    velocity -0.0592390860716507 0.2144981914517402 0.1912718313263950
atom 7.7610576923076930 0.0000000000000000 10.6104395604395609 Zr
    velocity -0.8030144679902746 0.2310394498441582 0.2430874296998968
atom 12.9350961538461515 0.0000000000000000 10.6104395604395609 Zr
    velocity 0.1572785913487106 0.3738610854442814 0.3718630677986715
atom 18.1091346153846153 0.0000000000000000 10.6104395604395609 Zr
    velocity -0.1654217084762364 0.0629877519945577 -0.1288795549727998
atom 23.2831730769230774 0.0000000000000000 10.6104395604395609 Zr
    velocity -0.2894003801416415 -0.0430529870225559 0.4414521537836037
atom 28.4572115384615394 0.0000000000000000 10.6104395604395609 Zr
    velocity 0.1700936606719855 0.3671719486511259 0.0836151364373820
atom 2.5870192307692301 5.1740384615384638 10.6104395604395609 Zr
    velocity 0.5260246736118133 0.0523033414072401 0.1979120307101796
atom 7.7610576923076930 5.1740384615384638 10.6104395604395609 Zr
    velocity -0.6746632681581117 0.2799145514623872 -0.0927085005573662
atom 12.9350961538461515 5.1740384615384638 10.6104395604395609 Zr
    velocity 0.3657011317857727 -0.5282594722132600 0.5423304837812380
atom 18.1091346153846153 5.1740384615384638 10.6104395604395609 Zr
    velocity -0.0321593859980728 -0.4009415417457667 -0.0996780943084822
atom 23.2831730769230774 5.1740384615384638 10.6104395604395609 Zr
    velocity -0.2185376187030090 0.1698960754539869 -0.4831627710086312
atom 28.4572115384615394 5.1740384615384638 10.6104395604395609 Zr
    velocity 0.3333272267301711 0.3687013151428644 0.3204538147390117
atom 2.5870192307692301 10.3480769230769241 10.6104395604395609 Zr
    velocity -0.5773647318211761 -0.2287920557923373 -0.1494757780586684
atom 7.7610576923076930 10.3480769230769241 10.6104395604395609 Zr
    velocity -0.1876615914741788 0.2510774883523302 0.2495331751005679
atom 12.9350961538461515 10.3480769230769241 10.6104395604395609 Zr
    velocity 0.1813926688030314 0.0158047392119780 0.0888553738647027
atom 18.1091346153846153 10.3480769230769241 10.6104395604395609 Zr
    velocity 0.0844476337711111 0.1466919142569754 -0.7543722415346932
atom 23.2831730769230774 10.3480769230769241 10.6104395604395609 Zr
    velocity 0.7373556057518486 -0.2979869822274359 -0.5093922231536647
atom 28.4572115384615394 10.3480769230769241 10.6104395604395609 Zr
    velocity 0.1559297651464599 0.0567855205323570 -0.6657647595639818
atom 2.5870192307692301 15.5221153846153861 10.6104395604395609 Zr
    velocity 0.1590196486870759 -0.1029279736645013 0.8104475835762487
atom 7.7610576923076930 15.5221153846153861 10.6104395604395609 Zr
    velocity 0.1073992701858361 0.6727617582824806 0.1419190478692618
atom 12.9350961538461515 15.5221153846153861 10.6104395604395609 Zr
    velocity -0.0864729970445643 0.4368018754623139 0.2412690462941147
atom 18.1091346153846153 15.5221153846153861 10.6104395604395609 Zr
    velocity -0.3136689826674160 0.0353093353962226 0.2349607418306063
atom 23.2831730769230774 15.5221153846153861 10.6104395604395609 Zr
    velocity 0.1853444247623199 0.4524351639298851 0.5329641693048163
atom 28.4572115384615394 15.5221153846153861 10.6104395604395609 Zr
    velocity 0.4514456070838502 -0.1284741207248933 -0.1985324359522979
atom 2.5870192307692301 20.6961538461538481 10.6104395604395609 Zr
    velocity -0.1523174126753474 -0.0191954764231323 0.2230672089776928
atom 7.7610576923076930 20.6961538461538481 10.6104395604395609 Zr
    velocity -0.0495222412197779 -0.3517263312567018 0.0019449358966799
atom 12.9350961538461515 20.6961538461538481 10.6104395604395609 Zr
    velocity -0.4574145070901548 -0.1158333365233933 -0.2450385089374505
atom 18.1091346153846153 20.6961538461538481 10.6104395604395609 Zr
    velocity -0.3852967086872006 0.5913993500644870 0.5022797138111498
atom 23.2831730769230774 20.6961538461538481 10.6104395604395609 Zr
    velocity -0.1375305629997876 0.3083675550533971 0.0539480310743721
atom 28.4572115384615394 20.6961538461538481 10.6104395604395609 Zr
    velocity -0.0841582022304636 0.1748311502544461 0.3478710666768862
atom 2.5870192307692301 25.8701923076923066 10.6104395604395609 Zr
    velocity 0.3374008554418765 -0.2670660273457447 0.1783012609937626
atom 7.7610576923076930 25.8701923076923066 10.6104395604395609 Zr
    velocity -0.4646130649593554 0.0405472258558345 0.0419049257334116
atom 12.9350961538461515 25.8701923076923066 10.6104395604395609 Zr
    velocity 0.1370736431076478 -0.1001508275910543 -0.3290400708114068
atom 18.1091346153846153 25.8701923076923066 10.6104395604395609 Zr
    velocity -0.5625540965107632 -0.4332736352313157 0.0076652588819587
atom 23.2831730769230774 25.8701923076923066 10.6104395604395609 Zr
    velocity 0.3568759065014544 -0.1889310077947782 0.2968042855352178
atom 28.4572115384615394 25.8701923076923066 10.6104395604395609 Zr
    velocity 0.0108062847603778 -0.0109500751019951 0.0779188971515041
atom 2.5870192307692301 0.0000000000000000 15.9156593406593423 Zr
    velocity 0.4134465305462194 0.0344046026356016 -0.0586580799189076
atom 7.7610576923076930 0.0000000000000000 15.9156593406593423 Zr
    velocity 0.1247460865039397 0.2720976001389187 -0.2494943269252440
atom 12.9350961538461515 0.0000000000000000 15.9156593406593423 Zr
    velocity 0.2428598801822034 -0.2366011586230743 -0.3758415374936501
atom 18.1091346153846153 0.0000000000000000 15.9156593406593423 Zr
    velocity -0.4766667504471697 0.2247053195236620 0.0508670255422420
atom 23.2831730769230774 0.0000000000000000 15.9156593406593423 Zr
    velocity -0.4266968490358916 -0.0719771020823606 -0.4646030927163379
atom 28.4572115384615394 0.0000000000000000 15.9156593406593423 Zr
    velocity -0.0237708803378851 -0.1648409640757887 -0.2096903950727865
atom 2.5870192307692301 5.1740384615384638 15.9156593406593423 Zr
    velocity -0.2271525611220641 0.2857185875991604 0.1752139244829920
atom 7.7610576923076930 5.1740384615384638 15.9156593406593423 Zr
    velocity -0.1517220417294881 0.0094035062283041 -0.1879895945994761
atom 12.9350961538461515 5.1740384615384638 15.9156593406593423 Zr
    velocity 0.0599680668039778 -0.1298617830749936 0.0824793409739034
atom 18.1091346153846153 5.1740384615384638 15.9156593406593423 Zr
    velocity -0.4308796602495462 0.1489731675470397 0.0468044626377211
atom 23.2831730769230774 5.1740384615384638 15.9156593406593423 Zr
    velocity -0.3525200695055168 -0.0380370411364134 -0.3756837625246516
atom 28.4572115384615394 5.1740384615384638 15.9156593406593423 Zr
    velocity 0.3511127907472857 -0.3048672049087906 0.0278285853754047
atom 2.5870192307692301 10.3480769230769241 15.9156593406593423 Zr
    velocity -0.2091844131088889 0.3126866689025560 -0.5987049382359406
atom 7.7610576923076930 10.3480769230769241 15.9156593406593423 Zr
    velocity 0.1407303460114430 0.4600906910553835 0.1391765459284258
atom 12.9350961538461515 10.3480769230769241 15.9156593406593423 Zr
    velocity -0.0376746242608586 0.1615662041924816 0.2791887557809206
atom 18.1091346153846153 10.3480769230769241 15.9156593406593423 Zr
    velocity -0.4694887636262481 -0.2252311858808514 0.1485631194326718
atom 23.2831730769230774 10.3480769230769241 15.9156593406593423 Zr
    velocity -0.0294403225719360 0.2005949422174746 -0.2107564154311128
atom 28.4572115384615394 10.3480769230769241 15.9156593406593423 Zr
    velocity 0.2136169113191602 0.2527439584553758 -0.3342859834682582
atom 2.5870192307692301 15.5221153846153861 15.9156593406593423 Zr
    velocity -0.1945839555930580 -0.0225362978882286 -0.5952712650580271
atom 7.7610576923076930 15.5221153846153861 15.9156593406593423 Zr
    velocity 0.8057476787376597 -0.2655038858618231 -0.1204754690676696
atom 12.9350961538461515 15.5221153846153861 15.9156593406593423 Zr
    velocity 0.1567295986637893 -0.1154238003895029 0.2544359132723612
atom 18.1091346153846153 15.5221153846153861 15.9156593406593423 Zr
    velocity -0.1779581921471785 0.2399660344555745 0.2142291366035267
atom 23.2831730769230774 15.5221153846153861 15.9156593406593423 Zr
    velocity 0.3201158239449583 0.0441345712454488 -0.4882092730406274
atom 28.4572115384615394 15.5221153846153861 15.9156593406593423 Zr
    velocity -0.5445183752370923 0.1045891861690827 0.3410159913535836
atom 2.5870192307692301 20.6961538461538481 15.9156593406593423 Zr
    velocity 0.1622075978213640 -0.4531866581436026 -0.3877700223029839
atom 7.7610576923076930 20.6961538461538481 15.9156593406593423 Zr
    velocity 0.1029385959770629 -0.3429720027868230 0.0016493231207229
atom 12.9350961538461515 20.6961538461538481 15.9156593406593423 Zr
    velocity 0.1103350256157561 -0.3151554077044851 0.4954141483200688
atom 18.1091346153846153 20.6961538461538481 15.9156593406593423 Zr
    velocity 0.4458675602734326 -0.1063370745412701 -0.7810117779964759
atom 23.2831730769230774 20.6961538461538481 15.9156593406593423 Zr
    velocity 0.1019871164032148 -0.4723253045367259 0.1107540071729855
atom 28.4572115384615394 20.6961538461538481 15.9156593406593423 Zr
    velocity 0.4170092437792192 -0.1315512136425503 0.5440310533549021
atom 2.5870192307692301 25.8701923076923066 15.9156593406593423 Zr
    velocity -0.1168706553600769 -0.0108065622943215 0.1543404192345068
atom 7.7610576923076930 25.8701923076923066 15.9156593406593423 Zr
    velocity -0.3093124745935586 0.3989034272779214 -0.3492681290391790
atom 12.9350961538461515 25.8701923076923066 15.9156593406593423 Zr
    velocity -0.1310169100274225 -0.6176816773804006 0.2568176362403530
atom 18.1091346153846153 25.8701923076923066 15.9156593406593423 Zr
    velocity -0.2402658798201273 -0.3942308676447840 -0.0827532305367580
atom 23.2831730769230774 25.8701923076923066 15.9156593406593423 Zr
    velocity -0.6043719712590132 0.1911280537726445 -0.3471643583064927
atom 28.4572115384615394 25.8701923076923066 15.9156593406593423 Zr
    velocity 0.0902539705229085 0.1411049956508386 -0.4437500424759565
atom 2.5870192307692301 0.0000000000000000 21.2208791208791219 Zr
    velocity 0.3334979954599177 0.3795283093168321 0.2917459846394790
atom 7.7610576923076930 0.0000000000000000 21.2208791208791219 Zr
    velocity 0.4368557778234797 -0.0087682170952409 -0.0953778110294122
atom 12.9350961538461515 0.0000000000000000 21.2208791208791219 Zr
    velocity 0.3933624905935970 0.4000702637974294 -0.1140492736309406
atom 18.1091346153846153 0.0000000000000000 21.2208791208791219 Zr
    velocity 0.1925572490556106 0.0706912081052849 -0.1841752467895111
atom 23.2831730769230774 0.0000000000000000 21.2208791208791219 Zr
    velocity 0.1302768432651831 0.0538886151519574 -0.0731375514398855
atom 28.4572115384615394 0.0000000000000000 21.2208791208791219 Zr
    velocity 0.1827748194218972 -0.1004988758992023 0.1491472553986827
atom 2.5870192307692301 5.1740384615384638 21.2208791208791219 Zr
    velocity -0.6087353705540277 -0.3803446040386316 0.0014065117390374
atom 7.7610576923076930 5.1740384615384638 21.2208791208791219 Zr
    velocity 0.0179376638994637 0.0578296141346262 0.5996736933814283
atom 12.9350961538461515 5.1740384615384638 21.2208791208791219 Zr
    velocity -0.2675692254442519 -0.5824060334721163 0.2925663786544164
atom 18.1091346153846153 5.1740384615384638 21.2208791208791219 Zr
    velocity -0.0582855106358039 0.4785239408658403 -0.4933167825786436
atom 23.2831730769230774 5.1740384615384638 21.2208791208791219 Zr
    velocity -0.1146865490622223 0.7950449163770521 -0.4807279996294819
atom 28.4572115384615394 5.1740384615384638 21.2208791208791219 Zr
    velocity 0.4618587878401539 -0.3532376450110368 -0.0646547270710912
atom 2.5870192307692301 10.3480769230769241 21.2208791208791219 Zr
    velocity 0.4903720348426032 -0.0355072878505831 0.2181076177639716
atom 7.7610576923076930 10.3480769230769241 21.2208791208791219 Zr
    velocity 0.1884420867020141 -0.0013113941623014 0.2006029187117951
atom 12.9350961538461515 10.3480769230769241 21.2208791208791219 Zr
    velocity -0.1725762151160835 -0.0999674793121554 0.2421012993748426
atom 18.1091346153846153 10.3480769230769241 21.2208791208791219 Zr
    velocity -0.1762337068399633 -0.3036300916898770 0.1256899360456616
atom 23.2831730769230774 10.3480769230769241 21.2208791208791219 Zr
    velocity 0.0307071543779420 -0.0287887860969485 -0.4093305780137245
atom 28.4572115384615394 10.3480769230769241 21.2208791208791219 Zr
    velocity 0.0858702463700249 0.0162609270446895 -0.2997639574555659
atom 2.5870192307692301 15.5221153846153861 21.2208791208791219 Zr
    velocity 0.0417077499372580 0.3567175201512832 -0.1152466206291285
atom 7.7610576923076930 15.5221153846153861 21.2208791208791219 Zr
    velocity 0.5716404346054350 0.1267959958652428 -0.1848781547620966
atom 12.9350961538461515 15.5221153846153861 21.2208791208791219 Zr
    velocity -0.0599321531210713 0.6218867203072095 0.0344561548103907
atom 18.1091346153846153 15.5221153846153861 21.2208791208791219 Zr
    velocity -0.3150518381980495 0.0867058500749102 -0.5193540896300782
atom 23.2831730769230774 15.5221153846153861 21.2208791208791219 Zr
    velocity 0.2781652495791165 -0.0613290472910880 -0.3858836051151763
atom 28.4572115384615394 15.5221153846153861 21.2208791208791219 Zr
    velocity -0.1800541523418128 -0.1477330931776824 0.1483265992502695
atom 2.5870192307692301 20.6961538461538481 21.2208791208791219 Zr
    velocity -0.1335091686454125 -0.1133670198239319 -0.0148822673102405
atom 7.7610576923076930 20.6961538461538481 21.2208791208791219 Zr
    velocity -0.2225132776176934 -0.1797306782720498 -0.1499227021500124
atom 12.9350961538461515 20.6961538461538481 21.2208791208791219 Zr
    velocity 0.6510192804585345 -0.0358451979047080 0.4347586621827372
atom 18.1091346153846153 20.6961538461538481 21.2208791208791219 Zr
    velocity -0.0821369507988471 0.0052835083456115 -0.2134526001473264
atom 23.2831730769230774 20.6961538461538481 21.2208791208791219 Zr
    velocity -0.3392683084930984 -0.0377981567042981 -0.3103697968072818
atom 28.4572115384615394 20.6961538461538481 21.2208791208791219 Zr
    velocity -0.3721191089790705 -0.1850750455768747 -0.8936387704294838
atom 2.5870192307692301 25.8701923076923066 21.2208791208791219 Zr
    velocity 0.5113141928227394 0.2889359476587632 -0.4551014776495946
atom 7.7610576923076930 25.8701923076923066 21.2208791208791219 Zr
    velocity -0.2165765120433953 0.0513395311080298 0.4504385487893055
atom 12.9350961538461515 25.8701923076923066 21.2208791208791219 Zr
    velocity 0.1740816500281488 0.3329615659166730 0.1284991168522186
atom 18.1091346153846153 25.8701923076923066 21.2208791208791219 Zr
    velocity -0.4293888479548244 0.3392996502089332 0.0801003610585846
atom 23.2831730769230774 25.8701923076923066 21.2208791208791219 Zr
    velocity 0.1995226976560325 0.1052456366427946 0.2310499201854203
atom 28.4572115384615394 25.8701923076923066 21.2208791208791219 Zr
    velocity 0.3801505933873187 0.2530803038359681 -0.7720499482010997
atom 2.5870192307692301 0.0000000000000000 26.5260989010989015 Zr
    velocity 0.2485643339524070 0.3416511157897780 0.0926091361681573
atom 7.7610576923076930 0.0000000000000000 26.5260989010989015 Zr
    velocity 0.2175287353789081 0.3174939462854194 -0.0744595076089213
atom 12.9350961538461515 0.0000000000000000 26.5260989010989015 Zr
    velocity 0.3408193921645680 0.4366311858863053 -0.3453156053006792
atom 18.1091346153846153 0.0000000000000000 26.5260989010989015 Zr
    velocity 0.4703493718107427 -0.0210212779918849 0.3177934218093726
atom 23.2831730769230774 0.0000000000000000 26.5260989010989015 Zr
    velocity -0.4244060985715252 0.3304981073512767 -0.3393565819295964
atom 28.4572115384615394 0.0000000000000000 26.5260989010989015 Zr
    velocity -0.9463887664309197 0.4438905693634130 0.2962538179744220
atom 2.5870192307692301 5.1740384615384638 26.5260989010989015 Zr
    velocity 0.0187706854805156 0.1193076091134036 -0.0075204523783706
atom 7.7610576923076930 5.1740384615384638 26.5260989010989015 Zr
    velocity 0.0859961603633996 -0.3631328842889495 -0.1738069936189001
atom 12.9350961538461515 5.1740384615384638 26.5260989010989015 Zr
    velocity 0.3736776052813181 -0.6095114583115423 0.1983941902742570
atom 18.1091346153846153 5.1740384615384638 26.5260989010989015 Zr
    velocity -0.2529866842381822 -0.1035296016761331 0.1437075458999028
atom 23.2831730769230774 5.1740384615384638 26.5260989010989015 Zr
    velocity -0.1311268532905919 0.1461146654759394 -0.4761720173636512
atom 28.4572115384615394 5.1740384615384638 26.5260989010989015 Zr
    velocity 0.0576918775624400 0.4312325334502803 -0.2080962035184564
atom 2.5870192307692301 10.3480769230769241 26.5260989010989015 Zr
    velocity -0.1014698939414314 -0.2881653283086278 0.0424834276765871
atom 7.7610576923076930 10.3480769230769241 26.5260989010989015 Zr
    velocity -0.6328314633883774 -0.2342032255271542 -0.6874044783548003
atom 12.9350961538461515 10.3480769230769241 26.5260989010989015 Zr
    velocity -0.0770054999490404 0.4269652382483826 -0.2970324602085765
atom 18.1091346153846153 10.3480769230769241 26.5260989010989015 Zr
    velocity -0.3673792140533057 -0.4567491962357162 -0.2274973148504078
atom 23.2831730769230774 10.3480769230769241 26.5260989010989015 Zr
    velocity 0.2545723261155224 0.1193403993613301 0.1764745656734965
atom 28.4572115384615394 10.3480769230769241 26.5260989010989015 Zr
    velocity -0.1884019672371179 -0.2558978631462718 -0.1262762444874238
atom 2.5870192307692301 15.5221153846153861 26.5260989010989015 Zr
    velocity 0.2879840557723947 -0.0791542992342017 0.0168972925511350
atom 7.7610576923076930 15.5221153846153861 26.5260989010989015 Zr
    velocity 0.1522024135257115 -0.0396211122805875 -0.4666831221513311
atom 12.9350961538461515 15.5221153846153861 26.5260989010989015 Zr
    velocity -0.3682815133374553 0.3250848640218745 0.2218113423817768
atom 18.1091346153846153 15.5221153846153861 26.5260989010989015 Zr
    velocity 0.2976266677702303 0.0915364470092207 -0.2854722238102424
atom 23.2831730769230774 15.5221153846153861 26.5260989010989015 Zr
    velocity 0.2459550513995100 -0.2027329075790751 -0.1712155990037477
atom 28.4572115384615394 15.5221153846153861 26.5260989010989015 Zr
    velocity -0.4864302377333112 -0.0694497567320956 -0.2000997304340922
atom 2.5870192307692301 20.6961538461538481 26.5260989010989015 Zr
    velocity -0.1542081423482171 -0.0644699365751978 0.3764093552524524
atom 7.7610576923076930 20.6961538461538481 26.5260989010989015 Zr
    velocity -0.5085788304428723 0.0369318896463095 0.0222616739163595
atom 12.9350961538461515 20.6961538461538481 26.5260989010989015 Zr
    velocity -0.0278073573404677 -0.5595683512600332 -0.2916883235496835
atom 18.1091346153846153 20.6961538461538481 26.5260989010989015 Zr
    velocity -0.4757987184453318 0.0988576242793138 0.0421065521239596
atom 23.2831730769230774 20.6961538461538481 26.5260989010989015 Zr
    velocity 0.1803069780752881 0.0758828685664226 0.3565266258189074
atom 28.4572115384615394 20.6961538461538481 26.5260989010989015 Zr
    velocity 0.1736617306099202 -0.2763440460114178 -0.0918926658836527
atom 2.5870192307692301 25.8701923076923066 26.5260989010989015 Zr
    velocity 0.5809643197983916 -0.1384176006530574 -1.0344215221503068