#=======================================================
# FHI-aims file: geometry.in.supercell.0010K
# Created using the Atomic Simulation Environment (ASE)
# Mon Dec 28 22:31:12 2020

# Additional information:
#  created from MB distrubtion
#  T = 10.0 K
#  quantum:             False
#  deterministic:       False
#  plus_minus:          False
#  gauge_eigenvectors:  False
#  Random seed:         909384182
#  Sample number:       1
#=======================================================
lattice_vector 10.1952194790879993 0.0000002312840000 0.0000001149100000 
lattice_vector 0.0000002312840000 10.1952585700719993 -0.0000000817060000 
lattice_vector 0.0000001174240000 -0.0000000834940000 10.4472499926080005 
atom 10.1952195705575175 0.0000001715475008 10.4472500947462343 Zr
    velocity -0.3104744752249574 0.6882960761054112 -0.0110619321860419
atom 2.5488050190625202 2.5488146406025010 10.4472499881372372 Zr
    velocity 0.0742226608771315 0.0168737547807148 -0.0538259065663076
atom 5.0976099466555187 5.0976293409415012 10.4472499964382344 Zr
    velocity 0.1284518722363782 -0.5396569061387908 -0.2812400004122732
atom 7.6464148742485190 7.6464440412804997 10.4472500047392334 Zr
    velocity 0.5353140947560648 -0.5626809233948724 -0.2502160406084073
atom 7.6464147586065190 2.5488147562445009 10.4472500455922344 Zr
    velocity 0.3075656941366935 0.0873810511938681 0.5258336162092555
atom 10.1952196861995183 5.0976294565835012 10.4472500538932334 Zr
    velocity 0.2228236145524648 0.0585472969617569 -0.0339906553783472
atom 2.5488051347045202 7.6464439256384997 10.4472499472842326 Zr
    velocity -0.5155574285038561 -0.3343062019140738 -0.2314425797561205
atom 5.0976098310135187 0.0000000559055008 10.4472500372912371 Zr
    velocity 0.3094523632601888 -0.0489074320199105 0.0884520344943847
atom 10.1952195118455187 0.0000002132945008 5.2236250984422359 Zr
    velocity -0.2559460837277704 0.1849771192621136 -0.3907025378646795
atom 2.5488049603505201 2.5488146823495006 5.2236249918332351 Zr
    velocity 0.2404451481735023 -0.4087901100761877 0.0290084521136982
atom 5.0976098879435190 5.0976293826885017 5.2236250001342359 Zr
    velocity 0.0610991536368192 0.0201829500849785 -0.1077210895331774
atom 7.6464148155365192 7.6464440830275002 5.2236250084352358 Zr
    velocity -0.5150683604703947 -0.0558564265091815 0.1051715298275859
atom 7.6464146998945193 2.5488147979915006 5.2236250492882359 Zr
    velocity 0.6134550364743624 -0.2686704204895448 -0.4490526692907473
atom 10.1952196274875195 5.0976294983305017 5.2236250575892358 Zr
    velocity -0.3215149900629928 -0.3398537366506458 -0.0151487778823795
atom 2.5488050759925200 7.6464439673855003 5.2236249509802359 Zr
    velocity 0.5837584417932724 0.2938348336359225 -0.0480799851194201
atom 5.0976097723015190 0.0000000976525008 5.2236250409872360 Zr
    velocity 0.1708025292955520 -0.2315739354519359 -0.1842062025037204
atom 0.0000001020416280 2.5488145286739359 2.6118124866735699 Zr
    velocity 0.0738875279855414 0.2459232018281829 0.0949820317063427
atom 2.5488050296346279 5.0976292290129361 2.6118124949745689 Zr
    velocity -0.1021392725740662 0.1511626943614856 -0.3885840588960292
atom 5.0976099572276272 7.6464439293519364 2.6118125032755688 Zr
    velocity 0.1055868102778429 0.3809227033598413 0.0337514210660809
atom 7.6464148848206275 10.1952586296909367 2.6118125115765700 Zr
    velocity -0.2770374467248885 -0.3576104588813226 0.2472419970229884
atom 7.6464147691786275 5.0976293446549361 2.6118125524295688 Zr
    velocity -0.3351791132310430 0.3354004473014321 0.0056898089551641
atom 0.0000002176836280 7.6464438137099364 2.6118124458205698 Zr
    velocity -0.2389752682620500 -0.0923631045174975 0.1629812601055979
atom 2.5488051452766278 10.1952585140489358 2.6118124541215688 Zr
    velocity -0.0359353374050084 0.2016321175119643 -0.1786227478651229
atom 5.0976098415856272 2.5488146443159372 2.6118125441285689 Zr
    velocity -0.2503261501080485 -0.0355915234118011 0.1863741541800284
atom 0.0000001607536280 2.5488144869269376 7.8354374829775697 Zr
    velocity 0.2537860070541623 -0.0572732730846911 0.3379752954584389
atom 2.5488050883466276 5.0976291872659365 7.8354374912785696 Zr
    velocity 0.1729094751278090 -0.0120137621586290 -0.9450912630120468
atom 5.0976100159396269 7.6464438876049368 7.8354374995795686 Zr
    velocity -0.1121848726433856 -0.0840916616414284 -0.3178549875624765
atom 7.6464149435326272 10.1952585879439361 7.8354375078805685 Zr
    velocity -0.2963827442477300 -0.0946118285018822 0.3022161882928077
atom 7.6464148278906272 5.0976293029079365 7.8354375487335686 Zr
    velocity 0.4328214764680673 0.1441134766463749 0.7063325101261860
atom 0.0000002763956280 7.6464437719629368 7.8354374421245696 Zr
    velocity -0.1190784894191743 -0.0205193176148066 0.3081145631148663
atom 2.5488052039886275 10.1952584723019353 7.8354374504255695 Zr
    velocity 0.4495565968285596 -0.1388871585932787 0.0931164605000827
atom 5.0976099002976270 2.5488146025689384 7.8354375404325696 Zr
    velocity 0.1092957723481604 0.4327186233353750 -0.1103036160936287
atom 1.2744024515736083 1.2744073718773856 1.0024190245136309 O
    velocity -0.2023281178727156 0.2636170281621413 1.7909952463862182
atom 3.8232073791666079 3.8232220722163857 1.0024190328146307 O
    velocity 0.0533350695645905 -0.0964138386283463 0.3230196648738851
atom 6.3720123067596077 6.3720367725553846 1.0024190411156308 O
    velocity -0.5949238595155798 -0.4831329183780494 -1.1251959153392717
atom 8.9208172343526080 8.9208514728943840 1.0024190494166307 O
    velocity -0.2381788560659427 0.1996483117747472 -0.0637345906110856
atom 8.9208171187106071 3.8232221878583856 1.0024190902696308 O
    velocity 1.1402793290721724 -0.2013132090113335 0.6009365659918209
atom 1.2744025672156083 6.3720366569133855 1.0024189836606308 O
    velocity 0.1100742962742897 0.5530257452824729 0.2716508540277469
atom 3.8232074948086079 8.9208513572523866 1.0024189919616309 O
    velocity -1.0222784064228290 -0.7320025727153947 -0.7496392517133669
atom 6.3720121911176069 1.2744074875193858 1.0024190819686307 O
    velocity -0.5434900376127850 -1.0574746855720294 -0.4644386722411826
atom 1.2744025102856082 1.2744073301303855 6.2260440208176311 O
    velocity 1.6583919721039717 0.1946564965132775 0.6955170080674733
atom 3.8232074378786081 3.8232220304693865 6.2260440291186310 O
    velocity 1.0431843758808572 -0.8494418908394280 -0.9344062627774700
atom 6.3720123654716074 6.3720367308083841 6.2260440374196282 O
    velocity 1.4897107499689211 1.0936478388053239 0.4758049608174231
atom 8.9208172930646086 8.9208514311473852 6.2260440457206290 O
    velocity -0.3221861256220852 0.3373260305889500 -0.7391185117234895
atom 8.9208171774226077 3.8232221461113864 6.2260440865736282 O
    velocity -0.0984314588753917 0.3132658110424880 1.5434117631771380
atom 1.2744026259276082 6.3720366151663841 6.2260439799646310 O
    velocity 0.8440323047991506 0.4001720652633131 1.2132855120662214
atom 3.8232075535206080 8.9208513155053879 6.2260439882656282 O
    velocity -0.1421750086951099 -0.3612356172838601 0.3468249253089409
atom 6.3720122498296066 1.2744074457723857 6.2260440782726310 O
    velocity 1.8191432596062822 -0.3624474078389640 0.6281359673804446
atom 1.2744025328003397 1.2744073262829310 3.6142318818368619 O
    velocity 0.1254855612200595 -0.3631956540765922 -0.9583186510186145
atom 3.8232074603933399 3.8232220266219321 3.6142318901378605 O
    velocity 0.0352725379936287 -0.8418413712588426 -1.0910525762556993
atom 6.3720123879863388 6.3720367269609302 3.6142318984388608 O
    velocity -0.7035689535680513 0.4453596145295936 -0.6317777335906601
atom 8.9208173155793382 8.9208514272999295 3.6142319067398607 O
    velocity -0.2567686556964031 1.0856485301370762 0.4739786179420634
atom 8.9208171999373391 3.8232221422639321 3.6142319475928608 O
    velocity 0.3472426746007349 0.8293609782635405 1.0831950333529741
atom 1.2744026484423396 6.3720366113189302 3.6142318409838605 O
    velocity -0.7189884103095724 -0.0542257043384581 0.4714613209773195
atom 3.8232075760353399 8.9208513116579340 3.6142318492848604 O
    velocity 0.6026572397975398 0.7534209801149060 0.4114228710494564
atom 6.3720122723443389 1.2744074419249318 3.6142319392918605 O
    velocity -1.1027498806843226 -0.0033201595702038 -0.1792971629473609
atom 1.2744025915123398 1.2744072845359309 8.8378568781408617 O
    velocity -0.6827537627120089 -0.7196869635094472 0.2832597590800798
atom 3.8232075191053396 3.8232219848749307 8.8378568864418625 O
    velocity -0.5837035647327676 -0.7108893095039832 -0.7397293853806166
atom 6.3720124466983394 6.3720366852139296 8.8378568947428615 O
    velocity 0.0231974057003261 0.5139625332602723 -0.0535543398700024
atom 8.9208173742913388 8.9208513855529290 8.8378569030438587 O
    velocity -0.2536614289405452 0.9096535725712032 0.9730433893825668
atom 8.9208172586493397 3.8232221005169307 8.8378569438968615 O
    velocity -0.3218165940905243 0.3902962353027312 0.2685723768133089
atom 1.2744027071543398 6.3720365695719297 8.8378568372878625 O
    velocity 0.0171303053855432 0.4272369261866555 -0.0521003232076960
atom 3.8232076347473396 8.9208512699109299 8.8378568455888615 O
    velocity 0.9011247237777291 0.4878989647077902 -0.3822041321932634
atom 6.3720123310563395 1.2744074001779317 8.8378569355958625 O
    velocity -0.1579846844245420 0.8398124152917931 -0.0986588809376839
atom 8.9208170733548702 1.2744075145374438 1.6093931900202196 O
    velocity -0.3399895975263988 0.0433527617731667 0.7122751370282809
atom 1.2744025218598707 3.8232219835924428 1.6093930834112196 O
    velocity -1.0566395141452896 0.3110078731562042 -0.8570525970395664
atom 3.8232074494528705 6.3720366839314426 1.6093930917122194 O
    velocity 0.3839714193458421 0.0486843632531716 1.1206784821949416
atom 6.3720123770458708 8.9208513842704420 1.6093931000132196 O
    velocity -0.0590986250951101 0.3426125642110156 -0.1183374741313293
atom 6.3720122614038708 3.8232220992344428 1.6093931408662194 O
    velocity 0.0933339014561333 -1.8345185001086233 0.8896510326654677
atom 8.9208171889968693 6.3720367995734426 1.6093931491672195 O
    velocity -0.3191412289518064 0.3205439404642456 -0.4941772325917647
atom 1.2744026375018709 8.9208512686284411 1.6093930425582195 O
    velocity 0.0008581155507931 -1.3286583790727153 1.1825509973111086
atom 3.8232073338108705 1.2744073988954427 1.6093931325652195 O
    velocity -0.3869479406310773 0.1229908203653747 -1.2165432231916562
atom 8.9208171320668708 1.2744074727904438 6.8330181863242210 O
    velocity -0.2926203688314871 -0.3856788053547143 1.1701133556248220
atom 1.2744025805718706 3.8232219418454427 6.8330180797152194 O
    velocity 0.0495620304624641 0.9016712431873378 -0.1467854656673684
atom 3.8232075081648702 6.3720366421844430 6.8330180880162210 O
    velocity -0.9660624553496078 -0.4835429541956069 0.5960072262595832
atom 6.3720124357578705 8.9208513425234468 6.8330180963172182 O
    velocity -1.9845210069180610 -0.0139956232171661 -1.1675326717505865
atom 6.3720123201158705 3.8232220574874427 6.8330181371702210 O
    velocity -1.3245725894158034 0.4021325342984436 -0.3904010798666002
atom 8.9208172477088699 6.3720367578264430 6.8330181454712182 O
    velocity -0.9171996868637888 -0.3681414855387565 -0.5264757580012224
atom 1.2744026962138708 8.9208512268814424 6.8330180388622210 O
    velocity 0.0669379451522006 0.1218476086202554 -0.0145738262421771
atom 3.8232073925228702 1.2744073571484427 6.8330181288692193 O
    velocity 0.0957701377317094 -0.3669626888301681 1.0466904729998128
atom 8.9208171446055804 1.2744075206278507 4.2212060890279774 O
    velocity -1.7219213857166655 -0.2040824692936293 -0.2929719741982177
atom 1.2744025931105816 3.8232219896828505 4.2212059824189776 O
    velocity 0.1782037808940738 0.9410903917720004 0.7474465934128359
atom 3.8232075207035812 6.3720366900218535 4.2212059907199775 O
    velocity 0.0307670513799771 0.3293788893393907 -1.5509569867471709
atom 6.3720124482965810 8.9208513903608520 4.2212059990209783 O
    velocity -0.5325998648043528 0.5932970052685607 -1.4909201276108794
atom 6.3720123326545810 3.8232221053248505 4.2212060398739775 O
    velocity 0.6516242670249875 0.4506755580460005 0.2885619661670369
atom 8.9208172602475813 6.3720368056638534 4.2212060481749782 O
    velocity 0.5927244424471695 -0.3297879159924011 0.4548042907458117
atom 1.2744027087525815 8.9208512747188546 4.2212059415659775 O
    velocity 0.2276516943236779 0.9192934365456764 0.2046558460186080
atom 3.8232074050615812 1.2744074049858529 4.2212060315729776 O
    velocity -0.4942458879760294 0.7759250569378011 -0.4129355350584653
atom 8.9208172033175792 1.2744074788808506 9.4448310853319768 O
    velocity 0.3858772815558892 -0.3194259075545919 0.7429048594266777
atom 1.2744026518225815 3.8232219479358522 9.4448309787229743 O
    velocity 0.5947321098181660 -0.1510188330695836 1.3894731815528825
atom 3.8232075794155813 6.3720366482748512 9.4448309870239768 O
    velocity -1.1360985494515810 -0.9085763306521613 -0.7867036925285948
atom 6.3720125070085816 8.9208513486138514 9.4448309953249758 O
    velocity -0.1198811733628480 -0.4302338261199585 0.1638511136589876
atom 6.3720123913665816 3.8232220635778522 9.4448310361779768 O
    velocity 0.4557021792444719 -0.0480203323472240 0.4333805958621395
atom 8.9208173189595801 6.3720367639168511 9.4448310444789758 O
    velocity 0.6646999300120384 -0.7981436721003735 -0.2206648843814627
atom 1.2744027674645815 8.9208512329718488 9.4448309378699769 O
    velocity -0.4778836516296777 0.6943998128336191 0.5663248884962010
atom 3.8232074637735813 1.2744073632388528 9.4448310278769743 O
    velocity -1.2181942772285836 -0.0333222550478292 -1.2237464882481184
