#=======================================================
# FHI-aims file: geometry.in.primitive.supercell_96
# Created using the Atomic Simulation Environment (ASE)
# Mon Dec 28 22:31:11 2020

# Additional information:
#  Number of atoms:     96
#  Spacegroup:          68
#  supercell:           True
#  supercell_matrix:    [2, -2, 0, 2, 2, 0, 0, 0, 2]
#  Supercell matrix:    [ 2 -2  0  2  2  0  0  0  2]
#=======================================================
lattice_vector 10.1952194790879993 0.0000002312840000 0.0000001149100000 
lattice_vector 0.0000002312840000 10.1952585700719993 -0.0000000817060000 
lattice_vector 0.0000001174240000 -0.0000000834940000 10.4472499926080005 
atom_frac 0.9999999974542498 0.0000000023302500 0.9999999987774997 Zr
atom_frac 0.2499999974542500 0.2500000023302500 0.9999999987775000 Zr
atom_frac 0.4999999974542499 0.5000000023302501 0.9999999987774997 Zr
atom_frac 0.7499999974542499 0.7500000023302500 0.9999999987774997 Zr
atom_frac 0.7499999974542499 0.2500000023302500 0.9999999987774997 Zr
atom_frac 0.9999999974542498 0.5000000023302501 0.9999999987774997 Zr
atom_frac 0.2499999974542500 0.7500000023302500 0.9999999987774997 Zr
atom_frac 0.4999999974542499 0.0000000023302500 0.9999999987775000 Zr
atom_frac 0.9999999974542498 0.0000000023302500 0.4999999987774999 Zr
atom_frac 0.2499999974542500 0.2500000023302500 0.4999999987774999 Zr
atom_frac 0.4999999974542499 0.5000000023302501 0.4999999987774999 Zr
atom_frac 0.7499999974542499 0.7500000023302500 0.4999999987774999 Zr
atom_frac 0.7499999974542499 0.2500000023302500 0.4999999987774999 Zr
atom_frac 0.9999999974542498 0.5000000023302501 0.4999999987774999 Zr
atom_frac 0.2499999974542500 0.7500000023302500 0.4999999987774999 Zr
atom_frac 0.4999999974542499 0.0000000023302500 0.4999999987774999 Zr
atom_frac 0.0000000014580000 0.2499999908809999 0.2500000008564999 Zr
atom_frac 0.2500000014580000 0.4999999908809999 0.2500000008564998 Zr
atom_frac 0.5000000014579999 0.7499999908810000 0.2500000008564998 Zr
atom_frac 0.7500000014579999 0.9999999908810000 0.2500000008564999 Zr
atom_frac 0.7500000014579999 0.4999999908809999 0.2500000008564998 Zr
atom_frac 0.0000000014580000 0.7499999908810000 0.2500000008564999 Zr
atom_frac 0.2500000014580000 0.9999999908809999 0.2500000008564998 Zr
atom_frac 0.5000000014579999 0.2499999908810000 0.2500000008564998 Zr
atom_frac 0.0000000014580000 0.2499999908810000 0.7500000008564999 Zr
atom_frac 0.2500000014580000 0.4999999908809999 0.7500000008564999 Zr
atom_frac 0.5000000014579999 0.7499999908810000 0.7500000008564998 Zr
atom_frac 0.7500000014579999 0.9999999908810000 0.7500000008564998 Zr
atom_frac 0.7500000014579999 0.4999999908809999 0.7500000008564998 Zr
atom_frac 0.0000000014580000 0.7499999908810000 0.7500000008564999 Zr
atom_frac 0.2500000014580000 0.9999999908809999 0.7500000008564999 Zr
atom_frac 0.5000000014579999 0.2499999908810001 0.7500000008564999 Zr
atom_frac 0.1249999976960000 0.1250000029150000 0.0959505153100000 O
atom_frac 0.3749999976960000 0.3750000029150000 0.0959505153100000 O
atom_frac 0.6249999976960000 0.6250000029149999 0.0959505153100000 O
atom_frac 0.8749999976960000 0.8750000029149999 0.0959505153100000 O
atom_frac 0.8749999976960000 0.3750000029150000 0.0959505153100000 O
atom_frac 0.1249999976960000 0.6250000029150000 0.0959505153100000 O
atom_frac 0.3749999976960000 0.8750000029150002 0.0959505153100000 O
atom_frac 0.6249999976959999 0.1250000029150000 0.0959505153100000 O
atom_frac 0.1249999976960000 0.1250000029150000 0.5959505153100000 O
atom_frac 0.3749999976960000 0.3750000029150001 0.5959505153100000 O
atom_frac 0.6249999976960000 0.6250000029149999 0.5959505153099998 O
atom_frac 0.8749999976960000 0.8750000029149999 0.5959505153099998 O
atom_frac 0.8749999976960000 0.3750000029150001 0.5959505153099998 O
atom_frac 0.1249999976960000 0.6250000029149999 0.5959505153100000 O
atom_frac 0.3749999976960000 0.8750000029150002 0.5959505153099998 O
atom_frac 0.6249999976959999 0.1250000029150000 0.5959505153100000 O
atom_frac 0.1250000027837500 0.1250000004902500 0.3459505496894999 O
atom_frac 0.3750000027837500 0.3750000004902501 0.3459505496894998 O
atom_frac 0.6250000027837500 0.6250000004902500 0.3459505496894998 O
atom_frac 0.8750000027837500 0.8750000004902500 0.3459505496894998 O
atom_frac 0.8750000027837500 0.3750000004902501 0.3459505496894998 O
atom_frac 0.1250000027837500 0.6250000004902500 0.3459505496894998 O
atom_frac 0.3750000027837500 0.8750000004902503 0.3459505496894998 O
atom_frac 0.6250000027837500 0.1250000004902501 0.3459505496894998 O
atom_frac 0.1250000027837500 0.1250000004902500 0.8459505496894998 O
atom_frac 0.3750000027837500 0.3750000004902500 0.8459505496894999 O
atom_frac 0.6250000027837500 0.6250000004902500 0.8459505496894998 O
atom_frac 0.8750000027837500 0.8750000004902498 0.8459505496894996 O
atom_frac 0.8750000027837500 0.3750000004902500 0.8459505496894998 O
atom_frac 0.1250000027837500 0.6250000004902500 0.8459505496894999 O
atom_frac 0.3750000027837500 0.8750000004902500 0.8459505496894998 O
atom_frac 0.6250000027837500 0.1250000004902501 0.8459505496894999 O
atom_frac 0.8749999982495000 0.1250000003695001 0.1540494484984999 O
atom_frac 0.1249999982495000 0.3750000003695000 0.1540494484984999 O
atom_frac 0.3749999982495000 0.6250000003695000 0.1540494484984999 O
atom_frac 0.6249999982495000 0.8750000003695000 0.1540494484984999 O
atom_frac 0.6249999982495000 0.3750000003695000 0.1540494484984999 O
atom_frac 0.8749999982495000 0.6250000003695000 0.1540494484984999 O
atom_frac 0.1249999982495000 0.8750000003695000 0.1540494484984999 O
atom_frac 0.3749999982495000 0.1250000003695000 0.1540494484984999 O
atom_frac 0.8749999982495000 0.1250000003695001 0.6540494484985000 O
atom_frac 0.1249999982495000 0.3750000003695000 0.6540494484984999 O
atom_frac 0.3749999982495000 0.6250000003695000 0.6540494484985000 O
atom_frac 0.6249999982495000 0.8750000003695003 0.6540494484984998 O
atom_frac 0.6249999982495000 0.3750000003695000 0.6540494484985000 O
atom_frac 0.8749999982495000 0.6250000003695000 0.6540494484984998 O
atom_frac 0.1249999982495000 0.8750000003695000 0.6540494484985000 O
atom_frac 0.3749999982495000 0.1250000003695000 0.6540494484984999 O
atom_frac 0.8750000023587499 0.1250000030142500 0.4040494868679998 O
atom_frac 0.1250000023587500 0.3750000030142500 0.4040494868679998 O
atom_frac 0.3750000023587500 0.6250000030142503 0.4040494868679998 O
atom_frac 0.6250000023587500 0.8750000030142502 0.4040494868679999 O
atom_frac 0.6250000023587500 0.3750000030142500 0.4040494868679998 O
atom_frac 0.8750000023587499 0.6250000030142503 0.4040494868679999 O
atom_frac 0.1250000023587500 0.8750000030142504 0.4040494868679998 O
atom_frac 0.3750000023587500 0.1250000030142502 0.4040494868679998 O
atom_frac 0.8750000023587499 0.1250000030142500 0.9040494868679997 O
atom_frac 0.1250000023587500 0.3750000030142501 0.9040494868679995 O
atom_frac 0.3750000023587500 0.6250000030142501 0.9040494868679997 O
atom_frac 0.6250000023587500 0.8750000030142502 0.9040494868679997 O
atom_frac 0.6250000023587500 0.3750000030142501 0.9040494868679997 O
atom_frac 0.8750000023587499 0.6250000030142501 0.9040494868679997 O
atom_frac 0.1250000023587500 0.8750000030142498 0.9040494868679997 O
atom_frac 0.3750000023587500 0.1250000030142502 0.9040494868679995 O
