#=======================================================
# FHI-aims file: starting_geometries/geometry_300_2.in
# Created using the Atomic Simulation Environment (ASE)
# Wed Jan 13 17:51:51 2021

# Additional information:
# starting geometry from CC, T=300, ens=2
#=======================================================
lattice_vector 10.1515389999999996 0.0000000000000000 0.0000000000000000 
lattice_vector 0.0000000000000000 10.1515500000000003 0.0000000000000000 
lattice_vector 0.0000000000000000 0.0000000000000000 10.3735759999999999 
atom_frac 0.1661270965909701 0.5564714009190714 0.9782854870875771 Zr
    velocity -1.4081771608507003 2.1677902519780350 1.3549948849425775
atom_frac 0.6604773039831695 0.5622055715629632 0.9745732378111462 Zr
    velocity -1.8071801977746800 -1.8404910279472806 0.2916915019773785
atom_frac 0.1689934009020702 0.0668389546423945 0.9776848137999855 Zr
    velocity 0.5338061291021534 -1.2930380947853246 -1.2675116613396733
atom_frac 0.6680937461797666 0.0619356157434086 0.9794906780458348 Zr
    velocity -0.3358191479328430 0.3266911475939854 0.6112358990459418
atom_frac 0.1597842632530890 0.5600786500583655 0.4825702322901957 Zr
    velocity -0.6043917392175229 0.5668324803239913 -0.9949361958923758
atom_frac 0.6723878005098538 0.5602923721008122 0.4829576570316735 Zr
    velocity 0.0781152453158184 -0.1048472358709613 -2.7813250492867656
atom_frac 0.1640105042200991 0.0529528751766972 0.4778323588702680 Zr
    velocity 1.7406616691515808 0.6020691997346868 -0.2609570640136984
atom_frac 0.6670442590034871 0.0634969901148101 0.4798143215030188 Zr
    velocity 1.3826344547347846 -0.4006256111577950 -2.0502931805699043
atom_frac 0.1630796187651941 0.8204198531258773 0.2251670070186019 Zr
    velocity -1.4592503322486339 -1.5670438404817444 1.8581836088606474
atom_frac 0.6690057842461129 0.8211304500297985 0.2332828756448114 Zr
    velocity 0.2354524276750126 0.3739344555014922 4.5740603527319061
atom_frac 0.1647257208980825 0.3098974678743640 0.2323075658769936 Zr
    velocity -1.1087920033314731 0.9663600035987899 -1.5242399280410210
atom_frac 0.6695005594718200 0.3194744447892194 0.2247419491600582 Zr
    velocity 1.8394920196007813 -2.3488459373612578 -0.7512475422804952
atom_frac 0.1635919637406703 0.8071955908211060 0.7312647740759791 Zr
    velocity -0.0745973598528646 -2.6891695668354658 -2.3255209501175815
atom_frac 0.6575746032202606 0.8045825908358822 0.7343432361222397 Zr
    velocity 2.8725807588668504 -1.4842887993577092 -2.0982628560302095
atom_frac 0.1630284304675380 0.3069126635833937 0.7253320262945006 Zr
    velocity 0.0162048076533029 -0.8968375737192401 1.6536469657743140
atom_frac 0.6535079291918202 0.3121932857543922 0.7252582446014759 Zr
    velocity -0.0368189308107840 -1.9335191507416931 0.6462062870603943
atom_frac 0.4137810828486203 0.5678387034492269 0.2356718994491389 Zr
    velocity -0.0814236058712358 -1.7769979529741491 1.1831450245970880
atom_frac 0.9154173047062126 0.5613239593953633 0.2243015475087858 Zr
    velocity 2.7034626193472273 0.4755318838151289 -1.6047468626010577
atom_frac 0.4124974794462200 0.0729827602681364 0.2291766455463381 Zr
    velocity -3.8512014319551975 0.9420599933886127 -1.9881689613398119
atom_frac 0.9250529619203552 0.0493788564307914 0.2225974957912296 Zr
    velocity 2.7620366741557039 0.7640641406608967 1.3936910588453284
atom_frac 0.4147384746293149 0.5600893331560205 0.7301085749022322 Zr
    velocity 1.4181569751874661 1.2447886679096141 -2.3870913570959345
atom_frac 0.9163188931254661 0.5510010106830976 0.7313290961573906 Zr
    velocity 1.7089052905888837 -2.8329435402579168 -0.4917347215825912
atom_frac 0.4129967466016730 0.0631103969344583 0.7353568123470633 Zr
    velocity -0.4177866803400418 0.6899753586298258 0.4052924829802776
atom_frac 0.9121683392045286 0.0609480699991627 0.7351979548807469 Zr
    velocity -0.7469312318583989 2.0547034760577323 2.1904103854250754
atom_frac 0.4194519067502968 0.8162287581699346 0.9868479914737213 Zr
    velocity 2.4154609710641664 2.7375035779292487 -0.5003681635959536
atom_frac 0.9185859789338346 0.8016176997601351 0.9739344012132364 Zr
    velocity 0.1862555674905944 2.2688814087861493 0.9547230524923576
atom_frac 0.4160393956029722 0.3158990213317178 0.9873971425090056 Zr
    velocity 2.3697582950101643 -0.1306460445066209 1.9602072645541224
atom_frac 0.9108688071828323 0.3084782934625747 0.9759491191851295 Zr
    velocity 0.3438174704438973 -2.8113796629138972 0.3308436642932955
atom_frac 0.4195456797240301 0.8091041732543306 0.4742750166384282 Zr
    velocity 0.9997144583258678 -0.0082871736195817 -0.4019216404144888
atom_frac 0.9141627737429764 0.8070317921893702 0.4840224306449387 Zr
    velocity -0.4269105671822459 1.4015454544622992 3.1468864734577169
atom_frac 0.4097027258625515 0.3085565081194497 0.4776082182267716 Zr
    velocity -1.1701503895106267 -3.1775253755483042 1.0045234615755210
atom_frac 0.9257018142766335 0.3022570001625368 0.4700475901463488 Zr
    velocity -2.9832633252040766 0.9226946883487565 -0.8448603312507067
atom_frac 0.2984867151670304 0.6869614718934547 0.0772086674836141 O
    velocity -2.6679237340969091 2.3108205436253044 -2.1867551787662052
atom_frac 0.8010621325495573 0.6772755874718639 0.0716481163294123 O
    velocity -0.7568709515018667 -0.5864741569135175 -0.7468157692273997
atom_frac 0.2891393383801215 0.1916041402544439 0.0861647449249902 O
    velocity 1.0370879915958287 -0.1754957901911161 -8.9430055741856016
atom_frac 0.7997666649362231 0.1727091321029793 0.0747494894720972 O
    velocity 0.3326642980458026 -0.4884266805149581 -0.3617603453113268
atom_frac 0.2918279110192061 0.6790214775083608 0.5725478012596620 O
    velocity -2.2089577705303061 3.3285100985040850 -4.8987254657225758
atom_frac 0.7836964552862380 0.6941423703769375 0.5829756855302356 O
    velocity -4.0248565554981974 -1.9780677038399290 1.9489948230733189
atom_frac 0.2967709526604784 0.1768431313444745 0.5848954111870390 O
    velocity -3.0243042759025274 -1.3292087399109282 0.9492505337760769
atom_frac 0.7820028283396242 0.1926535425624658 0.5851862713494362 O
    velocity -0.0946187535007757 5.5029107463990075 -3.7974099774889236
atom_frac 0.2954449438651617 0.6929382971073383 0.3385289364053437 O
    velocity -1.5429947025753319 -3.3873404581743358 0.5794377983681609
atom_frac 0.7887563698469759 0.6826241903945703 0.3318181444855660 O
    velocity -3.4156542646222645 1.5480909886250074 -8.6892852159615224
atom_frac 0.2887045599686905 0.2031214326876191 0.3354688624250692 O
    velocity 3.1003731247247091 -1.9125472255115876 2.6571652597030813
atom_frac 0.8037882393989719 0.1960419413784102 0.3243363619257236 O
    velocity 0.0326816025267759 -3.6897620506424360 2.3869201610849822
atom_frac 0.2949124482504574 0.7026548861996444 0.8242351412858978 O
    velocity -6.2688802821620619 0.2311973115504826 0.6338778017698417
atom_frac 0.7999787933632526 0.6810755244273041 0.8205137958212289 O
    velocity -2.6909377964681971 -0.6910324488067723 -3.4109220065874322
atom_frac 0.2911794625425761 0.2002677778270313 0.8359558998748359 O
    velocity 0.1550911511611594 2.8908793147795016 1.3171198463849358
atom_frac 0.7846141023543327 0.1838872329841256 0.8284911654380320 O
    velocity 4.4747293968673700 -0.8375991121900256 -0.8015888715526759
atom_frac 0.5492444012676305 0.6822308691776132 0.1203187010920824 O
    velocity -0.6476750891617865 0.6455510914926312 -1.3633797112603425
atom_frac 0.0542285726331741 0.6777232925021301 0.1177366888718027 O
    velocity 0.0406956993227804 6.0348641516148289 -0.3429702347277120
atom_frac 0.5418955707110026 0.1921779619861006 0.1218872228824467 O
    velocity -4.2425673384258360 -4.2857975382119724 6.5915470300786305
atom_frac 0.0487827451581479 0.1803033034364210 0.1338845842552269 O
    velocity -6.7843373621425132 -1.6260085025281510 1.9760346394767889
atom_frac 0.5317004919155609 0.6920669020986943 0.6240631302069797 O
    velocity -4.8547625206510396 3.1157109890868280 1.1501830459019469
atom_frac 0.0494185403809216 0.6837122488683994 0.6273221943908253 O
    velocity -9.8275730258900822 -4.3468252844716471 1.2268317321709823
atom_frac 0.5311187702672472 0.1931456073210495 0.6315357028280315 O
    velocity -1.7915241132332613 -0.8265600861557523 4.5998733689468931
atom_frac 0.0327366136307017 0.1924724726765863 0.6225034896355895 O
    velocity 4.4167236452319960 1.9863327286187578 -1.2776375872988193
atom_frac 0.5459720944774975 0.6989922977279333 0.3730376255979616 O
    velocity -2.5078030299157188 -5.8345574628455479 7.4143602559071207
atom_frac 0.0443417869940706 0.6898224428781812 0.3762391011547030 O
    velocity 8.5487096808436043 3.5525595362803584 -0.5078361084945986
atom_frac 0.5372421363893692 0.1852119045859992 0.3837377390400379 O
    velocity 3.4693990395321741 6.8841012386145266 9.0591944731068494
atom_frac 0.0479666206276703 0.1828189724721840 0.3790719805783463 O
    velocity 1.4468710090959416 8.3037300230009023 -5.6744178278813573
atom_frac 0.5395750673863343 0.6898129881643690 0.8779177498675481 O
    velocity 2.9898189004163531 -3.1473392987982098 -1.8978360183677165
atom_frac 0.0464125311442925 0.6843154611857303 0.8769142492424985 O
    velocity -3.4777936426513771 3.1645848798255010 -3.6464446718322949
atom_frac 0.5448960231547159 0.1855499475449562 0.8810041946962166 O
    velocity -2.6807888590878384 -0.0555117202364381 5.8782710633877775
atom_frac 0.0374826280034978 0.1817832468933316 0.8720246692172496 O
    velocity -7.8647009108790868 5.9473989640048472 3.8165730504453235
atom_frac 0.2935203588342615 0.9427759790376838 0.1264319526843974 O
    velocity -0.2037721347738925 -1.6973507085150930 0.0823366376563594
atom_frac 0.7995436790421631 0.9362482093867438 0.1203030970226660 O
    velocity -2.7000609243585107 -1.5588799569412861 4.8888278054290879
atom_frac 0.2913742694580596 0.4394868822987623 0.1268792449199775 O
    velocity -0.7616036540379009 0.3041747451541459 -1.3308649373751964
atom_frac 0.7925158224777543 0.4348042407317109 0.1269007543782395 O
    velocity -2.9659803311586255 -0.7782121895523156 -0.4383675422105267
atom_frac 0.2989089703541503 0.9332677669912476 0.6302745224983168 O
    velocity -0.6204631121122333 -0.6504771058837950 -2.7789448446169680
atom_frac 0.7947618986638382 0.9323884598903616 0.6326430962668996 O
    velocity 1.9613763532905324 -2.3172838201235995 -1.9399384695336330
atom_frac 0.2879018334067377 0.4273735242401407 0.6226541107907244 O
    velocity -0.8091945214322940 3.5141094246987739 -0.6555231467730309
atom_frac 0.7817207893305637 0.4454494850540065 0.6255587918765910 O
    velocity 0.5166709687649650 -2.8900632813408640 2.2390641801164688
atom_frac 0.2972141426043874 0.9466455851569465 0.3743360775493426 O
    velocity -0.1482346161078676 3.6009943176958346 0.8239816389664933
atom_frac 0.7931825489711463 0.9403202535573385 0.3770329652956704 O
    velocity -2.8463841159763610 8.8483326263360649 1.3681093812849066
atom_frac 0.2780298405985536 0.4375838064137989 0.3797166155624637 O
    velocity -5.4241524420240896 4.9717851451855468 1.7164751078200620
atom_frac 0.7918168397914839 0.4415519245829455 0.3771094538662463 O
    velocity -1.8420741137969774 1.4644246587910215 2.6303641690858801
atom_frac 0.2964392354696170 0.9456662893843797 0.8849882075380755 O
    velocity 6.3347088967515344 -1.0804706377227533 -0.0282997760817040
atom_frac 0.7927013509971247 0.9376746102811887 0.8774281886978992 O
    velocity 0.7916779035522057 -0.9812427381556964 -1.8091035834933444
atom_frac 0.3051623492753168 0.4450749461904833 0.8787238875003180 O
    velocity 2.9238645039957150 2.9039885591747749 -7.9954432141579321
atom_frac 0.7970349806073739 0.4311379217951938 0.8793540433887020 O
    velocity 1.8943008129034713 -3.4665223538136121 -3.8228852601141199
atom_frac 0.5485229382461123 0.9365932867394634 0.0936704536603385 O
    velocity -2.5848239466676541 3.7718223252204433 -0.8835112210241924
atom_frac 0.0426672340026473 0.9320782934625746 0.0871046580272801 O
    velocity 0.0854649556298030 -1.9981624324788583 -2.4290587654227305
atom_frac 0.5450188941794935 0.4442135673862612 0.0822010943959923 O
    velocity 2.6516786743279259 2.0432985441396241 0.0695242244038359
atom_frac 0.0441842059612833 0.4339658259083588 0.0801391603049903 O
    velocity -1.6228244901422864 -3.2136209350338616 -0.6178612117859509
atom_frac 0.5562586539834010 0.9323173781343737 0.5829537075739359 O
    velocity 3.2742826590596548 -1.3857301334453960 0.4239266036526846
atom_frac 0.0347925019053761 0.9357501396338491 0.5826454917764134 O
    velocity 7.4293387778111848 -1.2602953317532766 0.1698473522602124
atom_frac 0.5409520398828197 0.4434804133358945 0.5827726292264114 O
    velocity 1.5528534489070676 -2.2931840113018982 4.8681646825428286
atom_frac 0.0337475135543488 0.4351289970497116 0.5799479947898390 O
    velocity 0.4473581495274961 3.5587740771970329 0.4626528826469611
atom_frac 0.5420367158122528 0.9450863592259311 0.3334551142248343 O
    velocity 4.3052962214790513 3.7065989006607407 -3.6257744957531584
atom_frac 0.0462327071786849 0.9269929321138152 0.3329640550182502 O
    velocity -2.6702074506834466 4.2854227862590211 -5.5765404781378294
atom_frac 0.5232643749878714 0.4294120641675409 0.3337978600629137 O
    velocity -8.3474299211360208 3.4408680377481189 -2.9799081701894643
atom_frac 0.0302087003753815 0.4260689943900193 0.3265359833484615 O
    velocity -3.0947062113367885 0.5446344531411368 9.9391102472282000
atom_frac 0.5425154097324554 0.9287029645719126 0.8340906578406520 O
    velocity -2.6344260365630179 -0.1666938203813704 -4.0804490114109226
atom_frac 0.0466427819466585 0.9395667686215405 0.8379338301469039 O
    velocity -1.4162303689672888 1.5399513814255827 3.5559692313499456
atom_frac 0.5468067807255629 0.4447617467283321 0.8343857643690082 O
    velocity 4.4308397961556381 -5.7262622335309201 0.8527312525394353
atom_frac 0.0431571193293943 0.4350449389502096 0.8289754420269345 O
    velocity 2.9765943560503798 1.4372662536253431 -4.0730291537038532
