#=======================================================
# FHI-aims file: 1050_geometry.in.primitive.supercell_1500.0010K
# Created using the Atomic Simulation Environment (ASE)
# Tue Nov 15 14:18:30 2022

# Additional information:
#  created from MB distrubtion
#  T = 10.0 K
#  quantum:             False
#  deterministic:       False
#  plus_minus:          False
#  gauge_eigenvectors:  False
#  Random seed:         1769879204
#  Sample number:       1
#=======================================================
lattice_vector 25.8950000000000031 0.0000000000000000 0.0000000000000000 
lattice_vector 0.0000000000000000 26.0800000000000018 0.0000000000000000 
lattice_vector -4.1246722719453563 0.0000000000000000 26.4604512177900162 
atom 1.2597376662630684 0.2225090721212160 1.1113250987569823 Zr
    velocity -0.2634222324176931 -0.5410076376529955 0.2607334946193666
atom 6.4387376662630720 0.2225090721212160 1.1113250987569823 Zr
    velocity 0.1491719974463908 -0.2836698791455112 0.0097467879372852
atom 11.6177376662630714 0.2225090721212160 1.1113250987569823 Zr
    velocity 0.0379853217998714 0.0841098162752726 -0.3404005261832218
atom 16.7967376662630699 0.2225090721212160 1.1113250987569823 Zr
    velocity -0.1511877912607187 -0.0293618387228580 0.1655430788821750
atom 21.9757376662630683 0.2225090721212160 1.1113250987569823 Zr
    velocity -0.0388424064915435 -0.2206027309638679 0.3003170201451583
atom 1.2597376662630684 5.4385090721212164 1.1113250987569823 Zr
    velocity -0.5404343665789234 0.2849243642153912 -0.3949998544741622
atom 6.4387376662630720 5.4385090721212164 1.1113250987569823 Zr
    velocity 0.2400217009623860 -0.3313610260574357 0.1858310621944279
atom 11.6177376662630714 5.4385090721212164 1.1113250987569823 Zr
    velocity -0.4744939707815227 0.0444430525087313 -0.2978114479224887
atom 16.7967376662630699 5.4385090721212164 1.1113250987569823 Zr
    velocity -0.3121109506088575 -0.1643245692648888 0.0026566891010003
atom 21.9757376662630683 5.4385090721212164 1.1113250987569823 Zr
    velocity -0.0528574585350187 -0.1541747760611132 0.2879223066856087
atom 1.2597376662630684 10.6545090721212183 1.1113250987569823 Zr
    velocity -0.0946297847826778 -0.4625339484065988 -0.0437656006917951
atom 6.4387376662630720 10.6545090721212183 1.1113250987569823 Zr
    velocity -0.4350168834918138 -0.0993669150027498 -0.2097818593433018
atom 11.6177376662630714 10.6545090721212183 1.1113250987569823 Zr
    velocity 0.4710251066759234 -0.0023197538747127 -0.2588973448584693
atom 16.7967376662630699 10.6545090721212183 1.1113250987569823 Zr
    velocity 0.3147177585481621 0.0943389506758357 -0.4191757984522091
atom 21.9757376662630683 10.6545090721212183 1.1113250987569823 Zr
    velocity -0.0453437808952771 0.2937819823629597 0.1271852702108989
atom 1.2597376662630684 15.8705090721212176 1.1113250987569823 Zr
    velocity -0.0908236884374564 -0.0607060306030115 0.5182926054208032
atom 6.4387376662630720 15.8705090721212176 1.1113250987569823 Zr
    velocity 0.0239077250676874 -0.0040105200361411 0.0117715647522381
atom 11.6177376662630714 15.8705090721212176 1.1113250987569823 Zr
    velocity -0.0382261556652864 -0.0556298826983259 -0.0900550697170914
atom 16.7967376662630699 15.8705090721212176 1.1113250987569823 Zr
    velocity -0.3017683876899939 0.2059161893920515 -0.1903591142657451
atom 21.9757376662630683 15.8705090721212176 1.1113250987569823 Zr
    velocity 0.0777594723048217 -0.4427803429099313 0.4257019938745584
atom 1.2597376662630684 21.0865090721212241 1.1113250987569823 Zr
    velocity 0.4687018720382447 0.5629379104893100 0.1383725344214228
atom 6.4387376662630720 21.0865090721212241 1.1113250987569823 Zr
    velocity -0.1120302542615454 0.2102220550006971 -0.0490832391238494
atom 11.6177376662630714 21.0865090721212241 1.1113250987569823 Zr
    velocity -0.2121693118021782 0.4491954759236435 -0.3709906574415667
atom 16.7967376662630699 21.0865090721212241 1.1113250987569823 Zr
    velocity -0.0824224869907878 -0.1902316306120416 -0.3606227905718735
atom 21.9757376662630683 21.0865090721212241 1.1113250987569823 Zr
    velocity -0.8084082101387998 0.1729520448443811 0.4952073076638703
atom 0.4348032118739966 0.2225090721212160 6.4034153423149878 Zr
    velocity -0.1954106905163121 -0.0825128622946828 0.3010939804877685
atom 5.6138032118740009 0.2225090721212160 6.4034153423149878 Zr
    velocity 0.3015471327802088 -0.0478743225238798 -0.2924569690362793
atom 10.7928032118739985 0.2225090721212160 6.4034153423149878 Zr
    velocity 0.3090799582214000 0.1738512578806198 0.2953024343939473
atom 15.9718032118739988 0.2225090721212160 6.4034153423149878 Zr
    velocity -0.0883600768388035 -0.1736074400499222 -0.3439416222755770
atom 21.1508032118739990 0.2225090721212160 6.4034153423149878 Zr
    velocity -0.1038241822666330 -0.5526384176625895 -0.1952378829629983
atom 0.4348032118739966 5.4385090721212164 6.4034153423149878 Zr
    velocity 0.0935916416042708 0.2229663608962330 0.1641829291661820
atom 5.6138032118740009 5.4385090721212164 6.4034153423149878 Zr
    velocity -0.0933582099348932 0.1802638592099349 -0.3514888066963489
atom 10.7928032118739985 5.4385090721212164 6.4034153423149878 Zr
    velocity -0.0893788256340542 -0.3058282871884325 0.3100910139239600
atom 15.9718032118739988 5.4385090721212164 6.4034153423149878 Zr
    velocity 0.1394539584622767 -0.3772091831478512 0.3812780902251955
atom 21.1508032118739990 5.4385090721212164 6.4034153423149878 Zr
    velocity -0.1399630884919999 0.2765193500351579 0.3758364638206512
atom 0.4348032118739966 10.6545090721212183 6.4034153423149878 Zr
    velocity 0.0991800517879635 0.4340465360752387 0.0299217319115238
atom 5.6138032118740009 10.6545090721212183 6.4034153423149878 Zr
    velocity 0.1793969170756289 -0.5070757661443307 -0.0295842178018099
atom 10.7928032118739985 10.6545090721212183 6.4034153423149878 Zr
    velocity -0.2174882566110313 0.0806450348995376 -0.0108390913584877
atom 15.9718032118739988 10.6545090721212183 6.4034153423149878 Zr
    velocity -0.1434278612773105 0.0672691414142049 0.1821568934237781
atom 21.1508032118739990 10.6545090721212183 6.4034153423149878 Zr
    velocity -0.0670893598467405 -0.4863895420741678 0.0177206270629136
atom 0.4348032118739966 15.8705090721212176 6.4034153423149878 Zr
    velocity 0.3041617318190341 0.3477563492487142 -0.2561892325465067
atom 5.6138032118740009 15.8705090721212176 6.4034153423149878 Zr
    velocity -0.5191310409497213 0.0954716104862507 0.0656057139317223
atom 10.7928032118739985 15.8705090721212176 6.4034153423149878 Zr
    velocity 0.1710429629344883 -0.1892998313005499 0.0514207299706067
atom 15.9718032118739988 15.8705090721212176 6.4034153423149878 Zr
    velocity -0.3742604944327882 -0.5121219508257812 0.5351836894856145
atom 21.1508032118739990 15.8705090721212176 6.4034153423149878 Zr
    velocity 0.3524517403078692 0.0033772422760429 -0.3916752899757930
atom 0.4348032118739966 21.0865090721212241 6.4034153423149878 Zr
    velocity 0.2408175147361762 0.4307545047027201 -0.2724534374583998
atom 5.6138032118740009 21.0865090721212241 6.4034153423149878 Zr
    velocity -0.3265484967403905 0.2073012994549805 0.3621781838834354
atom 10.7928032118739985 21.0865090721212241 6.4034153423149878 Zr
    velocity -0.5380253986071004 -0.0226575148357037 -0.0170515285667610
atom 15.9718032118739988 21.0865090721212241 6.4034153423149878 Zr
    velocity 0.1338368381479850 0.1757447310410563 0.2762157488915062
atom 21.1508032118739990 21.0865090721212241 6.4034153423149878 Zr
    velocity -0.1158996227282497 -0.1559912950099455 -0.1462701266591841
atom -0.3901312425150747 0.2225090721212160 11.6955055858729917 Zr
    velocity -0.3934813889756411 0.0670011458085288 -0.1377543078208736
atom 4.7888687574849298 0.2225090721212160 11.6955055858729917 Zr
    velocity -0.0009175070489268 -0.1627292522462142 -0.1714913490325800
atom 9.9678687574849274 0.2225090721212160 11.6955055858729917 Zr
    velocity -0.0447878792173574 -0.1216850483704318 -0.0043700078121551
atom 15.1468687574849277 0.2225090721212160 11.6955055858729917 Zr
    velocity -0.1280969144683622 0.2923352651654399 0.3378156013670656
atom 20.3258687574849262 0.2225090721212160 11.6955055858729917 Zr
    velocity -0.2644624856270047 0.4357468347885211 0.2499558117146987
atom -0.3901312425150747 5.4385090721212164 11.6955055858729917 Zr
    velocity -0.1966377222663535 0.1905987954776413 0.4599535598726468
atom 4.7888687574849298 5.4385090721212164 11.6955055858729917 Zr
    velocity -0.2292051774549142 -0.3634390718237647 0.3545936073119398
atom 9.9678687574849274 5.4385090721212164 11.6955055858729917 Zr
    velocity 0.3661030514824740 -0.5918922508380844 0.0153345357107018
atom 15.1468687574849277 5.4385090721212164 11.6955055858729917 Zr
    velocity -0.2978963765640580 0.0726297509405922 0.3103171984520869
atom 20.3258687574849262 5.4385090721212164 11.6955055858729917 Zr
    velocity 0.0776182357398343 -0.1691262113969227 0.1430435289448971
atom -0.3901312425150747 10.6545090721212183 11.6955055858729917 Zr
    velocity 0.1789530646649060 0.5030788855452958 0.4136956594662912
atom 4.7888687574849298 10.6545090721212183 11.6955055858729917 Zr
    velocity -0.1690895656303298 -0.3800443757324802 0.1099531665960569
atom 9.9678687574849274 10.6545090721212183 11.6955055858729917 Zr
    velocity 0.2407024814699037 -0.4794968150285238 -0.0752887970213805
atom 15.1468687574849277 10.6545090721212183 11.6955055858729917 Zr
    velocity 0.1780263682149388 0.5003587406300321 0.4563654984112119
atom 20.3258687574849262 10.6545090721212183 11.6955055858729917 Zr
    velocity -0.0158412195873961 -0.2791054765796145 0.0943310357191212
atom -0.3901312425150747 15.8705090721212176 11.6955055858729917 Zr
    velocity -0.3326121560358787 -0.4963803835483759 0.0468133987077922
atom 4.7888687574849298 15.8705090721212176 11.6955055858729917 Zr
    velocity 0.1756478494462186 -0.4440875653342919 -0.2302292884032820
atom 9.9678687574849274 15.8705090721212176 11.6955055858729917 Zr
    velocity -0.3241923366349740 -0.3677837727358230 0.4023262698463138
atom 15.1468687574849277 15.8705090721212176 11.6955055858729917 Zr
    velocity -0.0128662686560770 -0.3097060760743824 -0.1621143268393374
atom 20.3258687574849262 15.8705090721212176 11.6955055858729917 Zr
    velocity 0.0624056831685367 -0.1387236983208396 -0.3049684378523986
atom -0.3901312425150747 21.0865090721212241 11.6955055858729917 Zr
    velocity 0.1527649612346223 0.1953679693698177 0.2307418167469185
atom 4.7888687574849298 21.0865090721212241 11.6955055858729917 Zr
    velocity 0.1158019689322700 0.5780220648081508 0.1570453854050071
atom 9.9678687574849274 21.0865090721212241 11.6955055858729917 Zr
    velocity -0.4838838153285320 0.0905196282884833 -0.0393870080686083
atom 15.1468687574849277 21.0865090721212241 11.6955055858729917 Zr
    velocity -0.1792269156115162 0.1108625245873750 0.2123579445730866
atom 20.3258687574849262 21.0865090721212241 11.6955055858729917 Zr
    velocity -0.3022284445036509 0.2844326864246376 0.0830858390214707
atom -1.2150656969041458 0.2225090721212160 16.9875958294309939 Zr
    velocity 0.0202125113016453 0.5733260298665606 -0.0180222127689572
atom 3.9639343030958583 0.2225090721212160 16.9875958294309939 Zr
    velocity 0.2961390279114960 -0.2949987934652201 0.1595047162129889
atom 9.1429343030958563 0.2225090721212160 16.9875958294309939 Zr
    velocity 0.2092217859685248 0.0544328692360235 -0.3940870565093471
atom 14.3219343030958566 0.2225090721212160 16.9875958294309939 Zr
    velocity 0.0812166430704701 0.3428513293231537 0.0006661855939658
atom 19.5009343030958568 0.2225090721212160 16.9875958294309939 Zr
    velocity -0.3204842944373981 -0.3936875027850329 -0.2024666273241915
atom -1.2150656969041458 5.4385090721212164 16.9875958294309939 Zr
    velocity -0.1774552341685599 0.0629121670459916 -0.6537620751843279
atom 3.9639343030958583 5.4385090721212164 16.9875958294309939 Zr
    velocity 0.1863694530306395 -0.3929643429077688 -0.3154226783903387
atom 9.1429343030958563 5.4385090721212164 16.9875958294309939 Zr
    velocity 0.3336006829219406 0.1173119177648149 0.2368154736702353
atom 14.3219343030958566 5.4385090721212164 16.9875958294309939 Zr
    velocity 0.1899356810614868 0.4074252850906208 -0.3574012451288946
atom 19.5009343030958568 5.4385090721212164 16.9875958294309939 Zr
    velocity -0.0449379388928093 -0.3804914430913451 0.0340551494361931
atom -1.2150656969041458 10.6545090721212183 16.9875958294309939 Zr
    velocity 0.7270583703284069 0.1761948172449229 -0.1586502327760117
atom 3.9639343030958583 10.6545090721212183 16.9875958294309939 Zr
    velocity -0.4817505823074234 0.4119671631525072 0.7299083694144590
atom 9.1429343030958563 10.6545090721212183 16.9875958294309939 Zr
    velocity -0.2399349182022979 0.2489273874177704 0.2103621821837896
atom 14.3219343030958566 10.6545090721212183 16.9875958294309939 Zr
    velocity 0.2135905620882071 0.2849390448795183 -0.1984439246828316
atom 19.5009343030958568 10.6545090721212183 16.9875958294309939 Zr
    velocity -0.5681746377365114 0.2839617479069289 0.1864435048566249
atom -1.2150656969041458 15.8705090721212176 16.9875958294309939 Zr
    velocity -0.1596888357240918 -0.5791093259664429 0.4542180264586635
atom 3.9639343030958583 15.8705090721212176 16.9875958294309939 Zr
    velocity 0.3786526498124711 0.1508633715593994 0.0495910962428505
atom 9.1429343030958563 15.8705090721212176 16.9875958294309939 Zr
    velocity -0.3617532831794214 0.2511554762229622 -0.1943517936589126
atom 14.3219343030958566 15.8705090721212176 16.9875958294309939 Zr
    velocity -0.1943795667322294 0.0554288158458358 -0.2410679765488485
atom 19.5009343030958568 15.8705090721212176 16.9875958294309939 Zr
    velocity 0.0711825609008116 0.3901157209563087 -0.1856576601793757
atom -1.2150656969041458 21.0865090721212241 16.9875958294309939 Zr
    velocity 0.3017803960395495 -0.2350775743002780 -0.7310507067484858
atom 3.9639343030958583 21.0865090721212241 16.9875958294309939 Zr
    velocity 0.1236691683826258 -0.2094214515125906 -0.2779600578895672
atom 9.1429343030958563 21.0865090721212241 16.9875958294309939 Zr
    velocity 0.2609290088129697 -0.2993400355431383 0.0177546021117983
atom 14.3219343030958566 21.0865090721212241 16.9875958294309939 Zr
    velocity 0.6363083449624207 -0.1334809889040991 -0.2865255047078867
atom 19.5009343030958568 21.0865090721212241 16.9875958294309939 Zr
    velocity 0.4230602791293855 0.1347421650792273 -0.0044444143426370
atom -2.0400001512932167 0.2225090721212160 22.2796860729889943 Zr
    velocity 0.2687172928821003 0.6039636223596150 0.1886589229678234
atom 3.1389998487067872 0.2225090721212160 22.2796860729889943 Zr
    velocity 0.4680174689968120 0.1167059086446852 0.0001762254499585
atom 8.3179998487067852 0.2225090721212160 22.2796860729889943 Zr
    velocity 0.5766717947549149 -0.1665654779795005 0.2300738954153416
atom 13.4969998487067855 0.2225090721212160 22.2796860729889943 Zr
    velocity 0.2178137081879739 0.2012612054463745 0.2147371979354605
atom 18.6759998487067840 0.2225090721212160 22.2796860729889943 Zr
    velocity -0.2489563252118051 -0.1254754216484748 0.0728422341218012
atom -2.0400001512932167 5.4385090721212164 22.2796860729889943 Zr
    velocity 0.4906481826834798 0.3079624031335321 0.1206620415615863
atom 3.1389998487067872 5.4385090721212164 22.2796860729889943 Zr
    velocity -0.4500589602669972 -0.1363333155373744 -0.1104503956666136
atom 8.3179998487067852 5.4385090721212164 22.2796860729889943 Zr
    velocity -0.3972628574678665 0.6412157050494361 0.0356948903857214
atom 13.4969998487067855 5.4385090721212164 22.2796860729889943 Zr
    velocity -0.7626059396324125 -0.4959242341303485 0.3864055495484640
atom 18.6759998487067840 5.4385090721212164 22.2796860729889943 Zr
    velocity 0.0399098749379366 0.3906931281483905 -0.1512473475162679
atom -2.0400001512932167 10.6545090721212183 22.2796860729889943 Zr
    velocity 0.0028255394363142 -0.1903999575604269 -0.3042352573621026
atom 3.1389998487067872 10.6545090721212183 22.2796860729889943 Zr
    velocity -0.4496136136968080 -0.2690073456226664 0.2110886586415896
atom 8.3179998487067852 10.6545090721212183 22.2796860729889943 Zr
    velocity 0.6720219800043443 0.0907185723824442 -0.3379982341117772
atom 13.4969998487067855 10.6545090721212183 22.2796860729889943 Zr
    velocity 0.0179233514423458 -0.1795920232468418 0.1915059690872918
atom 18.6759998487067840 10.6545090721212183 22.2796860729889943 Zr
    velocity 0.0904159208545664 -0.2160828269210650 -0.1117561273248648
atom -2.0400001512932167 15.8705090721212176 22.2796860729889943 Zr
    velocity 0.3460595530804041 -0.0214471531056706 0.3780029782466090
atom 3.1389998487067872 15.8705090721212176 22.2796860729889943 Zr
    velocity -0.0251372394549273 -0.1860649421041419 -0.0757983517249077
atom 8.3179998487067852 15.8705090721212176 22.2796860729889943 Zr
    velocity 0.2700557250122806 0.0563520894462677 -0.2301453745741150
atom 13.4969998487067855 15.8705090721212176 22.2796860729889943 Zr
    velocity -0.3570783120811218 0.2361358591710550 0.0311403052836079
atom 18.6759998487067840 15.8705090721212176 22.2796860729889943 Zr
    velocity -0.2008427681635431 -0.0655631461151636 -0.5210965765106614
atom -2.0400001512932167 21.0865090721212241 22.2796860729889943 Zr
    velocity 0.4742741991538761 0.1188626882180999 -0.2010659360275582
atom 3.1389998487067872 21.0865090721212241 22.2796860729889943 Zr
    velocity -0.2601301596559927 0.1265625289159717 -0.0141600075362400
atom 8.3179998487067852 21.0865090721212241 22.2796860729889943 Zr
    velocity 0.1412407231610754 -0.4102211036367061 -0.2990335892884524
atom 13.4969998487067855 21.0865090721212241 22.2796860729889943 Zr
    velocity 0.0728106490002004 0.4204487839437999 0.1081259350169824
atom 18.6759998487067840 21.0865090721212241 22.2796860729889943 Zr
    velocity -0.0854818468711424 -0.2300024215136765 0.4560505412374427
atom 3.0943275725957791 4.9934909278787876 4.1807652188902837 Zr
    velocity 0.0408311939431575 -0.5336720770729144 0.4659325889205123
atom 8.2733275725957824 4.9934909278787876 4.1807652188902837 Zr
    velocity 0.1263460426683902 0.1718222666174217 0.3418978701754264
atom 13.4523275725957792 4.9934909278787876 4.1807652188902837 Zr
    velocity -0.0232450760285895 0.3241587374536667 -0.1234398367756092
atom 18.6313275725957794 4.9934909278787876 4.1807652188902837 Zr
    velocity -0.6253223688017325 -0.0405064036755526 0.2316749409458985
atom 23.8103275725957815 4.9934909278787876 4.1807652188902837 Zr
    velocity 0.2955712129081677 0.3317014028876807 0.0525768954211324
atom 3.0943275725957791 10.2094909278787878 4.1807652188902837 Zr
    velocity -0.2419642837149635 -0.1050263891031143 0.0271470256454273
atom 8.2733275725957824 10.2094909278787878 4.1807652188902837 Zr
    velocity -0.1878406656848080 0.0832929465766449 -0.0286002433281299
atom 13.4523275725957792 10.2094909278787878 4.1807652188902837 Zr
    velocity -0.0859516341878541 0.1187521817646257 0.0660443837283851
atom 18.6313275725957794 10.2094909278787878 4.1807652188902837 Zr
    velocity 0.1925273863152796 -0.1176045842796158 -0.2626163261978954
atom 23.8103275725957815 10.2094909278787878 4.1807652188902837 Zr
    velocity -0.3703283393773007 0.6912702218866120 0.4256167578810661
atom 3.0943275725957791 15.4254909278787853 4.1807652188902837 Zr
    velocity -0.2220460347059871 0.4152035153742873 0.1151452505183198
atom 8.2733275725957824 15.4254909278787853 4.1807652188902837 Zr
    velocity -0.3354692759785168 -0.2428706060726652 -0.1129343443390360
atom 13.4523275725957792 15.4254909278787853 4.1807652188902837 Zr
    velocity -0.5751350934655447 -0.3560451982154720 -0.0669080484022776
atom 18.6313275725957794 15.4254909278787853 4.1807652188902837 Zr
    velocity -0.1151078549650916 0.5920495285766282 -0.2410406164145565
atom 23.8103275725957815 15.4254909278787853 4.1807652188902837 Zr
    velocity 0.0461436695571573 0.8377616831432251 -0.2991549974311068
atom 3.0943275725957791 20.6414909278787917 4.1807652188902837 Zr
    velocity -0.3358558367519580 0.4295216370692677 -0.3098726991578455
atom 8.2733275725957824 20.6414909278787917 4.1807652188902837 Zr
    velocity -0.0633171576643699 0.0147903775081114 0.4366496882648277
atom 13.4523275725957792 20.6414909278787917 4.1807652188902837 Zr
    velocity 0.4811522931621431 -0.2791813158308123 0.6644565794234302
atom 18.6313275725957794 20.6414909278787917 4.1807652188902837 Zr
    velocity 0.4909497817003237 0.2616500159310487 0.2036656592564907
atom 23.8103275725957815 20.6414909278787917 4.1807652188902837 Zr
    velocity 0.3392154050733023 -0.1371254834905328 0.3581206919589446
atom 3.0943275725957791 25.8574909278787928 4.1807652188902837 Zr
    velocity -0.0082007705227656 0.2080724498027483 -0.0751506771999581
atom 8.2733275725957824 25.8574909278787928 4.1807652188902837 Zr
    velocity -0.1273969974885873 -0.5639200754306690 -0.0650318094571581
atom 13.4523275725957792 25.8574909278787928 4.1807652188902837 Zr
    velocity 0.2617986072749066 0.3263517989896025 0.1717731529424945
atom 18.6313275725957794 25.8574909278787928 4.1807652188902837 Zr
    velocity 0.4130583999987806 0.2040631907079774 -0.5444364280428905
atom 23.8103275725957815 25.8574909278787928 4.1807652188902837 Zr
    velocity -0.2611935389634794 0.1904753644495068 -0.1828226882574332
atom 2.2693931182067075 4.9934909278787876 9.4728554624482904 Zr
    velocity -0.1712301622342279 0.1977287266531926 0.0360736151075752
atom 7.4483931182067105 4.9934909278787876 9.4728554624482904 Zr
    velocity -0.2561971694263197 0.3827065183937452 -0.1971060572602659
atom 12.6273931182067063 4.9934909278787876 9.4728554624482904 Zr
    velocity -0.0311649040619560 -0.3779461352140973 -0.0342595570616510
atom 17.8063931182067101 4.9934909278787876 9.4728554624482904 Zr
    velocity 0.0112400385463852 0.2265452554309979 0.5988006310458662
atom 22.9853931182067122 4.9934909278787876 9.4728554624482904 Zr
    velocity 0.0453841854878807 0.0430161792790235 -0.0324207127822675
atom 2.2693931182067075 10.2094909278787878 9.4728554624482904 Zr
    velocity 0.1585079176354871 -0.6191681600579007 -0.0264016856405919
atom 7.4483931182067105 10.2094909278787878 9.4728554624482904 Zr
    velocity -0.1845700025917639 0.0210340530564213 -0.4739460696578067
atom 12.6273931182067063 10.2094909278787878 9.4728554624482904 Zr
    velocity 0.3314586450633569 -0.1398519919929280 0.0325232488485498
atom 17.8063931182067101 10.2094909278787878 9.4728554624482904 Zr
    velocity 0.4190791378194096 0.1620828074132221 0.6070241481419444
atom 22.9853931182067122 10.2094909278787878 9.4728554624482904 Zr
    velocity -0.2183826494878861 0.1606416477535748 0.2478461012676698
atom 2.2693931182067075 15.4254909278787853 9.4728554624482904 Zr
    velocity 0.2203003921682835 0.2221069520504447 0.0089725744175124
atom 7.4483931182067105 15.4254909278787853 9.4728554624482904 Zr
    velocity -0.0764659962983066 -0.1239416783684392 -0.1266871777685608
atom 12.6273931182067063 15.4254909278787853 9.4728554624482904 Zr
    velocity 0.2789795535047989 0.2095366328147390 0.6104471112714146
atom 17.8063931182067101 15.4254909278787853 9.4728554624482904 Zr
    velocity 0.0347298555083401 0.5561019078036594 -0.1562523091073963
atom 22.9853931182067122 15.4254909278787853 9.4728554624482904 Zr
    velocity 0.1903735703532105 0.1605666576658524 0.0922676445481328
atom 2.2693931182067075 20.6414909278787917 9.4728554624482904 Zr
    velocity 0.3380925664569987 -0.4123965103944643 -0.0270135963479612
atom 7.4483931182067105 20.6414909278787917 9.4728554624482904 Zr
    velocity -0.2999711370940123 -0.0267129330752920 -0.3925730538532344
atom 12.6273931182067063 20.6414909278787917 9.4728554624482904 Zr
    velocity 0.2338374576573208 0.2075221206104263 0.3351559095468226
atom 17.8063931182067101 20.6414909278787917 9.4728554624482904 Zr
    velocity -0.0421000273057618 -0.1253047506594373 -0.6153561834478477
atom 22.9853931182067122 20.6414909278787917 9.4728554624482904 Zr
    velocity 0.3892853356049371 0.5046340374160675 -0.5069455596992035
atom 2.2693931182067075 25.8574909278787928 9.4728554624482904 Zr
    velocity -0.2412721450941767 -0.1584158111737848 0.6050207878497110
atom 7.4483931182067105 25.8574909278787928 9.4728554624482904 Zr
    velocity 0.0002881470791433 -0.1524008413201372 0.1629194980857096
atom 12.6273931182067063 25.8574909278787928 9.4728554624482904 Zr
    velocity 0.2519990671979079 -0.2190654328884135 0.2969018773949459
atom 17.8063931182067101 25.8574909278787928 9.4728554624482904 Zr
    velocity -0.1097358026654892 0.4968895182402808 -0.1152876574726716
atom 22.9853931182067122 25.8574909278787928 9.4728554624482904 Zr
    velocity 0.1181243877307183 0.1744680844063225 0.0314041923256232
atom 1.4444586638176367 4.9934909278787876 14.7649457060062907 Zr
    velocity 0.3637320700029690 -0.0226212145402500 0.0717358588130678
atom 6.6234586638176394 4.9934909278787876 14.7649457060062907 Zr
    velocity 0.0454014862339479 0.1270982646683765 -0.3084018219633409
atom 11.8024586638176370 4.9934909278787876 14.7649457060062907 Zr
    velocity 0.2176694279860270 -0.0669277260892168 0.1376766331308803
atom 16.9814586638176372 4.9934909278787876 14.7649457060062907 Zr
    velocity 0.0615501824051200 0.0447007399041976 0.3687157536471696
atom 22.1604586638176393 4.9934909278787876 14.7649457060062907 Zr
    velocity 0.2246461939649814 0.0869002967664513 0.7933722420850674
atom 1.4444586638176367 10.2094909278787878 14.7649457060062907 Zr
    velocity -0.1576754577854997 -0.5006922208830382 -0.0415526367952100
atom 6.6234586638176394 10.2094909278787878 14.7649457060062907 Zr
    velocity -0.1240452804181500 0.1935015831330452 -0.0013850783937025
atom 11.8024586638176370 10.2094909278787878 14.7649457060062907 Zr
    velocity 0.3428878359384284 -0.0595043042616227 -0.3190255366827695
atom 16.9814586638176372 10.2094909278787878 14.7649457060062907 Zr
    velocity 0.1723733083507722 -0.0463775377553117 -0.1318724270777629
atom 22.1604586638176393 10.2094909278787878 14.7649457060062907 Zr
    velocity 0.0616694641057099 0.3198483783790914 0.3027539230615877
atom 1.4444586638176367 15.4254909278787853 14.7649457060062907 Zr
    velocity 0.2888160944518923 0.1758918900283815 0.1722325816454050
atom 6.6234586638176394 15.4254909278787853 14.7649457060062907 Zr
    velocity 0.2974394050726180 -0.3535266258575667 -0.2016023578650013
atom 11.8024586638176370 15.4254909278787853 14.7649457060062907 Zr
    velocity -0.2502228343378551 -0.2400254038929291 -0.7584103138346072
atom 16.9814586638176372 15.4254909278787853 14.7649457060062907 Zr
    velocity 0.0419851666959164 -0.2899075638916904 -0.2494985558152598
atom 22.1604586638176393 15.4254909278787853 14.7649457060062907 Zr
    velocity -0.3599642964719847 -0.6137393053095502 -0.3744883368544566
atom 1.4444586638176367 20.6414909278787917 14.7649457060062907 Zr
    velocity -0.2635721247922053 -0.1246318094857248 -0.2142518392946440
atom 6.6234586638176394 20.6414909278787917 14.7649457060062907 Zr
    velocity 0.0954441662859615 -0.1501447938662122 0.2245143536236975
atom 11.8024586638176370 20.6414909278787917 14.7649457060062907 Zr
    velocity -0.3499925833018409 0.2120275861942360 0.0656690159033448
atom 16.9814586638176372 20.6414909278787917 14.7649457060062907 Zr
    velocity 0.3255061330290756 0.1685868490903628 0.1492492955696060
atom 22.1604586638176393 20.6414909278787917 14.7649457060062907 Zr
    velocity -0.2094771124089322 -0.0263582651493754 0.3068852493690731
atom 1.4444586638176367 25.8574909278787928 14.7649457060062907 Zr
    velocity 0.1204126040915593 -0.1676437179434977 0.1595826629724456
atom 6.6234586638176394 25.8574909278787928 14.7649457060062907 Zr
    velocity -0.0607678701738805 0.2971590775434037 -0.4060184117703526
atom 11.8024586638176370 25.8574909278787928 14.7649457060062907 Zr
    velocity 0.2406114537110694 0.0482870773984294 0.4209875535865403
atom 16.9814586638176372 25.8574909278787928 14.7649457060062907 Zr
    velocity 0.3955247326587452 -0.7133567207022339 0.0833020612826560
atom 22.1604586638176393 25.8574909278787928 14.7649457060062907 Zr
    velocity -0.0635529693993667 0.0433678287470705 0.0357673361575468
atom 0.6195242094285650 4.9934909278787876 20.0570359495642947 Zr
    velocity -0.0388062612927752 0.4797215251756000 -0.2170448788077980
atom 5.7985242094285683 4.9934909278787876 20.0570359495642947 Zr
    velocity 0.5813596856557888 0.0580201587465093 -0.6412393916141444
atom 10.9775242094285641 4.9934909278787876 20.0570359495642947 Zr
    velocity 0.3808486799144571 -0.0886010912476340 0.1875582028943634
atom 16.1565242094285679 4.9934909278787876 20.0570359495642947 Zr
    velocity -0.3499694882971360 0.1109994567963540 0.2298132174582106
atom 21.3355242094285700 4.9934909278787876 20.0570359495642947 Zr
    velocity -0.0287818228207816 0.2855192120561791 0.5601813449809757
atom 0.6195242094285650 10.2094909278787878 20.0570359495642947 Zr
    velocity 0.0623206137929716 0.2716201691946473 0.2936092457473063
atom 5.7985242094285683 10.2094909278787878 20.0570359495642947 Zr
    velocity 0.4151365693375334 -0.0352939765868794 -0.0664699913786194
atom 10.9775242094285641 10.2094909278787878 20.0570359495642947 Zr
    velocity 0.0518807105602585 0.3359056276169568 0.0817649467463287
atom 16.1565242094285679 10.2094909278787878 20.0570359495642947 Zr
    velocity 0.3336940560375504 0.0020244992214519 -0.0051387416841629
atom 21.3355242094285700 10.2094909278787878 20.0570359495642947 Zr
    velocity 0.0843835008909248 -0.0496415573547347 0.1396942621743528
atom 0.6195242094285650 15.4254909278787853 20.0570359495642947 Zr
    velocity -0.0177198056959219 -0.0681196692861907 0.1077818260224024
atom 5.7985242094285683 15.4254909278787853 20.0570359495642947 Zr