#=======================================================
# FHI-aims file: 1050_geometry.in.primitive.supercell_2592.0010K
# Created using the Atomic Simulation Environment (ASE)
# Tue Nov 15 14:16:28 2022

# Additional information:
#  created from MB distrubtion
#  T = 10.0 K
#  quantum:             False
#  deterministic:       False
#  plus_minus:          False
#  gauge_eigenvectors:  False
#  Random seed:         2085556320
#  Sample number:       1
#=======================================================
lattice_vector 31.0740000000000016 0.0000000000000000 0.0000000000000000 
lattice_vector 0.0000000000000000 31.2959999999999994 0.0000000000000000 
lattice_vector -4.9496067263344274 0.0000000000000000 31.7525414613480166 
atom 1.2597376662630668 0.2225090721212160 1.1113250987569832 Zr
    velocity 0.0044557656671542 -0.1336595815686395 0.2832550839051958
atom 6.4387376662630684 0.2225090721212160 1.1113250987569832 Zr
    velocity 0.0490838889972339 -0.2292497606920982 -0.0247512764429791
atom 11.6177376662630660 0.2225090721212160 1.1113250987569832 Zr
    velocity -0.0316692785980491 0.2003524915333246 0.3266796380003492
atom 16.7967376662630663 0.2225090721212160 1.1113250987569832 Zr
    velocity 0.1688180358202998 -0.2524701356784531 -0.3229190574673339
atom 21.9757376662630612 0.2225090721212160 1.1113250987569832 Zr
    velocity 0.3424261930436169 -0.0924260565395307 0.4079995212681356
atom 27.1547376662630633 0.2225090721212160 1.1113250987569832 Zr
    velocity -0.2631229326894522 -0.0456422706411886 -0.3754261818967623
atom 1.2597376662630668 5.4385090721212137 1.1113250987569832 Zr
    velocity -0.0716803439242883 0.2533500012952642 0.1900302997518142
atom 6.4387376662630684 5.4385090721212137 1.1113250987569832 Zr
    velocity 0.2158691197958629 -0.1357778896303821 0.2684203718922274
atom 11.6177376662630660 5.4385090721212137 1.1113250987569832 Zr
    velocity 0.1814575414789985 0.1540439476197993 -0.1293967996997727
atom 16.7967376662630663 5.4385090721212137 1.1113250987569832 Zr
    velocity 0.0564369445210854 0.1358269430191419 -0.1894815246885959
atom 21.9757376662630612 5.4385090721212137 1.1113250987569832 Zr
    velocity 0.1782052168245283 -0.6549324655003341 0.5462001753725991
atom 27.1547376662630633 5.4385090721212137 1.1113250987569832 Zr
    velocity -0.5290343113066135 -0.1458885815847067 0.2081050477699542
atom 1.2597376662630668 10.6545090721212148 1.1113250987569832 Zr
    velocity 0.6789581850875082 0.7637253874633551 -0.4944506362430818
atom 6.4387376662630684 10.6545090721212148 1.1113250987569832 Zr
    velocity 0.3125116879832590 0.1353430732861913 -0.0611778191293152
atom 11.6177376662630660 10.6545090721212148 1.1113250987569832 Zr
    velocity 0.0291271806573349 -0.4807431475720677 0.5485794277883921
atom 16.7967376662630663 10.6545090721212148 1.1113250987569832 Zr
    velocity 0.0711082814905289 -0.3366245913070551 -0.0079380703681204
atom 21.9757376662630612 10.6545090721212148 1.1113250987569832 Zr
    velocity 0.0817962578788790 -0.4117645593944049 0.0023198379255403
atom 27.1547376662630633 10.6545090721212148 1.1113250987569832 Zr
    velocity -0.0400577412347819 -0.2635113663680538 0.2825658395650366
atom 1.2597376662630668 15.8705090721212141 1.1113250987569832 Zr
    velocity -0.1804368627160201 0.0154002158283235 -0.1809602018016052
atom 6.4387376662630684 15.8705090721212141 1.1113250987569832 Zr
    velocity -0.0968370575796631 -0.3659785260689159 -0.0795184329884594
atom 11.6177376662630660 15.8705090721212141 1.1113250987569832 Zr
    velocity -0.3120258854456661 0.1503557308769905 -0.0536475038102318
atom 16.7967376662630663 15.8705090721212141 1.1113250987569832 Zr
    velocity -0.1394264038172153 -0.2909478291965759 -0.3426638565525972
atom 21.9757376662630612 15.8705090721212141 1.1113250987569832 Zr
    velocity -0.2902171863343144 0.1598283549771266 -0.2440609216287523
atom 27.1547376662630633 15.8705090721212141 1.1113250987569832 Zr
    velocity -0.0017060460903852 0.2311516831019399 -0.2291396207599261
atom 1.2597376662630668 21.0865090721212169 1.1113250987569832 Zr
    velocity 0.2909260727993486 0.0973318505965952 0.3876676945843687
atom 6.4387376662630684 21.0865090721212169 1.1113250987569832 Zr
    velocity 0.2817398211848927 -0.1590695697274614 0.0408584740531718
atom 11.6177376662630660 21.0865090721212169 1.1113250987569832 Zr
    velocity 0.4861398149624150 0.3872028573764354 -0.0034587334158514
atom 16.7967376662630663 21.0865090721212169 1.1113250987569832 Zr
    velocity -0.5164083543540068 -0.2282348821199698 0.2467645235950827
atom 21.9757376662630612 21.0865090721212169 1.1113250987569832 Zr
    velocity 0.4281318270436570 -0.1177531636067149 0.1116277665013070
atom 27.1547376662630633 21.0865090721212169 1.1113250987569832 Zr
    velocity -0.0425530894167226 0.4160506009319658 0.0178871844486253
atom 1.2597376662630668 26.3025090721212145 1.1113250987569832 Zr
    velocity -0.0529892553919710 0.3715331134310464 -0.4737929827853172
atom 6.4387376662630684 26.3025090721212145 1.1113250987569832 Zr
    velocity -0.0631846421771484 0.0279081181244146 0.0958655896964875
atom 11.6177376662630660 26.3025090721212145 1.1113250987569832 Zr
    velocity -0.0322424124250350 0.5171448102705885 -0.5136108505809981
atom 16.7967376662630663 26.3025090721212145 1.1113250987569832 Zr
    velocity -0.1327039073585204 -0.0601212155181252 -0.1441057922358390
atom 21.9757376662630612 26.3025090721212145 1.1113250987569832 Zr
    velocity 0.1779219709774222 -0.1217051554240434 0.2684774551406233
atom 27.1547376662630633 26.3025090721212145 1.1113250987569832 Zr
    velocity 0.2173489828796722 -0.0582195861317896 0.2926145528350853
atom 0.4348032118739958 0.2225090721212160 6.4034153423149842 Zr
    velocity 0.1789514700382181 -0.4425175097791892 0.1547190265311966
atom 5.6138032118739973 0.2225090721212160 6.4034153423149842 Zr
    velocity 0.2701686730609679 0.1271186285448748 0.2022371778903245
atom 10.7928032118739949 0.2225090721212160 6.4034153423149842 Zr
    velocity -0.4254451406223397 -0.6269552396931166 -0.1533257882487239
atom 15.9718032118739970 0.2225090721212160 6.4034153423149842 Zr
    velocity 0.1910168861662953 0.2093142030812205 -0.3922371883808680
atom 21.1508032118739919 0.2225090721212160 6.4034153423149842 Zr
    velocity -0.1075428297592888 0.0857558933644852 -0.1059901002860960
atom 26.3298032118739940 0.2225090721212160 6.4034153423149842 Zr
    velocity 0.1570005425342574 -0.1729045907527879 0.2728750987369188
atom 0.4348032118739958 5.4385090721212137 6.4034153423149842 Zr
    velocity 0.2632067320860346 0.2240784103257440 -0.1890267428668816
atom 5.6138032118739973 5.4385090721212137 6.4034153423149842 Zr
    velocity -0.4070115684109492 -0.1600415116997909 -0.4976504327750808
atom 10.7928032118739949 5.4385090721212137 6.4034153423149842 Zr
    velocity 0.1596382573485724 0.0304703295004253 -0.0008062402251816
atom 15.9718032118739970 5.4385090721212137 6.4034153423149842 Zr
    velocity -0.0872932130057243 0.0492421004503455 -0.0300548516459420
atom 21.1508032118739919 5.4385090721212137 6.4034153423149842 Zr
    velocity -0.0342172634916301 -0.2338719862152838 0.5316141594766036
atom 26.3298032118739940 5.4385090721212137 6.4034153423149842 Zr
    velocity 0.0529002324121450 -0.0443474169876659 0.1398924318793588
atom 0.4348032118739958 10.6545090721212148 6.4034153423149842 Zr
    velocity 0.1179930491300739 -0.1460015262750751 -0.3256321373146087
atom 5.6138032118739973 10.6545090721212148 6.4034153423149842 Zr
    velocity 0.2833261694873869 0.0282006682067367 -0.2565223050335479
atom 10.7928032118739949 10.6545090721212148 6.4034153423149842 Zr
    velocity 0.0892984994637766 -0.4474517917196412 -0.3516644325391938
atom 15.9718032118739970 10.6545090721212148 6.4034153423149842 Zr
    velocity 0.0240133754156035 0.3994109879349149 -0.2663939268102856
atom 21.1508032118739919 10.6545090721212148 6.4034153423149842 Zr
    velocity -0.0836378866222760 0.0681335223538383 0.3033807521015346
atom 26.3298032118739940 10.6545090721212148 6.4034153423149842 Zr
    velocity -0.3922681528973036 0.3966395689086136 0.1332275863516671
atom 0.4348032118739958 15.8705090721212141 6.4034153423149842 Zr
    velocity 0.3665245609628714 -0.2741742487648327 0.4648939602220521
atom 5.6138032118739973 15.8705090721212141 6.4034153423149842 Zr
    velocity -0.0166799553855530 -0.3441577283388908 0.4304816356483234
atom 10.7928032118739949 15.8705090721212141 6.4034153423149842 Zr
    velocity -0.1814792080100630 -0.2298590943139375 0.2292496603042678
atom 15.9718032118739970 15.8705090721212141 6.4034153423149842 Zr
    velocity 0.1859832045676535 0.1113081794848009 -0.4893119709395374
atom 21.1508032118739919 15.8705090721212141 6.4034153423149842 Zr
    velocity 0.0284191696068857 0.1285921922358780 0.3331127736971596
atom 26.3298032118739940 15.8705090721212141 6.4034153423149842 Zr
    velocity -0.2174196757428366 0.1226973848532183 -0.1398836733860476
atom 0.4348032118739958 21.0865090721212169 6.4034153423149842 Zr
    velocity -0.1109865241885748 -0.0060178767152465 0.0007209615604027
atom 5.6138032118739973 21.0865090721212169 6.4034153423149842 Zr
    velocity 0.2494293179011705 -0.6623509475657001 -0.0028595300448307
atom 10.7928032118739949 21.0865090721212169 6.4034153423149842 Zr
    velocity -0.2410106386305296 -0.1196312162685675 -0.1514846440576353
atom 15.9718032118739970 21.0865090721212169 6.4034153423149842 Zr
    velocity 0.1356483110185690 0.0338660552651543 0.0065644709011023
atom 21.1508032118739919 21.0865090721212169 6.4034153423149842 Zr
    velocity -0.1703435141012279 -0.5221033681417818 0.1775747300154131
atom 26.3298032118739940 21.0865090721212169 6.4034153423149842 Zr
    velocity 0.5440107166297578 -0.2660025201564351 0.4145058809348787
atom 0.4348032118739958 26.3025090721212145 6.4034153423149842 Zr
    velocity 0.1952745735443230 0.3122723111284758 0.1360855113270690
atom 5.6138032118739973 26.3025090721212145 6.4034153423149842 Zr
    velocity 0.2916620843842614 -0.0189737650386900 -0.3466051314144386
atom 10.7928032118739949 26.3025090721212145 6.4034153423149842 Zr
    velocity 0.1030974486780863 -0.1095885422587677 -0.4424453524630838
atom 15.9718032118739970 26.3025090721212145 6.4034153423149842 Zr
    velocity -0.3919615826718946 0.0195079533471906 0.3853027003151912
atom 21.1508032118739919 26.3025090721212145 6.4034153423149842 Zr
    velocity -0.2470770826431279 0.7308922915474303 -0.0090690639646987
atom 26.3298032118739940 26.3025090721212145 6.4034153423149842 Zr
    velocity -0.1974092627464847 0.2443914887296374 0.5886244452067907
atom -0.3901312425150755 0.2225090721212160 11.6955055858729882 Zr
    velocity -0.5416339521959128 -0.2052121948029630 0.0728512077346788
atom 4.7888687574849262 0.2225090721212160 11.6955055858729882 Zr
    velocity 0.0233590787419144 0.3721819216084281 0.4345337950969755
atom 9.9678687574849238 0.2225090721212160 11.6955055858729882 Zr
    velocity -0.4162789655302423 0.1290098745864009 0.6187572971460152
atom 15.1468687574849259 0.2225090721212160 11.6955055858729882 Zr
    velocity -0.0488438157889017 0.0561513503153549 0.3477412318589448
atom 20.3258687574849191 0.2225090721212160 11.6955055858729882 Zr
    velocity -0.1669752284552211 -0.4558603688641086 -0.1201313638966607
atom 25.5048687574849211 0.2225090721212160 11.6955055858729882 Zr
    velocity -0.1050109239442663 0.0309246516408727 0.0378202768871551
atom -0.3901312425150755 5.4385090721212137 11.6955055858729882 Zr
    velocity -0.6534157152206799 0.2900294266478680 -0.0456913624879627
atom 4.7888687574849262 5.4385090721212137 11.6955055858729882 Zr
    velocity -0.1367255282311104 0.3971156871128657 0.2143790764836386
atom 9.9678687574849238 5.4385090721212137 11.6955055858729882 Zr
    velocity 0.5178885537375356 -0.1160479012498294 -0.5364287143416799
atom 15.1468687574849259 5.4385090721212137 11.6955055858729882 Zr
    velocity -0.0364386053744171 0.1073903869055758 -0.3169989467997377
atom 20.3258687574849191 5.4385090721212137 11.6955055858729882 Zr
    velocity -0.6406668685830985 -0.0948816440138086 0.5786539905267302
atom 25.5048687574849211 5.4385090721212137 11.6955055858729882 Zr
    velocity 0.0729057418749999 0.3479143425797891 0.0083653134414623
atom -0.3901312425150755 10.6545090721212148 11.6955055858729882 Zr
    velocity 0.2509298532972560 -0.3646614811534080 -0.1094822672755131
atom 4.7888687574849262 10.6545090721212148 11.6955055858729882 Zr
    velocity 0.3802327066646317 0.4079090251008831 0.2343208820373291
atom 9.9678687574849238 10.6545090721212148 11.6955055858729882 Zr
    velocity -0.0184484046721615 -0.5607340320808546 0.6224399165157559
atom 15.1468687574849259 10.6545090721212148 11.6955055858729882 Zr
    velocity 0.2182509689712029 0.0560646272976887 0.5388826329324220
atom 20.3258687574849191 10.6545090721212148 11.6955055858729882 Zr
    velocity 0.0175483515761691 -0.4852395341405550 0.3664769776112632
atom 25.5048687574849211 10.6545090721212148 11.6955055858729882 Zr
    velocity 0.2834750044943128 0.0480742820155816 -0.7681457445464516
atom -0.3901312425150755 15.8705090721212141 11.6955055858729882 Zr
    velocity -0.1805973094022758 0.5351301767803479 -0.4160829990851719
atom 4.7888687574849262 15.8705090721212141 11.6955055858729882 Zr
    velocity 0.1971118260161560 -0.2301904134013526 -0.0298550217053151
atom 9.9678687574849238 15.8705090721212141 11.6955055858729882 Zr
    velocity -0.1610104705715191 -0.6651133305866644 0.2277731666150678
atom 15.1468687574849259 15.8705090721212141 11.6955055858729882 Zr
    velocity 0.1502057472876500 0.3780948963547437 0.0418688549716510
atom 20.3258687574849191 15.8705090721212141 11.6955055858729882 Zr
    velocity -0.2230512156960513 -0.2550417999528801 0.0409514100930241
atom 25.5048687574849211 15.8705090721212141 11.6955055858729882 Zr
    velocity 0.0497271741659945 0.2520340743112384 -0.4176732915143337
atom -0.3901312425150755 21.0865090721212169 11.6955055858729882 Zr
    velocity 0.0100237494893199 0.0460403341380026 0.4772004607764028
atom 4.7888687574849262 21.0865090721212169 11.6955055858729882 Zr
    velocity 0.0485050609589371 -0.1179591178197234 -0.3415356672909391
atom 9.9678687574849238 21.0865090721212169 11.6955055858729882 Zr
    velocity -0.0927732919779989 0.2391094549358801 0.0741606410951600
atom 15.1468687574849259 21.0865090721212169 11.6955055858729882 Zr
    velocity -0.2063549886565538 -0.3918867469041981 -0.1295406913403365
atom 20.3258687574849191 21.0865090721212169 11.6955055858729882 Zr
    velocity -0.0351951117576978 -0.2387356750639862 0.1122642038178413
atom 25.5048687574849211 21.0865090721212169 11.6955055858729882 Zr
    velocity 0.4865534162704780 -0.2593418595250250 0.1886911593001965
atom -0.3901312425150755 26.3025090721212145 11.6955055858729882 Zr
    velocity 0.1686670318620678 -0.0378569650246390 -0.1263602948859331
atom 4.7888687574849262 26.3025090721212145 11.6955055858729882 Zr
    velocity -0.1890754102537834 -0.2728015374732007 -0.4803130472431110
atom 9.9678687574849238 26.3025090721212145 11.6955055858729882 Zr
    velocity -0.1529513840560892 0.3448648228507209 0.1579039822335064
atom 15.1468687574849259 26.3025090721212145 11.6955055858729882 Zr
    velocity -0.2253464755354632 -0.1831011777686265 0.0960045716618715
atom 20.3258687574849191 26.3025090721212145 11.6955055858729882 Zr
    velocity -0.0568744129613285 -0.1199028790987949 0.4745815903164298
atom 25.5048687574849211 26.3025090721212145 11.6955055858729882 Zr
    velocity 0.3639386886474464 -0.0407362850470442 -0.3851395494818551
atom -1.2150656969041469 0.2225090721212160 16.9875958294309903 Zr
    velocity 0.6775979102198731 -0.8147380252829768 -0.0846358026506063
atom 3.9639343030958551 0.2225090721212160 16.9875958294309903 Zr
    velocity -0.1772894451187492 -0.1433005809042863 0.4061602528818358
atom 9.1429343030958474 0.2225090721212160 16.9875958294309903 Zr
    velocity 0.2403369165387410 0.0276593824440213 -0.1588291448617350
atom 14.3219343030958530 0.2225090721212160 16.9875958294309903 Zr
    velocity -0.0280071761545626 -0.0359453506233429 0.1967109627317890
atom 19.5009343030958497 0.2225090721212160 16.9875958294309903 Zr
    velocity -0.3803771021487711 -0.0848207876596995 -0.2802945897643135
atom 24.6799343030958518 0.2225090721212160 16.9875958294309903 Zr
    velocity -0.4796981570163776 -0.6986858158421857 0.1856196854518552
atom -1.2150656969041469 5.4385090721212137 16.9875958294309903 Zr
    velocity -0.3298335197994437 -0.6210166180054566 0.3443703704914189
atom 3.9639343030958551 5.4385090721212137 16.9875958294309903 Zr
    velocity -0.0411575931811565 0.0908615816139615 -0.4259791532855314
atom 9.1429343030958474 5.4385090721212137 16.9875958294309903 Zr
    velocity 0.3031971202552450 -0.1663795263746868 -0.0003553045783471
atom 14.3219343030958530 5.4385090721212137 16.9875958294309903 Zr
    velocity 0.0856501091909509 0.0910943549530367 0.1032567132170874
atom 19.5009343030958497 5.4385090721212137 16.9875958294309903 Zr
    velocity -0.1806155509756943 -0.2353585729765557 0.2906690430515472
atom 24.6799343030958518 5.4385090721212137 16.9875958294309903 Zr
    velocity 0.4184564423165428 0.2804610103177440 -0.5935507830824387
atom -1.2150656969041469 10.6545090721212148 16.9875958294309903 Zr
    velocity 0.5599292678623908 0.1587094314908543 -0.0058459417290633
atom 3.9639343030958551 10.6545090721212148 16.9875958294309903 Zr
    velocity -0.5612840471766388 0.0001485927945210 0.3782118097144535
atom 9.1429343030958474 10.6545090721212148 16.9875958294309903 Zr
    velocity 0.0204081741569682 -0.3299981507202459 -0.3561272010051129
atom 14.3219343030958530 10.6545090721212148 16.9875958294309903 Zr
    velocity 0.2601921745500145 0.2418545953655453 -0.2428160789062654
atom 19.5009343030958497 10.6545090721212148 16.9875958294309903 Zr
    velocity -0.2187115171097107 0.4727894088801096 -0.2153828949947802
atom 24.6799343030958518 10.6545090721212148 16.9875958294309903 Zr
    velocity -0.3314668564427001 0.7847178255921335 -0.3031934580517183
atom -1.2150656969041469 15.8705090721212141 16.9875958294309903 Zr
    velocity -0.0832029947110539 0.1467814235334927 -0.3561764860760194
atom 3.9639343030958551 15.8705090721212141 16.9875958294309903 Zr
    velocity 0.3801168010800567 -0.3202010081071542 -0.3006649281843929
atom 9.1429343030958474 15.8705090721212141 16.9875958294309903 Zr
    velocity -0.0045841372917094 -0.2215435413792528 -0.0426698021313935
atom 14.3219343030958530 15.8705090721212141 16.9875958294309903 Zr
    velocity 0.1077359272404980 -0.1034985632150873 0.0808419519167393
atom 19.5009343030958497 15.8705090721212141 16.9875958294309903 Zr
    velocity 0.2327154121487032 -0.3294691084692915 0.3673075958694699
atom 24.6799343030958518 15.8705090721212141 16.9875958294309903 Zr
    velocity 0.0093641524607521 -0.1366871876712233 0.3825119898962106
atom -1.2150656969041469 21.0865090721212169 16.9875958294309903 Zr
    velocity -0.2244230575140610 0.3764966937075435 -0.1718169242136147
atom 3.9639343030958551 21.0865090721212169 16.9875958294309903 Zr
    velocity 0.0443680480760031 0.0483342062617820 0.2630857316362650
atom 9.1429343030958474 21.0865090721212169 16.9875958294309903 Zr
    velocity 0.1589781807101308 -0.4486492885099921 0.5198077604914341
atom 14.3219343030958530 21.0865090721212169 16.9875958294309903 Zr
    velocity -0.1717752975675472 0.1705711765463468 0.3137764343399576
atom 19.5009343030958497 21.0865090721212169 16.9875958294309903 Zr
    velocity -0.0817636001220984 -0.1735543179223645 -0.1609945338084381
atom 24.6799343030958518 21.0865090721212169 16.9875958294309903 Zr
    velocity 0.2774578717485378 -0.0804935952913745 -0.0839563585094051
atom -1.2150656969041469 26.3025090721212145 16.9875958294309903 Zr
    velocity 0.4407746047497652 0.1858494843281423 -0.2212343696500174
atom 3.9639343030958551 26.3025090721212145 16.9875958294309903 Zr
    velocity -0.1566661446296003 -0.5567872654480964 -0.0005211145062674
atom 9.1429343030958474 26.3025090721212145 16.9875958294309903 Zr
    velocity 0.3710754693714525 0.5371815358890890 -0.1360787081811307
atom 14.3219343030958530 26.3025090721212145 16.9875958294309903 Zr
    velocity 0.0032491267216970 -0.1016105308837835 0.0679267914156231
atom 19.5009343030958497 26.3025090721212145 16.9875958294309903 Zr
    velocity 0.0065406168013180 -0.4475054220355919 0.5981901914515565
atom 24.6799343030958518 26.3025090721212145 16.9875958294309903 Zr
    velocity -0.7196744258055434 -0.0443141112983468 0.4082465535458911
atom -2.0400001512932171 0.2225090721212160 22.2796860729889907 Zr
    velocity -0.6819580500760095 -0.2612042744971261 0.4739244845168208
atom 3.1389998487067845 0.2225090721212160 22.2796860729889907 Zr
    velocity -0.0322683362783312 -0.0887559639656406 0.2730150298370333
atom 8.3179998487067817 0.2225090721212160 22.2796860729889907 Zr
    velocity -0.5021489829103296 -0.4699688437860297 0.0971792200475715
atom 13.4969998487067837 0.2225090721212160 22.2796860729889907 Zr
    velocity 0.2217929270353823 -0.1446761884475993 0.0458771642755157
atom 18.6759998487067769 0.2225090721212160 22.2796860729889907 Zr
    velocity 0.1725574882351842 -0.0160585304750059 0.1674577304741143
atom 23.8549998487067789 0.2225090721212160 22.2796860729889907 Zr
    velocity 0.0000170732829215 0.5840084100465989 -0.2624028280352257
atom -2.0400001512932171 5.4385090721212137 22.2796860729889907 Zr
    velocity 0.1883455723812000 0.2770059164509616 -0.4958144178666547
atom 3.1389998487067845 5.4385090721212137 22.2796860729889907 Zr
    velocity -0.3640378188095766 0.0363435981508743 -0.1711399030196763
atom 8.3179998487067817 5.4385090721212137 22.2796860729889907 Zr
    velocity -0.0457270921283311 0.4052123809161015 -0.0572349648157708
atom 13.4969998487067837 5.4385090721212137 22.2796860729889907 Zr
    velocity 0.3597127237752062 0.2889637653654775 -0.2202206966649241
atom 18.6759998487067769 5.4385090721212137 22.2796860729889907 Zr
    velocity -0.1899972259889496 0.3851101395163568 -0.0311545095893023
atom 23.8549998487067789 5.4385090721212137 22.2796860729889907 Zr
    velocity -0.5535016676815983 0.3179369929523586 -0.1442466332752452
atom -2.0400001512932171 10.6545090721212148 22.2796860729889907 Zr
    velocity -0.0400167496498690 0.0651074654964364 0.0512204832667640
atom 3.1389998487067845 10.6545090721212148 22.2796860729889907 Zr
    velocity 0.2237467617063025 0.0904269759912350 -0.3641276970981274
atom 8.3179998487067817 10.6545090721212148 22.2796860729889907 Zr
    velocity 0.1161162377061975 0.4235685873697794 0.3418136995758442
atom 13.4969998487067837 10.6545090721212148 22.2796860729889907 Zr
    velocity -0.0259467498608753 -0.1900762987206460 0.1056532077386277
atom 18.6759998487067769 10.6545090721212148 22.2796860729889907 Zr
    velocity -0.4677998184350394 0.2184627010500710 -0.3401833065381060
atom 23.8549998487067789 10.6545090721212148 22.2796860729889907 Zr
    velocity -0.1769109633054921 -0.3451016958158782 -0.1566575351206866
atom -2.0400001512932171 15.8705090721212141 22.2796860729889907 Zr
    velocity -0.1894753928617966 0.5258665567043183 0.1056911126049236
atom 3.1389998487067845 15.8705090721212141 22.2796860729889907 Zr
    velocity 0.1935958264917169 -0.0049260665947642 0.3741458765160724
atom 8.3179998487067817 15.8705090721212141 22.2796860729889907 Zr
    velocity 0.1379970443542819 0.1159465330794644 -0.0173562866457760
atom 13.4969998487067837 15.8705090721212141 22.2796860729889907 Zr
    velocity 0.1549553265889246 0.4359452413176505 0.0782718029148388
atom 18.6759998487067769 15.8705090721212141 22.2796860729889907 Zr
    velocity 0.6394140672336571 -0.1973652930004188 0.1710238038928903
atom 23.8549998487067789 15.8705090721212141 22.2796860729889907 Zr
    velocity 0.0634115406527981 -0.2055399974119123 -0.3509582246579249
atom -2.0400001512932171 21.0865090721212169 22.2796860729889907 Zr
    velocity -0.2800741776755151 -0.4755504516538995 -0.2593914869296448
atom 3.1389998487067845 21.0865090721212169 22.2796860729889907 Zr
    velocity -0.2272259867028010 -0.1668566670543453 0.2699528461596148
atom 8.3179998487067817 21.0865090721212169 22.2796860729889907 Zr
    velocity -0.1176714536943351 -0.5742048296017136 0.2596425712500829
atom 13.4969998487067837 21.0865090721212169 22.2796860729889907 Zr
    velocity 0.1632790177311970 0.2980022132046430 -0.2870101100492303
atom 18.6759998487067769 21.0865090721212169 22.2796860729889907 Zr
    velocity -0.7433476027502955 -0.4267031055976902 0.1145157583125672
atom 23.8549998487067789 21.0865090721212169 22.2796860729889907 Zr
    velocity -0.1419221681228780 0.0759072073332699 -0.0813324263966942
atom -2.0400001512932171 26.3025090721212145 22.2796860729889907 Zr
    velocity -0.3258256011007642 0.1770575618906472 -0.0838883882389040
atom 3.1389998487067845 26.3025090721212145 22.2796860729889907 Zr
    velocity 0.2340951652840012 0.1688024893596332 0.0035816676836250
atom 8.3179998487067817 26.3025090721212145 22.2796860729889907 Zr
    velocity 0.1611139597814607 0.1486522855195718 0.1183683795697794
atom 13.4969998487067837 26.3025090721212145 22.2796860729889907 Zr
    velocity -0.4271574197136458 -0.7962293453007392 -0.0061970161835319
atom 18.6759998487067769 26.3025090721212145 22.2796860729889907 Zr
    velocity 0.2618765006212582 0.0805319447853606 0.2373432149880077
atom 23.8549998487067789 26.3025090721212145 22.2796860729889907 Zr
    velocity 0.0248854919362430 -0.0456008101537649 0.1345324455723488
atom -2.8649346056822891 0.2225090721212160 27.5717763165469947 Zr
    velocity 0.1287228365632633 0.4283878393756851 -0.0106047823718850
atom 2.3140653943177130 0.2225090721212160 27.5717763165469947 Zr
    velocity -0.3436520115643327 0.0594610993101351 -0.1683782110401691
atom 7.4930653943177097 0.2225090721212160 27.5717763165469947 Zr
    velocity 0.3330550062496224 -0.0054837617783289 0.1993158115535762
atom 12.6720653943177108 0.2225090721212160 27.5717763165469947 Zr
    velocity 0.3078642570241564 -0.2043704008381833 0.0762527458103243
atom 17.8510653943177076 0.2225090721212160 27.5717763165469947 Zr
    velocity -0.2472685045858211 -0.2249946385499375 -0.0280627333605357
atom 23.0300653943177096 0.2225090721212160 27.5717763165469947 Zr
    velocity -0.6285397347785360 -0.0313373527534922 -0.4880601279120661
atom -2.8649346056822891 5.4385090721212137 27.5717763165469947 Zr
    velocity 0.2469450921791800 0.1330171045057401 0.3481866240615891
atom 2.3140653943177130 5.4385090721212137 27.5717763165469947 Zr
    velocity 0.6910255447382093 0.0927755598859500 -0.0285222540975545
atom 7.4930653943177097 5.4385090721212137 27.5717763165469947 Zr
    velocity 0.5531261007665864 -0.0188634068139457 -0.2885258187897356
atom 12.6720653943177108 5.4385090721212137 27.5717763165469947 Zr
    velocity -0.3337615650447899 0.0129819260951337 0.1803736704845682
atom 17.8510653943177076 5.4385090721212137 27.5717763165469947 Zr
    velocity -0.2584145488269823 0.3671645683661796 0.3357905496061144
atom 23.0300653943177096 5.4385090721212137 27.5717763165469947 Zr
    velocity -0.1364555747663606 -0.4351631416939967 -0.0022317443087282
atom -2.8649346056822891 10.6545090721212148 27.5717763165469947 Zr
    velocity -0.4508030470349805 -0.1308711077277169 -0.3642165517578523
atom 2.3140653943177130 10.6545090721212148 27.5717763165469947 Zr
    velocity 0.0634402609076372 -0.1952914281487608 -0.2187242143552622
atom 7.4930653943177097 10.6545090721212148 27.5717763165469947 Zr
    velocity -0.0405668261597650 0.1133129926644246 0.1365101722047494
atom 12.6720653943177108 10.6545090721212148 27.5717763165469947 Zr
    velocity 0.0135862449473149 0.2378470883061996 0.0436025980487649
atom 17.8510653943177076 10.6545090721212148 27.5717763165469947 Zr
    velocity -0.2504457481329746 0.1791494195184682 -0.6453956940884544
atom 23.0300653943177096 10.6545090721212148 27.5717763165469947 Zr
    velocity -0.7052698766743456 -0.2775473228370404 -0.4900038736748989
atom -2.8649346056822891 15.8705090721212141 27.5717763165469947 Zr
    velocity -0.0428658649115870 -0.5153220787856013 -0.2341481862326248
atom 2.3140653943177130 15.8705090721212141 27.5717763165469947 Zr
    velocity -0.0533583854569375 0.0900042275337735 0.4733120623413806
atom 7.4930653943177097 15.8705090721212141 27.5717763165469947 Zr
    velocity -0.1795155099377239 -0.0507173577966224 -0.1905132913509526
atom 12.6720653943177108 15.8705090721212141 27.5717763165469947 Zr
    velocity -0.1118782749728700 0.0451259654070773 0.1989653283717356
atom 17.8510653943177076 15.8705090721212141 27.5717763165469947 Zr
    velocity -0.1655968973470301 -0.0227913452435858 -0.5816168882102644
atom 23.0300653943177096 15.8705090721212141 27.5717763165469947 Zr
    velocity 0.0637022473776121 0.1100221290814406 -0.0355735368994762
atom -2.8649346056822891 21.0865090721212169 27.5717763165469947 Zr
    velocity 0.1400034152983482 0.0427118089760139 -0.1793459920490188
atom 2.3140653943177130 21.0865090721212169 27.5717763165469947 Zr
    velocity 0.0717515977598094 0.1218279431616910 0.1028544483136706
atom 7.4930653943177097 21.0865090721212169 27.5717763165469947 Zr
    velocity -0.0287478529747492 0.4664527647897830 0.1835350589620463
atom 12.6720653943177108 21.0865090721212169 27.5717763165469947 Zr
    velocity -0.1888560125091477 -0.1719322180766909 0.3392686221432999
atom 17.8510653943177076 21.0865090721212169 27.5717763165469947 Zr
    velocity 0.2636487741380079 0.1387397864996230 -0.0168435412145369
atom 23.0300653943177096 21.0865090721212169 27.5717763165469947 Zr
    velocity -0.1929310546157077 0.1810277066873334 -0.2476308129360285
atom -2.8649346056822891 26.3025090721212145 27.5717763165469947 Zr
    velocity -0.2765984412840654 0.1719983138414848 0.5306325689074443