#=======================================================
# FHI-aims file: 1050_geometry.in.primitive
# Created using the Atomic Simulation Environment (ASE)
# Fri Dec 30 21:05:11 2022
#=======================================================
lattice_vector 5.1790000000000003 0.0000000000000000 0.0000000000000000 
lattice_vector 0.0000000000000000 5.2160000000000002 0.0000000000000000 
lattice_vector -0.8249344543890712 0.0000000000000000 5.2920902435580031 
atom_frac 0.2766888863420000 0.0426589478760000 0.2099973824350000 Zr
atom_frac 0.7233110566579999 0.9573410521240002 0.7900026315650001 Zr
atom_frac 0.7233110566580001 0.5426589478760001 0.2900026315650001 Zr
atom_frac 0.2766888863420001 0.4573410521240000 0.7099973824350001 Zr
atom_frac 0.0694655203460000 0.3349073226360000 0.3426784811360001 O
atom_frac 0.9305344226540000 0.6650926773640001 0.6573215328640001 O
atom_frac 0.9305344226540000 0.8349073226360002 0.1573215328640000 O
atom_frac 0.0694655203460000 0.1650926773640000 0.8426784811360003 O
atom_frac 0.4492283732750000 0.7574305288080000 0.4792091995290001 O
atom_frac 0.5507715697250000 0.2425694711920000 0.5207908144710002 O
atom_frac 0.5507715697249999 0.2574305288080000 0.0207908144710000 O
atom_frac 0.4492283732750000 0.7425694711920002 0.9792091995290003 O
