#=======================================================
# FHI-aims file: 1400_geometry.in.primitive.supercell_1500.0010K
# Created using the Atomic Simulation Environment (ASE)
# Tue Aug 16 11:33:18 2022

# Additional information:
#  created from MB distrubtion
#  T = 10.0 K
#  quantum:             False
#  deterministic:       False
#  plus_minus:          False
#  gauge_eigenvectors:  False
#  Random seed:         1913332945
#  Sample number:       1
#=======================================================
lattice_vector 25.9799999999999969 0.0000000000000000 0.0000000000000000 
lattice_vector 0.0000000000000000 26.0950000000000024 0.0000000000000000 
lattice_vector -4.0689242315413052 0.0000000000000000 26.6309492057263313 
atom 1.2667827658430282 0.2226370489648440 1.1184859249923942 Zr
    velocity -0.2151265088412767 0.5239314166333247 -0.0383014416739419
atom 6.4627827658430279 0.2226370489648440 1.1184859249923942 Zr
    velocity 0.2698292796582107 -0.0420463492902571 0.3302820086496240
atom 11.6587827658430285 0.2226370489648440 1.1184859249923942 Zr
    velocity 0.0090191237715848 -0.0081756841791473 0.1947561709026284
atom 16.8547827658430300 0.2226370489648440 1.1184859249923942 Zr
    velocity -0.2538020145408920 0.3015220053250317 0.4039907801312357
atom 22.0507827658430280 0.2226370489648440 1.1184859249923942 Zr
    velocity -0.1947860396059427 -0.1262221182481945 -0.1401012836677943
atom 1.2667827658430282 5.4416370489648447 1.1184859249923942 Zr
    velocity 0.6399012208745387 -0.2843167711333552 -0.2818787918451052
atom 6.4627827658430279 5.4416370489648447 1.1184859249923942 Zr
    velocity 0.2964149196417564 -0.0105228150623254 -0.1275672918913570
atom 11.6587827658430285 5.4416370489648447 1.1184859249923942 Zr
    velocity 0.2413637003068816 -0.0586950817224337 0.4351645310653236
atom 16.8547827658430300 5.4416370489648447 1.1184859249923942 Zr
    velocity -0.3791316543343572 -0.4496671848933201 -0.1415727122656210
atom 22.0507827658430280 5.4416370489648447 1.1184859249923942 Zr
    velocity 0.0616377103518891 -0.1728270495249563 -0.2402622681056994
atom 1.2667827658430282 10.6606370489648477 1.1184859249923942 Zr
    velocity -0.4782522238518049 0.6304060626670310 -0.4365181462083302
atom 6.4627827658430279 10.6606370489648477 1.1184859249923942 Zr
    velocity -0.3780373350558561 0.2328030147583427 -0.2815531162561944
atom 11.6587827658430285 10.6606370489648477 1.1184859249923942 Zr
    velocity 0.1062105183114618 -0.2120145149467601 -0.2732054188101716
atom 16.8547827658430300 10.6606370489648477 1.1184859249923942 Zr
    velocity -0.1577608852360420 -0.6721014573362089 0.1080131791363578
atom 22.0507827658430280 10.6606370489648477 1.1184859249923942 Zr
    velocity 0.5163365051310652 0.9097044492815215 -0.2595738155280959
atom 1.2667827658430282 15.8796370489648488 1.1184859249923942 Zr
    velocity 0.1529549843235647 0.2776812600087043 -0.2999730926742882
atom 6.4627827658430279 15.8796370489648488 1.1184859249923942 Zr
    velocity 0.1240093829895539 -0.0705115880380430 0.1391216634026013
atom 11.6587827658430285 15.8796370489648488 1.1184859249923942 Zr
    velocity -0.1019522532770410 0.6851171773757019 -0.2591539299879054
atom 16.8547827658430300 15.8796370489648488 1.1184859249923942 Zr
    velocity 0.2630235898656833 0.1097836578804568 -0.3296440462832689
atom 22.0507827658430280 15.8796370489648488 1.1184859249923942 Zr
    velocity 0.0882143957784875 -0.1327953716155098 0.3621351828791571
atom 1.2667827658430282 21.0986370489648500 1.1184859249923942 Zr
    velocity 0.0344908254822348 0.0334512775641130 -0.1569977773212382
atom 6.4627827658430279 21.0986370489648500 1.1184859249923942 Zr
    velocity -0.1470713860447131 0.6833891203602971 0.5631312187507687
atom 11.6587827658430285 21.0986370489648500 1.1184859249923942 Zr
    velocity -0.1724576365127581 0.0778795177891776 0.3115206772605743
atom 16.8547827658430300 21.0986370489648500 1.1184859249923942 Zr
    velocity -0.0946097733998090 -0.1112657556979864 0.0557310768556196
atom 22.0507827658430280 21.0986370489648500 1.1184859249923942 Zr
    velocity -0.2249769443402369 0.0997929989418364 0.4160098879660276
atom 0.4529979195347668 0.2226370489648440 6.4446757661376637 Zr
    velocity 0.0153612886248808 0.1780256630196842 0.0053618495944545
atom 5.6489979195347670 0.2226370489648440 6.4446757661376637 Zr
    velocity -0.2172865696166878 -0.6161196766264474 0.0101767610934213
atom 10.8449979195347659 0.2226370489648440 6.4446757661376637 Zr
    velocity 0.5231898918228703 -0.1674681414671381 0.0181327768382837
atom 16.0409979195347709 0.2226370489648440 6.4446757661376637 Zr
    velocity -0.1154687086625215 0.2641862806816111 0.0776972991758061
atom 21.2369979195347689 0.2226370489648440 6.4446757661376637 Zr
    velocity 0.2660289311605074 -0.0613766566216907 0.1401426451855406
atom 0.4529979195347668 5.4416370489648447 6.4446757661376637 Zr
    velocity 0.4987556651968547 -0.2051888919567892 0.1794248225500012
atom 5.6489979195347670 5.4416370489648447 6.4446757661376637 Zr
    velocity 0.2120287911459943 -0.0446679381187046 -0.3179940472588182
atom 10.8449979195347659 5.4416370489648447 6.4446757661376637 Zr
    velocity -0.1856678849422926 0.6929461706526113 0.0279540411924147
atom 16.0409979195347709 5.4416370489648447 6.4446757661376637 Zr
    velocity -0.0213221457298879 0.0376810538833925 -0.5121831146222189
atom 21.2369979195347689 5.4416370489648447 6.4446757661376637 Zr
    velocity -0.0170638412195631 0.3017421235601926 -0.0085341320827155
atom 0.4529979195347668 10.6606370489648477 6.4446757661376637 Zr
    velocity 0.1539231784763291 0.3137332547402011 -0.2673263931565464
atom 5.6489979195347670 10.6606370489648477 6.4446757661376637 Zr
    velocity 0.1792643992811277 -0.1357382783596790 0.0025172641467187
atom 10.8449979195347659 10.6606370489648477 6.4446757661376637 Zr
    velocity 0.7445973593734626 -0.5878158912847683 0.7647107864433320
atom 16.0409979195347709 10.6606370489648477 6.4446757661376637 Zr
    velocity -0.0751817533645250 0.0193435177643148 0.0049609719045463
atom 21.2369979195347689 10.6606370489648477 6.4446757661376637 Zr
    velocity -0.1942621755334964 -0.4048021572930357 0.2773370912484573
atom 0.4529979195347668 15.8796370489648488 6.4446757661376637 Zr
    velocity 0.1743333614521598 0.0621686815124281 0.2789460314245724
atom 5.6489979195347670 15.8796370489648488 6.4446757661376637 Zr
    velocity -0.1301603865637193 0.4477425385874310 0.2727683268297144
atom 10.8449979195347659 15.8796370489648488 6.4446757661376637 Zr
    velocity 0.1612191529144400 0.8444014239094065 -0.2651570831618396
atom 16.0409979195347709 15.8796370489648488 6.4446757661376637 Zr
    velocity 0.0972629549802952 -0.1536160214809509 0.2542804228129311
atom 21.2369979195347689 15.8796370489648488 6.4446757661376637 Zr
    velocity 0.2597340757400418 -0.3496080076000982 -0.2844761252211210
atom 0.4529979195347668 21.0986370489648500 6.4446757661376637 Zr
    velocity 0.1260939282140432 -0.2607644105296905 -0.0121342419394172
atom 5.6489979195347670 21.0986370489648500 6.4446757661376637 Zr
    velocity 0.4540157073027656 -0.2400651867833885 -0.1574781123869005
atom 10.8449979195347659 21.0986370489648500 6.4446757661376637 Zr
    velocity -0.0372120860676306 0.0792914358899258 -0.4434402765180101
atom 16.0409979195347709 21.0986370489648500 6.4446757661376637 Zr
    velocity 0.1062736421535783 -0.3849225186590132 0.1892250057839048
atom 21.2369979195347689 21.0986370489648500 6.4446757661376637 Zr
    velocity 0.6788932481302368 0.2668373340921832 0.5295210223786880
atom -0.3607869267734943 0.2226370489648440 11.7708656072829303 Zr
    velocity 0.2456254994618191 0.3579044656547060 0.4109914088307229
atom 4.8352130732265053 0.2226370489648440 11.7708656072829303 Zr
    velocity 0.4424470315644021 -0.4221014805617896 -0.5134710509860494
atom 10.0312130732265050 0.2226370489648440 11.7708656072829303 Zr
    velocity -0.3783387277665687 -0.1704011297643492 -0.4249519933178068
atom 15.2272130732265083 0.2226370489648440 11.7708656072829303 Zr
    velocity -0.4256796460531171 0.2844252869689162 -0.0222750897418753
atom 20.4232130732265063 0.2226370489648440 11.7708656072829303 Zr
    velocity 0.0436210921338752 -0.1502441770204281 -0.3856599992878603
atom -0.3607869267734943 5.4416370489648447 11.7708656072829303 Zr
    velocity -0.0793848864324653 0.1475123939583250 0.2547824279064847
atom 4.8352130732265053 5.4416370489648447 11.7708656072829303 Zr
    velocity 0.4679411567732434 -0.0373024990400841 -0.0612989210424761
atom 10.0312130732265050 5.4416370489648447 11.7708656072829303 Zr
    velocity 0.1965463620738509 -0.1775354088381401 -0.1763043337220654
atom 15.2272130732265083 5.4416370489648447 11.7708656072829303 Zr
    velocity 0.0117244680693561 0.3417245500843809 -0.2411571502151253
atom 20.4232130732265063 5.4416370489648447 11.7708656072829303 Zr
    velocity -0.4265177538399660 0.4297764531764871 0.5116476897276645
atom -0.3607869267734943 10.6606370489648477 11.7708656072829303 Zr
    velocity 0.0803584051499973 0.1346566673965459 -0.1486723220027525
atom 4.8352130732265053 10.6606370489648477 11.7708656072829303 Zr
    velocity -0.3185876813450233 -0.0171291689365958 0.3213157771158965
atom 10.0312130732265050 10.6606370489648477 11.7708656072829303 Zr
    velocity -0.1658949701799642 -0.9082985528866272 -0.3004395092161123
atom 15.2272130732265083 10.6606370489648477 11.7708656072829303 Zr
    velocity -0.0348510071861944 -0.0765702830204879 0.2406307582335402
atom 20.4232130732265063 10.6606370489648477 11.7708656072829303 Zr
    velocity 0.7578284317414384 0.0639163539380290 0.0241881349395392
atom -0.3607869267734943 15.8796370489648488 11.7708656072829303 Zr
    velocity -0.5530419104160549 -0.4453402742088804 -0.2020704188111267
atom 4.8352130732265053 15.8796370489648488 11.7708656072829303 Zr
    velocity -0.1412766075953877 0.5585273364859502 -0.0028452253853073
atom 10.0312130732265050 15.8796370489648488 11.7708656072829303 Zr
    velocity -0.5504167243622966 0.0917874542790978 0.5816443581688172
atom 15.2272130732265083 15.8796370489648488 11.7708656072829303 Zr
    velocity -0.3492464681946659 -0.2973608732629618 -0.2787180384523844
atom 20.4232130732265063 15.8796370489648488 11.7708656072829303 Zr
    velocity -0.4474004527034692 -0.3546391648190483 0.0381095982863060
atom -0.3607869267734943 21.0986370489648500 11.7708656072829303 Zr
    velocity -0.0124112955928180 -0.0857175802804513 -0.0783846173095668
atom 4.8352130732265053 21.0986370489648500 11.7708656072829303 Zr
    velocity 0.3641676462275591 0.6559427385016044 -0.1523641262047746
atom 10.0312130732265050 21.0986370489648500 11.7708656072829303 Zr
    velocity -0.2009466552294549 -0.3014622040216095 0.1993828419737294
atom 15.2272130732265083 21.0986370489648500 11.7708656072829303 Zr
    velocity -0.3235232709823319 -0.1009180625701928 0.0800150007913160
atom 20.4232130732265063 21.0986370489648500 11.7708656072829303 Zr
    velocity 0.2664992040297278 0.2739187144980870 0.3374989998552730
atom -1.1745717730817551 0.2226370489648440 17.0970554484281934 Zr
    velocity 0.1158475114049936 -0.4544185776932058 -0.0504409911724780
atom 4.0214282269182444 0.2226370489648440 17.0970554484281934 Zr
    velocity 0.0688574819054046 0.0714542018415427 0.2854743448077879
atom 9.2174282269182441 0.2226370489648440 17.0970554484281934 Zr
    velocity -0.4488516613917773 0.1647128980123826 0.2009325478582115
atom 14.4134282269182474 0.2226370489648440 17.0970554484281934 Zr
    velocity 0.3835924086136689 0.0309839115891342 -0.1714309066219302
atom 19.6094282269182472 0.2226370489648440 17.0970554484281934 Zr
    velocity -0.4259918813831788 0.2191764284295991 0.0922044835097182
atom -1.1745717730817551 5.4416370489648447 17.0970554484281934 Zr
    velocity 0.2609386125274600 -0.1014636548311309 -0.1194951067993413
atom 4.0214282269182444 5.4416370489648447 17.0970554484281934 Zr
    velocity 0.0560083186115256 -0.1825544054002400 0.0857460673846984
atom 9.2174282269182441 5.4416370489648447 17.0970554484281934 Zr
    velocity 0.0300994979524393 0.3416418179827206 -0.0568813899831240
atom 14.4134282269182474 5.4416370489648447 17.0970554484281934 Zr
    velocity 0.0240017849865563 0.1238263595923999 0.0324814071849609
atom 19.6094282269182472 5.4416370489648447 17.0970554484281934 Zr
    velocity 0.3361546279875914 -0.2674332735366021 0.2649706710792443
atom -1.1745717730817551 10.6606370489648477 17.0970554484281934 Zr
    velocity 0.0919913364138892 -0.5957546362617249 -0.0749543801396067
atom 4.0214282269182444 10.6606370489648477 17.0970554484281934 Zr
    velocity -0.1438826970048019 0.0959521614824944 0.1128531958703923
atom 9.2174282269182441 10.6606370489648477 17.0970554484281934 Zr
    velocity 0.3795323159763563 -0.0928923049423534 0.1392828856343353
atom 14.4134282269182474 10.6606370489648477 17.0970554484281934 Zr
    velocity -0.5714585769343988 -0.2427305923430282 0.4205163669009420
atom 19.6094282269182472 10.6606370489648477 17.0970554484281934 Zr
    velocity 0.2620722248661075 0.0456883985511322 0.2365334325046671
atom -1.1745717730817551 15.8796370489648488 17.0970554484281934 Zr
    velocity -0.0758582892777991 0.0128518762171281 0.1573954584604222
atom 4.0214282269182444 15.8796370489648488 17.0970554484281934 Zr
    velocity -0.0460166454530010 -0.5028534387142244 0.6553256344214743
atom 9.2174282269182441 15.8796370489648488 17.0970554484281934 Zr
    velocity 0.4392739250050683 0.0964304913219640 -0.2930434739094430
atom 14.4134282269182474 15.8796370489648488 17.0970554484281934 Zr
    velocity 0.2520158293828824 0.1550279585411115 0.5369203713525056
atom 19.6094282269182472 15.8796370489648488 17.0970554484281934 Zr
    velocity 0.3163641605148851 -0.5008404293383977 -0.4092490188215054
atom -1.1745717730817551 21.0986370489648500 17.0970554484281934 Zr
    velocity 0.5372950758938572 0.0088647919854452 -0.5177473461050406
atom 4.0214282269182444 21.0986370489648500 17.0970554484281934 Zr
    velocity -0.0497910253797438 0.0826891621565184 0.1876590109290295
atom 9.2174282269182441 21.0986370489648500 17.0970554484281934 Zr
    velocity -0.3762722359168518 0.0766331942332111 -0.0878824388862173
atom 14.4134282269182474 21.0986370489648500 17.0970554484281934 Zr
    velocity -0.5838580170546815 0.0659109050615206 -0.3120353940192286
atom 19.6094282269182472 21.0986370489648500 17.0970554484281934 Zr
    velocity 0.0906048408546324 -0.2280642707166559 -0.1143888375449446
atom -1.9883566193900160 0.2226370489648440 22.4232452895734582 Zr
    velocity 0.5459827283458976 0.5959470479132830 0.0130154783798118
atom 3.2076433806099840 0.2226370489648440 22.4232452895734582 Zr
    velocity -0.0355024144651091 0.0026309209809662 0.1716676048486035
atom 8.4036433806099833 0.2226370489648440 22.4232452895734582 Zr
    velocity -0.0333910299845657 -0.2624585297828025 0.4133683593646050
atom 13.5996433806099866 0.2226370489648440 22.4232452895734582 Zr
    velocity 0.6051124294413007 -0.4954809163699107 0.0209789620600334
atom 18.7956433806099845 0.2226370489648440 22.4232452895734582 Zr
    velocity -0.5068398802156763 0.5879885327298603 -0.0251119025898306
atom -1.9883566193900160 5.4416370489648447 22.4232452895734582 Zr
    velocity -0.2178550220644850 0.2329244832428674 -0.2891050711199226
atom 3.2076433806099840 5.4416370489648447 22.4232452895734582 Zr
    velocity 0.2824113434931626 0.3312785756195276 0.2053083158345440
atom 8.4036433806099833 5.4416370489648447 22.4232452895734582 Zr
    velocity 0.1698441614485653 -0.2226650501463418 0.1247886717381692
atom 13.5996433806099866 5.4416370489648447 22.4232452895734582 Zr
    velocity 0.1246420377632361 -0.2823275115075115 -0.1046778444441660
atom 18.7956433806099845 5.4416370489648447 22.4232452895734582 Zr
    velocity -0.0041628328889725 1.0150058914169693 -0.2535848036942273
atom -1.9883566193900160 10.6606370489648477 22.4232452895734582 Zr
    velocity 0.1204422037918203 -0.4022106923124687 0.1514871504588316
atom 3.2076433806099840 10.6606370489648477 22.4232452895734582 Zr
    velocity -0.1764170525823727 0.1083187941712843 -0.1545837815759591
atom 8.4036433806099833 10.6606370489648477 22.4232452895734582 Zr
    velocity 0.1972435719246044 -0.1000717557944910 -0.0110642154547724
atom 13.5996433806099866 10.6606370489648477 22.4232452895734582 Zr
    velocity -0.5622538980876004 0.1382427811914947 -0.8096217728300138
atom 18.7956433806099845 10.6606370489648477 22.4232452895734582 Zr
    velocity -0.2898030718126386 -0.2303201665978227 0.2014028599905654
atom -1.9883566193900160 15.8796370489648488 22.4232452895734582 Zr
    velocity 0.4934432923279490 0.5077371888684820 0.1516598110973770
atom 3.2076433806099840 15.8796370489648488 22.4232452895734582 Zr
    velocity 0.3122274300751876 -0.0192674439943412 0.1391287123702471
atom 8.4036433806099833 15.8796370489648488 22.4232452895734582 Zr
    velocity 0.0747631759244174 -0.2625707947699383 -0.0850627335041333
atom 13.5996433806099866 15.8796370489648488 22.4232452895734582 Zr
    velocity 0.1472881129049164 -0.0884103248366704 -0.4049567948164556
atom 18.7956433806099845 15.8796370489648488 22.4232452895734582 Zr
    velocity -0.7741341912667696 -0.6075768763608184 0.1471775477021759
atom -1.9883566193900160 21.0986370489648500 22.4232452895734582 Zr
    velocity 0.6147260327937794 -0.5676584967103253 -0.1237325665097400
atom 3.2076433806099840 21.0986370489648500 22.4232452895734582 Zr
    velocity 0.5629426210499072 -0.3279896983306651 -0.0180305692084183
atom 8.4036433806099833 21.0986370489648500 22.4232452895734582 Zr
    velocity -0.2994886797408334 -0.7203621353509724 0.1692230658631046
atom 13.5996433806099866 21.0986370489648500 22.4232452895734582 Zr
    velocity 0.0783468201685698 -0.0391258783823602 -0.0300050653921487
atom 18.7956433806099845 21.0986370489648500 22.4232452895734582 Zr
    velocity 0.2879970373280658 0.1239097300857376 0.2765489570799858
atom 3.1154320802837225 4.9963629510351568 4.2077039907195291 Zr
    velocity 0.5188140172284736 0.1992982878290674 -0.0096373634752037
atom 8.3114320802837209 4.9963629510351568 4.2077039907195291 Zr
    velocity -0.1800174395708693 0.2591058727679139 -0.1886766816625574
atom 13.5074320802837224 4.9963629510351568 4.2077039907195291 Zr
    velocity -0.0525834642731048 0.0883442706479982 -0.2650436663468471
atom 18.7034320802837222 4.9963629510351568 4.2077039907195291 Zr
    velocity 0.4478637266529270 0.0596691539529721 0.0346073461724709
atom 23.8994320802837237 4.9963629510351568 4.2077039907195291 Zr
    velocity 0.2605560204969078 0.2734400542506590 0.3078472650897096
atom 3.1154320802837225 10.2153629510351607 4.2077039907195291 Zr
    velocity 0.1614100920981879 0.2996979851281618 -0.1799961523181655
atom 8.3114320802837209 10.2153629510351607 4.2077039907195291 Zr
    velocity 0.0627804812569797 0.2732953335863170 0.3884331669963309
atom 13.5074320802837224 10.2153629510351607 4.2077039907195291 Zr
    velocity 0.5421847654814697 0.2802238006777927 -0.2862628457343675
atom 18.7034320802837222 10.2153629510351607 4.2077039907195291 Zr
    velocity -0.3267011127264052 0.0660962239215853 -0.0991655854872705
atom 23.8994320802837237 10.2153629510351607 4.2077039907195291 Zr
    velocity 0.1440325660096752 -0.2188104095746946 1.0923990494531246
atom 3.1154320802837225 15.4343629510351601 4.2077039907195291 Zr
    velocity 0.6597294384348068 0.0168041907806549 0.6190825942445108
atom 8.3114320802837209 15.4343629510351601 4.2077039907195291 Zr
    velocity -0.2964401268155770 0.5722796305255119 -0.1901917662451730
atom 13.5074320802837224 15.4343629510351601 4.2077039907195291 Zr
    velocity -0.0000457883122351 0.2315527702279540 0.2403418776420560
atom 18.7034320802837222 15.4343629510351601 4.2077039907195291 Zr
    velocity 0.3439644943384283 0.0993191403142306 0.2093961222084908
atom 23.8994320802837237 15.4343629510351601 4.2077039907195291 Zr
    velocity -0.5724792481434232 -0.1518782031142310 0.1047924918141316
atom 3.1154320802837225 20.6533629510351595 4.2077039907195291 Zr
    velocity -0.2080265332145225 0.0630084841443340 0.3468901320833617
atom 8.3114320802837209 20.6533629510351595 4.2077039907195291 Zr
    velocity 0.0231642054515124 0.0324346712912134 0.4633963768218547
atom 13.5074320802837224 20.6533629510351595 4.2077039907195291 Zr
    velocity 0.1238839380000066 -0.3812211697749292 -0.0467676542265493
atom 18.7034320802837222 20.6533629510351595 4.2077039907195291 Zr
    velocity 0.0860364569287514 0.0176797656012793 -0.1093100041809895
atom 23.8994320802837237 20.6533629510351595 4.2077039907195291 Zr
    velocity 0.5035839634970987 -0.1397780371073523 0.4454357129487026
atom 3.1154320802837225 25.8723629510351607 4.2077039907195291 Zr
    velocity -0.1773257140219211 -0.0592812300292019 0.0990208109965046
atom 8.3114320802837209 25.8723629510351607 4.2077039907195291 Zr
    velocity -0.1005224237296165 -0.1272451889946008 -0.0803523661982417
atom 13.5074320802837224 25.8723629510351607 4.2077039907195291 Zr
    velocity 0.4740197979482084 0.0033711051666848 -0.2311326835032696
atom 18.7034320802837222 25.8723629510351607 4.2077039907195291 Zr
    velocity -0.3122603497690521 0.1004864577656598 -0.2165046189867627
atom 23.8994320802837237 25.8723629510351607 4.2077039907195291 Zr
    velocity -0.2637813872762806 0.0147370481660054 -0.2136874823338493
atom 2.3016472339754612 4.9963629510351568 9.5338938318647983 Zr
    velocity -0.4897084061882646 -0.3959442567212336 0.2135374762533960
atom 7.4976472339754601 4.9963629510351568 9.5338938318647983 Zr
    velocity 0.2904702618576492 0.0183063628814660 0.1334883003500919
atom 12.6936472339754616 4.9963629510351568 9.5338938318647983 Zr
    velocity -0.0288272177854025 -0.4197201828892314 0.2830490859768900
atom 17.8896472339754631 4.9963629510351568 9.5338938318647983 Zr
    velocity -0.1837989292681306 -0.3856237134777495 0.3424089738557037
atom 23.0856472339754610 4.9963629510351568 9.5338938318647983 Zr
    velocity -0.4008653980152748 -0.2151815505552081 -0.2048805287378150
atom 2.3016472339754612 10.2153629510351607 9.5338938318647983 Zr
    velocity -0.0253684467192630 -0.2812275214242940 -0.0293116342070680
atom 7.4976472339754601 10.2153629510351607 9.5338938318647983 Zr
    velocity -0.0396036319140815 -0.2566521962868614 -0.0010182129163556
atom 12.6936472339754616 10.2153629510351607 9.5338938318647983 Zr
    velocity 0.3138617357297802 -0.2636012884461768 -0.0927588872125699
atom 17.8896472339754631 10.2153629510351607 9.5338938318647983 Zr
    velocity 0.4910836236145190 -0.1270485240622738 -0.0081284627560380
atom 23.0856472339754610 10.2153629510351607 9.5338938318647983 Zr
    velocity -0.2131717211936747 -0.2675857043287920 0.1970014340983405
atom 2.3016472339754612 15.4343629510351601 9.5338938318647983 Zr
    velocity 0.1713052036664479 -0.1425897451678026 0.6563389689353538
atom 7.4976472339754601 15.4343629510351601 9.5338938318647983 Zr
    velocity -0.2708182752787957 0.4264622690649993 -0.1469460792557160
atom 12.6936472339754616 15.4343629510351601 9.5338938318647983 Zr
    velocity 0.0705993220453360 -0.3116109616602991 0.2219733498104151
atom 17.8896472339754631 15.4343629510351601 9.5338938318647983 Zr
    velocity 0.4305612317776599 0.0405830045328263 0.2080258003735702
atom 23.0856472339754610 15.4343629510351601 9.5338938318647983 Zr
    velocity -0.4109338100747628 0.3775609841977864 -0.1218252990418839
atom 2.3016472339754612 20.6533629510351595 9.5338938318647983 Zr
    velocity -0.0142835030363994 -0.4064522357351034 -0.2666713721060416
atom 7.4976472339754601 20.6533629510351595 9.5338938318647983 Zr
    velocity 0.2285743334214844 0.4660583006256721 0.0382659886061883
atom 12.6936472339754616 20.6533629510351595 9.5338938318647983 Zr
    velocity -0.7181137319496573 -0.3462942675941656 0.0824291569746256
atom 17.8896472339754631 20.6533629510351595 9.5338938318647983 Zr
    velocity 0.3931043993612699 -0.1661960453452123 0.0320444356321666
atom 23.0856472339754610 20.6533629510351595 9.5338938318647983 Zr
    velocity 0.1746707054848478 0.0924661632325427 0.1196335763454936
atom 2.3016472339754612 25.8723629510351607 9.5338938318647983 Zr
    velocity 0.3717130571557900 0.0554920221888906 0.5764350339924139
atom 7.4976472339754601 25.8723629510351607 9.5338938318647983 Zr
    velocity -0.0387378925219796 -0.1043551333326136 -0.3689678046711289
atom 12.6936472339754616 25.8723629510351607 9.5338938318647983 Zr
    velocity -0.3186549865139618 -0.1734582668971043 -0.3842504454441967
atom 17.8896472339754631 25.8723629510351607 9.5338938318647983 Zr
    velocity -0.2748550692187047 -0.1028597045604499 -0.2594411573225793
atom 23.0856472339754610 25.8723629510351607 9.5338938318647983 Zr
    velocity -0.6976890696802528 0.2001045721139969 0.1833965389005633
atom 1.4878623876671999 4.9963629510351568 14.8600836730100649 Zr
    velocity -0.1430403314155615 0.7449104160102706 -0.2182008902046884
atom 6.6838623876671992 4.9963629510351568 14.8600836730100649 Zr
    velocity -0.4220966000301459 -0.0133081430700858 0.0997496087571965
atom 11.8798623876672007 4.9963629510351568 14.8600836730100649 Zr
    velocity -0.0020441276544302 -0.0013378828657230 -0.1590115024923108
atom 17.0758623876672004 4.9963629510351568 14.8600836730100649 Zr
    velocity -0.6195214702971320 -0.1329913588887314 -0.0188349331544413
atom 22.2718623876672019 4.9963629510351568 14.8600836730100649 Zr
    velocity -0.1098384715307656 -0.2666874203739510 -0.1819689111964660
atom 1.4878623876671999 10.2153629510351607 14.8600836730100649 Zr
    velocity -0.4413538302816653 0.1772632999925185 -0.1803786512536362
atom 6.6838623876671992 10.2153629510351607 14.8600836730100649 Zr
    velocity 0.2239236945279952 0.0833569852022153 -0.4389707229333822
atom 11.8798623876672007 10.2153629510351607 14.8600836730100649 Zr
    velocity 0.4211357955109350 -0.3339181896855821 0.1532673224754600
atom 17.0758623876672004 10.2153629510351607 14.8600836730100649 Zr
    velocity -0.1221476338571877 0.0838220679450342 -0.2688692723461445
atom 22.2718623876672019 10.2153629510351607 14.8600836730100649 Zr
    velocity -0.2545787101814631 0.3270676985630627 0.5616632356975244
atom 1.4878623876671999 15.4343629510351601 14.8600836730100649 Zr
    velocity -0.5746185343093161 0.0317822566945784 0.5471955370825056
atom 6.6838623876671992 15.4343629510351601 14.8600836730100649 Zr
    velocity -0.3003793439139451 -0.1517389658945813 0.4116628226499972
atom 11.8798623876672007 15.4343629510351601 14.8600836730100649 Zr
    velocity -0.2071964010506224 -0.0746733519762333 -0.0695253155407469
atom 17.0758623876672004 15.4343629510351601 14.8600836730100649 Zr
    velocity 0.0554202775737922 -0.7593022156250478 0.2966272155951309
atom 22.2718623876672019 15.4343629510351601 14.8600836730100649 Zr
    velocity 0.2799013961010002 0.0347586650829956 -0.0252860209737004
atom 1.4878623876671999 20.6533629510351595 14.8600836730100649 Zr
    velocity 0.2263207736858215 -0.2308896118548564 -0.1708736410435652
atom 6.6838623876671992 20.6533629510351595 14.8600836730100649 Zr
    velocity 0.2387885628530152 0.1449297187308963 0.2654204237749676
atom 11.8798623876672007 20.6533629510351595 14.8600836730100649 Zr
    velocity -0.1070892742863909 -0.0496600797699493 0.0145470471432749
atom 17.0758623876672004 20.6533629510351595 14.8600836730100649 Zr
    velocity -0.0510517743213325 0.4382213555861764 0.5292489988668948
atom 22.2718623876672019 20.6533629510351595 14.8600836730100649 Zr
    velocity -0.1214672268243161 -0.0825980130226112 -0.1172294225550206
atom 1.4878623876671999 25.8723629510351607 14.8600836730100649 Zr
    velocity -0.2338010520726720 0.1892991824701836 0.3062317645825490
atom 6.6838623876671992 25.8723629510351607 14.8600836730100649 Zr
    velocity -0.2382111041341849 0.2530723781554474 0.3068055709769925
atom 11.8798623876672007 25.8723629510351607 14.8600836730100649 Zr
    velocity -0.5067403342351452 -0.6743064233863538 -0.0473248012560679
atom 17.0758623876672004 25.8723629510351607 14.8600836730100649 Zr
    velocity 0.1430942023162660 0.2657516416688220 -0.0339376314585230
atom 22.2718623876672019 25.8723629510351607 14.8600836730100649 Zr
    velocity 0.0458739231315166 0.1355587741737286 0.0116491117468780
atom 0.6740775413589392 4.9963629510351568 20.1862735141553316 Zr
    velocity -0.5976636830217050 0.0773934474490811 -0.1169988356973484
atom 5.8700775413589383 4.9963629510351568 20.1862735141553316 Zr
    velocity 0.1079512466040140 -0.0308651298890236 -0.5175557369863621
atom 11.0660775413589398 4.9963629510351568 20.1862735141553316 Zr
    velocity -0.4551816044644280 -0.4182901109941286 -0.0685137242968142
atom 16.2620775413589413 4.9963629510351568 20.1862735141553316 Zr
    velocity 0.0574628482389053 0.4173112744287454 0.2593339991913278
atom 21.4580775413589393 4.9963629510351568 20.1862735141553316 Zr
    velocity -0.0658193383853408 0.2603131705670058 0.5359876567593180
atom 0.6740775413589392 10.2153629510351607 20.1862735141553316 Zr
    velocity -0.3527677594801978 -0.0699590854242815 0.2158267626997755
atom 5.8700775413589383 10.2153629510351607 20.1862735141553316 Zr
    velocity 0.4927638147048270 -0.3020009090566569 0.1861416971635614
atom 11.0660775413589398 10.2153629510351607 20.1862735141553316 Zr
    velocity 0.2222016161027316 -0.2399489646906395 0.4966601469041698
atom 16.2620775413589413 10.2153629510351607 20.1862735141553316 Zr
    velocity -0.0161639761167221 0.2179415704175217 0.0410087111228351
atom 21.4580775413589393 10.2153629510351607 20.1862735141553316 Zr
    velocity 0.2713735906834771 0.1644685682005604 0.1829811710533915
atom 0.6740775413589392 15.4343629510351601 20.1862735141553316 Zr
    velocity 0.4479224570684415 0.3378325005357991 0.0594865055994433
atom 5.8700775413589383 15.4343629510351601 20.1862735141553316 Zr