#=======================================================
# FHI-aims file: 1400_geometry.in.primitive.supercell_324.0010K
# Created using the Atomic Simulation Environment (ASE)
# Wed Aug 24 14:05:24 2022

# Additional information:
#  created from MB distrubtion
#  T = 10.0 K
#  quantum:             False
#  deterministic:       False
#  plus_minus:          False
#  gauge_eigenvectors:  False
#  Random seed:         2053535469
#  Sample number:       1
#=======================================================
lattice_vector 15.5879999999999992 0.0000000000000000 0.0000000000000000 
lattice_vector 0.0000000000000000 15.6570000000000000 0.0000000000000000 
lattice_vector -2.4413545389247830 0.0000000000000000 15.9785695234357998 
atom 1.2667827658430273 0.2226370489648440 1.1184859249923940 Zr
    velocity 0.2686968087026645 0.0830145396772249 -0.3197628021917648
atom 6.4627827658430261 0.2226370489648440 1.1184859249923940 Zr
    velocity 0.0980679542163849 0.4298797476990859 0.5468445558678326
atom 11.6587827658430250 0.2226370489648440 1.1184859249923940 Zr
    velocity 0.2060742352141272 -0.1079003936662692 -0.6012920347467149
atom 1.2667827658430273 5.4416370489648438 1.1184859249923940 Zr
    velocity -0.0851246797546122 0.0487462540918623 0.2114732555163280
atom 6.4627827658430261 5.4416370489648438 1.1184859249923940 Zr
    velocity -0.0062973308486603 0.1684564200324101 -0.2301969548346608
atom 11.6587827658430250 5.4416370489648438 1.1184859249923940 Zr
    velocity -0.2239606998995673 0.1952785546509965 -0.2947578899591792
atom 1.2667827658430273 10.6606370489648441 1.1184859249923940 Zr
    velocity 0.1513422187051567 -0.1178814751531494 -0.1458244318900963
atom 6.4627827658430261 10.6606370489648441 1.1184859249923940 Zr
    velocity -0.3506717273049694 0.0520576198913375 0.1145200398406087
atom 11.6587827658430250 10.6606370489648441 1.1184859249923940 Zr
    velocity -0.2142039622270289 -0.2622228509084073 -0.0171124096718165
atom 0.4529979195347661 0.2226370489648440 6.4446757661376610 Zr
    velocity 0.1567073634262924 0.0179312282765248 -0.1898326301853332
atom 5.6489979195347653 0.2226370489648440 6.4446757661376610 Zr
    velocity 0.2397409104548281 0.4555529903522615 0.0626891753541031
atom 10.8449979195347641 0.2226370489648440 6.4446757661376610 Zr
    velocity -0.3002337548088801 0.3337434693623554 -0.5789247267484949
atom 0.4529979195347661 5.4416370489648438 6.4446757661376610 Zr
    velocity 0.3868044524516143 -0.1310923277577922 -0.1872949468971628
atom 5.6489979195347653 5.4416370489648438 6.4446757661376610 Zr
    velocity -0.6027557667545379 -0.0975391849747831 0.2741313560549175
atom 10.8449979195347641 5.4416370489648438 6.4446757661376610 Zr
    velocity -0.5042962157297342 -0.2875348757046078 0.0941002620158301
atom 0.4529979195347661 10.6606370489648441 6.4446757661376610 Zr
    velocity -0.1017212424128162 0.3151030279350640 -0.3523247238568232
atom 5.6489979195347653 10.6606370489648441 6.4446757661376610 Zr
    velocity 0.1628366676697545 -0.3275221182743952 -0.2850056138667136
atom 10.8449979195347641 10.6606370489648441 6.4446757661376610 Zr
    velocity -0.1109445303677343 0.0975820636786125 -0.1549720309456527
atom -0.3607869267734949 0.2226370489648440 11.7708656072829267 Zr
    velocity 0.1117929434774125 -0.3873651932400857 0.0350908615424319
atom 4.8352130732265044 0.2226370489648440 11.7708656072829267 Zr
    velocity -0.0518754175931119 -0.2508995495231508 0.2223913980520553
atom 10.0312130732265015 0.2226370489648440 11.7708656072829267 Zr
    velocity 0.0444107789395106 0.4231013660178316 0.6397208537625761
atom -0.3607869267734949 5.4416370489648438 11.7708656072829267 Zr
    velocity -0.3367414949792269 -0.4507606344954125 -0.2545961435787951
atom 4.8352130732265044 5.4416370489648438 11.7708656072829267 Zr
    velocity 0.0034119149112114 -0.3170419900711677 0.3236903142521632
atom 10.0312130732265015 5.4416370489648438 11.7708656072829267 Zr
    velocity 0.1433516287926509 -0.0467975419271425 0.0488097641787055
atom -0.3607869267734949 10.6606370489648441 11.7708656072829267 Zr
    velocity 0.0607531548037004 -0.1630335969047206 0.3993680426427835
atom 4.8352130732265044 10.6606370489648441 11.7708656072829267 Zr
    velocity 0.0000210773244650 0.0980194947772897 -0.2641344836541691
atom 10.0312130732265015 10.6606370489648441 11.7708656072829267 Zr
    velocity 0.0959049365111577 0.1720586087392684 -0.4779517481040866
atom 3.1154320802837199 4.9963629510351550 4.2077039907195291 Zr
    velocity -0.0827646714787671 0.1964853760015060 0.0736863720901482
atom 8.3114320802837209 4.9963629510351550 4.2077039907195291 Zr
    velocity 0.0082303343225574 -0.1823267491141262 0.0825290238648071
atom 13.5074320802837189 4.9963629510351550 4.2077039907195291 Zr
    velocity -0.0464056373887174 -0.2320266974914031 0.2369227054953375
atom 3.1154320802837199 10.2153629510351571 4.2077039907195291 Zr
    velocity 0.3655130239605482 -0.1719110450370299 -0.2329475731744025
atom 8.3114320802837209 10.2153629510351571 4.2077039907195291 Zr
    velocity 0.2572808957544884 0.6882207135334165 -0.1069903177262805
atom 13.5074320802837189 10.2153629510351571 4.2077039907195291 Zr
    velocity 0.2080589699704579 -0.0125925129796911 0.1257963243535664
atom 3.1154320802837199 15.4343629510351565 4.2077039907195291 Zr
    velocity -0.2335374777281509 0.2231908547435795 0.0550260636123524
atom 8.3114320802837209 15.4343629510351565 4.2077039907195291 Zr
    velocity -0.2390820671167707 0.0919282598871730 0.0979084567597041
atom 13.5074320802837189 15.4343629510351565 4.2077039907195291 Zr
    velocity -0.0573259831334680 0.3882106259814359 -0.2008058545008805
atom 2.3016472339754603 4.9963629510351550 9.5338938318647966 Zr
    velocity -0.0422517528764914 0.1682251094233958 -0.2418990698612417
atom 7.4976472339754601 4.9963629510351550 9.5338938318647966 Zr
    velocity 0.3102537050785938 0.3784980859450115 0.0685450213057773
atom 12.6936472339754580 4.9963629510351550 9.5338938318647966 Zr
    velocity 0.5568440461272478 0.4499460681901218 -0.0809940246606903
atom 2.3016472339754603 10.2153629510351571 9.5338938318647966 Zr
    velocity 0.1713773245524076 0.0708151702209554 -0.4102523465616968
atom 7.4976472339754601 10.2153629510351571 9.5338938318647966 Zr
    velocity 0.2037629026393854 -0.4277740600424968 -0.1106058935033718
atom 12.6936472339754580 10.2153629510351571 9.5338938318647966 Zr
    velocity 0.6596405831497981 -0.0690598106755518 -0.5198357609425219
atom 2.3016472339754603 15.4343629510351565 9.5338938318647966 Zr
    velocity -0.0896345847588815 -0.1764671144836043 0.0666039909642871
atom 7.4976472339754601 15.4343629510351565 9.5338938318647966 Zr
    velocity -0.0285646748033474 0.4481057173457639 -0.3526115944521119
atom 12.6936472339754580 15.4343629510351565 9.5338938318647966 Zr
    velocity -0.3220216495482552 -0.1319719673657374 0.2327769528079148
atom 1.4878623876671995 4.9963629510351550 14.8600836730100614 Zr
    velocity 0.3032612832978506 0.3220535168623377 -0.0570967863141840
atom 6.6838623876671992 4.9963629510351550 14.8600836730100614 Zr
    velocity 0.4475715323705010 0.5635208551993818 -0.1980997601187852
atom 11.8798623876671972 4.9963629510351550 14.8600836730100614 Zr
    velocity -0.0844091536927795 0.0679848674565569 -0.0405127111184073
atom 1.4878623876671995 10.2153629510351571 14.8600836730100614 Zr
    velocity 0.3874355218220569 -0.4100007965429009 0.0189485147228213
atom 6.6838623876671992 10.2153629510351571 14.8600836730100614 Zr
    velocity -0.4784035167228400 0.1412325170770292 0.3343507372661537
atom 11.8798623876671972 10.2153629510351571 14.8600836730100614 Zr
    velocity 0.4051207542661864 0.0126115441814428 0.4483298754110518
atom 1.4878623876671995 15.4343629510351565 14.8600836730100614 Zr
    velocity -0.1438276581273156 0.0609425609072426 0.2024440806398874
atom 6.6838623876671992 15.4343629510351565 14.8600836730100614 Zr
    velocity -0.4813281678070296 0.2731989683649395 -0.0697893987764934
atom 11.8798623876671972 15.4343629510351565 14.8600836730100614 Zr
    velocity -0.3883715503316829 0.0863749543418791 -0.4697243664965695
atom 3.5223245034378516 2.8321370489648445 1.5446090701468982 Zr
    velocity 0.2588561495080656 0.1246740003095328 0.1771823885184433
atom 8.7183245034378523 2.8321370489648445 1.5446090701468982 Zr
    velocity 0.0683345303872198 0.6804038960413537 -0.7137214740835097
atom 13.9143245034378502 2.8321370489648445 1.5446090701468982 Zr
    velocity -0.0029513367751259 -0.1053651509291464 0.3561795908427624
atom 3.5223245034378516 8.0511370489648453 1.5446090701468982 Zr
    velocity 0.0539691934297728 0.5190455785130011 0.1073451403099450
atom 8.7183245034378523 8.0511370489648453 1.5446090701468982 Zr
    velocity 0.1072858334477548 -0.2281819660998841 0.0400966435653395
atom 13.9143245034378502 8.0511370489648453 1.5446090701468982 Zr
    velocity 0.2893073187107492 -0.1094027192241527 -0.7751967652422858
atom 3.5223245034378516 13.2701370489648447 1.5446090701468982 Zr
    velocity -0.1851422877105479 0.2276962615843643 0.3192286245368147
atom 8.7183245034378523 13.2701370489648447 1.5446090701468982 Zr
    velocity 0.3008023462910225 0.4513174603893063 0.3631987356778703
atom 13.9143245034378502 13.2701370489648447 1.5446090701468982 Zr
    velocity -0.1640488696376969 0.3941496857572612 -0.2187966110114219
atom 2.7085396571295908 2.8321370489648445 6.8707989112921641 Zr
    velocity 0.3444153387864465 0.3492150969703444 -0.0012625908385053
atom 7.9045396571295905 2.8321370489648445 6.8707989112921641 Zr
    velocity -0.2125944505607346 -0.1141915786830042 0.0156082670858697
atom 13.1005396571295893 2.8321370489648445 6.8707989112921641 Zr
    velocity -0.3265721557706891 -0.0631224327255848 0.2539377081470294
atom 2.7085396571295908 8.0511370489648453 6.8707989112921641 Zr
    velocity 0.2831533827403628 0.3729275030975601 0.1953028321292351
atom 7.9045396571295905 8.0511370489648453 6.8707989112921641 Zr
    velocity -0.4066662018390569 0.4303068530071544 -0.3420282897104686
atom 13.1005396571295893 8.0511370489648453 6.8707989112921641 Zr
    velocity 0.2845118173667299 -0.8234818085995707 0.2260257222882747
atom 2.7085396571295908 13.2701370489648447 6.8707989112921641 Zr
    velocity 0.5955205977076420 0.0607952291989021 -0.3688307860254761
atom 7.9045396571295905 13.2701370489648447 6.8707989112921641 Zr
    velocity 0.0231114259291858 -0.1834672844953267 -0.1230258386825867
atom 13.1005396571295893 13.2701370489648447 6.8707989112921641 Zr
    velocity -0.3382448684047353 0.0539535791032876 -0.1071265820822495
atom 1.8947548108213297 2.8321370489648445 12.1969887524374307 Zr
    velocity -0.7795105361680019 -0.2472070597455654 0.0459423046159469
atom 7.0907548108213296 2.8321370489648445 12.1969887524374307 Zr
    velocity -0.2854880179317955 -0.0239074594290933 -0.2960300622896390
atom 12.2867548108213285 2.8321370489648445 12.1969887524374307 Zr
    velocity -0.3754891044817295 -0.6008826949345238 -0.3467855376631329
atom 1.8947548108213297 8.0511370489648453 12.1969887524374307 Zr
    velocity 0.0025033375026937 -0.1325957509880387 -0.4911172956450003
atom 7.0907548108213296 8.0511370489648453 12.1969887524374307 Zr
    velocity 0.0212447318733837 0.1107052818352885 -0.5229802746407742
atom 12.2867548108213285 8.0511370489648453 12.1969887524374307 Zr
    velocity -0.2538606427487026 -0.3428210052710832 -0.0703773375214337
atom 1.8947548108213297 13.2701370489648447 12.1969887524374307 Zr
    velocity 0.1559980217313134 0.6771066590443910 0.0230344556737207
atom 7.0907548108213296 13.2701370489648447 12.1969887524374307 Zr
    velocity 0.0514274354108633 -0.0522834947602064 -0.2293451913408234
atom 12.2867548108213285 13.2701370489648447 12.1969887524374307 Zr
    velocity 0.0726796195406040 -0.5052791900046673 -0.1352687143199035
atom 0.8598903426888984 2.3868629510351549 3.7815808455650277 Zr
    velocity 0.1005995449070478 0.1395743859431113 0.2064184742182954
atom 6.0558903426888975 2.3868629510351549 3.7815808455650277 Zr
    velocity 0.0047935204696951 -0.4234178843672200 0.3461874600024717
atom 11.2518903426888937 2.3868629510351549 3.7815808455650277 Zr
    velocity 0.0265382055095249 -0.2136082651865182 0.1141451381840421
atom 0.8598903426888984 7.6058629510351565 3.7815808455650277 Zr
    velocity 0.0601879859125540 -0.5816616120577978 0.0525174176118477
atom 6.0558903426888975 7.6058629510351565 3.7815808455650277 Zr
    velocity 0.0557526694550510 0.1559165715936902 0.1666238405713499
atom 11.2518903426888937 7.6058629510351565 3.7815808455650277 Zr
    velocity -0.2442839590311303 0.1316660519818560 -0.0509804441221754
atom 0.8598903426888984 12.8248629510351542 3.7815808455650277 Zr
    velocity 0.7618493485782502 -0.0953780513089832 0.2957556216252603
atom 6.0558903426888975 12.8248629510351542 3.7815808455650277 Zr
    velocity 0.0849580533541346 0.2891353677903100 0.0732024350167587
atom 11.2518903426888937 12.8248629510351542 3.7815808455650277 Zr
    velocity -0.2141209882978147 -0.6041354747531859 -0.0222552953915363
atom 0.0461054963806373 2.3868629510351549 9.1077706867102943 Zr
    velocity 0.0340440074848224 0.1053882135211938 -0.3725456753315880
atom 5.2421054963806366 2.3868629510351549 9.1077706867102943 Zr
    velocity 0.6518636992361303 -0.1738661462070092 0.7865593725352572
atom 10.4381054963806328 2.3868629510351549 9.1077706867102943 Zr
    velocity -0.1525030440382139 -0.0060016274497406 -0.1883181236237375
atom 0.0461054963806373 7.6058629510351565 9.1077706867102943 Zr
    velocity 0.1791428394912970 -0.0915102718294033 -0.2642515471085530
atom 5.2421054963806366 7.6058629510351565 9.1077706867102943 Zr
    velocity 0.2078739220988439 -0.1809449756502901 0.4426828614110963
atom 10.4381054963806328 7.6058629510351565 9.1077706867102943 Zr
    velocity -0.2497506792032761 0.2939385529904320 0.2337704580476472
atom 0.0461054963806373 12.8248629510351542 9.1077706867102943 Zr
    velocity 0.0367150222692997 0.6744433652494711 0.0412786847016724
atom 5.2421054963806366 12.8248629510351542 9.1077706867102943 Zr
    velocity 0.6257856997401823 -0.3969479464248641 0.1532934832385451
atom 10.4381054963806328 12.8248629510351542 9.1077706867102943 Zr
    velocity 0.2049140529984004 0.2345727949073607 -0.4790327101465151
atom -0.7676793499276238 2.3868629510351549 14.4339605278555627 Zr
    velocity 0.0756707795371769 0.0940488392718516 0.3460687283203857
atom 4.4283206500723757 2.3868629510351549 14.4339605278555627 Zr
    velocity -0.2993129050053732 0.4117283121013055 0.4053661292768314
atom 9.6243206500723719 2.3868629510351549 14.4339605278555627 Zr
    velocity 0.2525927027243051 -0.0550169582198332 -0.1975992690114304
atom -0.7676793499276238 7.6058629510351565 14.4339605278555627 Zr
    velocity -0.0558484552911605 -0.0250203763333985 0.1739995834009760
atom 4.4283206500723757 7.6058629510351565 14.4339605278555627 Zr
    velocity -0.2385830521673931 0.2830825467263570 0.0508504937038358
atom 9.6243206500723719 7.6058629510351565 14.4339605278555627 Zr
    velocity 0.0929014156532012 -0.4503815310160494 -0.0533195959016691
atom -0.7676793499276238 12.8248629510351542 14.4339605278555627 Zr
    velocity 0.4559255883676855 0.2538021636569872 0.2285658257700622
atom 4.4283206500723757 12.8248629510351542 14.4339605278555627 Zr
    velocity -0.1216086019633865 0.0570396491692147 -0.0092236227416511
atom 9.6243206500723719 12.8248629510351542 14.4339605278555627 Zr
    velocity 0.1273048902426280 -0.2313676355196715 -0.0641440716017002
atom 0.0820762886134083 1.7478813168372840 1.8251706450056537 O
    velocity -0.1313761026468761 0.1224806321202030 -0.4995603658934390
atom 5.2780762886134056 1.7478813168372840 1.8251706450056537 O
    velocity -0.7870275774690498 0.1627592624892882 -0.1518827570352161
atom 10.4740762886134053 1.7478813168372840 1.8251706450056537 O
    velocity 1.1718629602098187 -0.3154735976923834 0.3744950563731317
atom 0.0820762886134083 6.9668813168372834 1.8251706450056537 O
    velocity 0.3767560359300970 0.3303152191109471 0.0585799489916841
atom 5.2780762886134056 6.9668813168372834 1.8251706450056537 O
    velocity -0.0350895323606796 0.4714681060563001 0.3709001549673717
atom 10.4740762886134053 6.9668813168372834 1.8251706450056537 O
    velocity -0.0304718067556389 0.1693470549111404 0.0374482183430608
atom 0.0820762886134083 12.1858813168372837 1.8251706450056537 O
    velocity 0.4325495220139102 0.3236370812786324 1.3877212715675751
atom 5.2780762886134056 12.1858813168372837 1.8251706450056537 O
    velocity 0.9728827423864773 0.0038972514040777 0.8002580152972885
atom 10.4740762886134053 12.1858813168372837 1.8251706450056537 O
    velocity -0.1669131260953605 -0.3988586110579814 0.5703869451753368
atom -0.7317085576948529 1.7478813168372840 7.1513604861509217 O
    velocity -0.2107634641889188 0.6199200338212550 0.0514970122950330
atom 4.4642914423051447 1.7478813168372840 7.1513604861509217 O
    velocity -0.9548397329946151 0.3848087828561725 -0.5740648156981498
atom 9.6602914423051445 1.7478813168372840 7.1513604861509217 O
    velocity -1.1598509818997158 -0.6109374639712586 -0.4560688327421963
atom -0.7317085576948529 6.9668813168372834 7.1513604861509217 O
    velocity -0.6982811073332461 0.4551169981367624 -0.4902706248504837
atom 4.4642914423051447 6.9668813168372834 7.1513604861509217 O
    velocity -0.7175851486067208 -1.1135848615963697 1.2915517323373451
atom 9.6602914423051445 6.9668813168372834 7.1513604861509217 O
    velocity -0.2816066037171985 -1.3200255804940078 0.7029846546450083
atom -0.7317085576948529 12.1858813168372837 7.1513604861509217 O
    velocity -0.4645388963348531 0.1264744523049167 -1.4370475901489232
atom 4.4642914423051447 12.1858813168372837 7.1513604861509217 O
    velocity 1.0009761874289489 0.8134356378889757 0.6330627589965436
atom 9.6602914423051445 12.1858813168372837 7.1513604861509217 O
    velocity -0.0770040678186366 0.6412686111787126 -0.6794155099619577
atom -1.5454934040031139 1.7478813168372840 12.4775503272961892 O
    velocity 0.9581990639065879 -0.1940785742337893 0.7380792329289260
atom 3.6505065959968839 1.7478813168372840 12.4775503272961892 O
    velocity -0.8328184458901096 0.7341695273897141 0.2194715771755796
atom 8.8465065959968836 1.7478813168372840 12.4775503272961892 O
    velocity 0.0128036832788974 -0.7811890663228961 1.2007015381281074
atom -1.5454934040031139 6.9668813168372834 12.4775503272961892 O
    velocity -0.3878650643349114 -0.2059717467658739 0.6610920627912744
atom 3.6505065959968839 6.9668813168372834 12.4775503272961892 O
    velocity 0.7465767361625145 0.1323024286718620 0.0680728409040160
atom 8.8465065959968836 6.9668813168372834 12.4775503272961892 O
    velocity 0.3561640275485102 -1.2463816922981492 1.3989701450089107
atom -1.5454934040031139 12.1858813168372837 12.4775503272961892 O
    velocity 0.1596531212663428 0.1379094998788540 -0.0089347517522289
atom 3.6505065959968839 12.1858813168372837 12.4775503272961892 O
    velocity -0.1181928853150963 0.6438932529936346 -0.6083164229556228
atom 8.8465065959968836 12.1858813168372837 12.4775503272961892 O
    velocity -1.2934733841502966 0.5971833264194917 2.1144877549576617
atom 4.3001385575133417 3.4711186831627172 3.5010192707062724 O
    velocity 0.8776741013130587 1.3086644475753937 -0.8215774172754874
atom 9.4961385575133388 3.4711186831627172 3.5010192707062724 O
    velocity -1.7137173136440000 -0.1172718489371646 0.1343966833861920
atom 14.6921385575133403 3.4711186831627172 3.5010192707062724 O
    velocity 0.2732291109017821 -0.2860805718233437 0.1174628052485993
atom 4.3001385575133417 8.6901186831627157 3.5010192707062724 O
    velocity -0.3852050193335194 -0.6026802716783582 -0.8608429533343899
atom 9.4961385575133388 8.6901186831627157 3.5010192707062724 O
    velocity -0.6440317440757933 0.4120086165252351 0.5325372864164499
atom 14.6921385575133403 8.6901186831627157 3.5010192707062724 O
    velocity -1.3145088490888386 -0.2267163872280849 -0.1156507147926033
atom 4.3001385575133417 13.9091186831627169 3.5010192707062724 O
    velocity -0.9501471804615068 0.4237038491829775 0.9286803482396120
atom 9.4961385575133388 13.9091186831627169 3.5010192707062724 O
    velocity -0.7052047975086390 -0.8519097308398360 1.0434936241040520
atom 14.6921385575133403 13.9091186831627169 3.5010192707062724 O
    velocity -0.1015440669423604 -0.6239333179975418 -0.8243777519476105
atom 3.4863537112050813 3.4711186831627172 8.8272091118515377 O
    velocity 1.4965345869648483 0.0613903960703019 -0.8358718553261512
atom 8.6823537112050779 3.4711186831627172 8.8272091118515377 O
    velocity 0.6917480290603123 1.2251672251054384 1.2577696206816313
atom 13.8783537112050794 3.4711186831627172 8.8272091118515377 O
    velocity -0.7593431708797598 -0.8944378997757104 -0.2464638128705117
atom 3.4863537112050813 8.6901186831627157 8.8272091118515377 O
    velocity -0.5567246593571781 -1.4126275475918737 -0.4416045883020631
atom 8.6823537112050779 8.6901186831627157 8.8272091118515377 O
    velocity -0.0404477634428210 -0.9899892996618183 -0.0423736213948485
atom 13.8783537112050794 8.6901186831627157 8.8272091118515377 O
    velocity -0.1177799786019729 -0.0667692449246543 -0.1152092342144363
atom 3.4863537112050813 13.9091186831627169 8.8272091118515377 O
    velocity -0.4881503260993050 -1.5074831396434061 -0.3959182491646554
atom 8.6823537112050779 13.9091186831627169 8.8272091118515377 O
    velocity -0.6801040576230116 -1.0061431815419881 0.2078901825432488
atom 13.8783537112050794 13.9091186831627169 8.8272091118515377 O
    velocity 0.0650741477563965 -0.0910399390437111 -0.5022114580185144
atom 2.6725688648968200 3.4711186831627172 14.1533989529968043 O
    velocity -0.1988447011707217 -0.1981378748326142 1.2178894905237112
atom 7.8685688648968171 3.4711186831627172 14.1533989529968043 O
    velocity -0.3466791170066698 -0.0789610181986300 0.6732582047411431
atom 13.0645688648968186 3.4711186831627172 14.1533989529968043 O
    velocity 0.0068230516494899 -1.0770584582278102 -0.2262186401819480
atom 2.6725688648968200 8.6901186831627157 14.1533989529968043 O
    velocity -0.4136443126277260 -1.3806378472245746 -1.0081748126305214
atom 7.8685688648968171 8.6901186831627157 14.1533989529968043 O
    velocity -0.3953505017130234 -0.4460917677555822 -1.5155402917035568
atom 13.0645688648968186 8.6901186831627157 14.1533989529968043 O
    velocity 0.5447651708258407 -0.0206093293374556 0.7675639850170936
atom 2.6725688648968200 13.9091186831627169 14.1533989529968043 O
    velocity -0.6798112336981690 -0.7481758106027195 -0.0229716018051068
atom 7.8685688648968171 13.9091186831627169 14.1533989529968043 O
    velocity -0.3069446132861909 0.5405115806041340 -1.4902919054584907
atom 13.0645688648968186 13.9091186831627169 14.1533989529968043 O
    velocity -0.2420247504864404 -1.0390620483865416 -0.1117263650308097
atom 4.7070309806674739 4.3573813168372846 0.8379243501336385 O
    velocity -0.9248636263475444 0.5194914195232384 -0.4663025266776735
atom 9.9030309806674701 4.3573813168372846 0.8379243501336385 O
    velocity -0.0704202050073700 0.6294198004198577 1.7009197828172222
atom 15.0990309806674734 4.3573813168372846 0.8379243501336385 O
    velocity -0.0358477190840085 0.1896396633203540 -0.5711313646992949
atom 4.7070309806674739 9.5763813168372831 0.8379243501336385 O
    velocity -0.7383905375559169 -0.3792123800638025 0.4516155573449068
atom 9.9030309806674701 9.5763813168372831 0.8379243501336385 O
    velocity -0.0902254677529221 -0.7655264798561231 -0.9510233287756876
atom 15.0990309806674734 9.5763813168372831 0.8379243501336385 O
    velocity -0.0773638400350189 0.1463279226578534 0.2487562378411615
atom 4.7070309806674739 14.7953813168372825 0.8379243501336385 O
    velocity -0.5137334108251864 0.1919534269193015 -1.0451491039381162
atom 9.9030309806674701 14.7953813168372825 0.8379243501336385 O
    velocity -0.3687726141843084 0.1238054217753567 0.2798504745780300
atom 15.0990309806674734 14.7953813168372825 0.8379243501336385 O
    velocity 0.0733600098942335 -0.4590741521875453 0.8605641856176419
atom 3.8932461343592135 4.3573813168372846 6.1641141912789044 O
    velocity -0.0874984208834303 0.6449325982755285 0.8134802620301498
atom 9.0892461343592093 4.3573813168372846 6.1641141912789044 O
    velocity 0.0421219073844988 -0.6257399129570499 0.4709951235518732
atom 14.2852461343592125 4.3573813168372846 6.1641141912789044 O
    velocity 1.2774425083199523 0.2017595907924558 0.9922105315808157
atom 3.8932461343592135 9.5763813168372831 6.1641141912789044 O
    velocity -0.3190934827849562 -0.7133064616699321 0.7397526554663915
atom 9.0892461343592093 9.5763813168372831 6.1641141912789044 O
    velocity -0.5544420502218284 -0.1371467622988600 0.5908179999748443
atom 14.2852461343592125 9.5763813168372831 6.1641141912789044 O
    velocity 0.4528720139697340 0.3033352832411481 1.1520786723809893
atom 3.8932461343592135 14.7953813168372825 6.1641141912789044 O
    velocity 0.2087501671141346 -0.5877293161446933 0.6276812392390555
atom 9.0892461343592093 14.7953813168372825 6.1641141912789044 O
    velocity 0.8760525720546851 0.8205972264458593 -0.6106835983358231
atom 14.2852461343592125 14.7953813168372825 6.1641141912789044 O
    velocity 0.5009108204454270 -0.2370901302705728 0.6724439844734948
atom 3.0794612880509522 4.3573813168372846 11.4903040324241719 O
    velocity -0.9652810590726880 -0.2548250564068250 -0.4557230142918629
atom 8.2754612880509502 4.3573813168372846 11.4903040324241719 O
    velocity 0.3076431664184086 0.1570512733695004 0.0522352951851999
atom 13.4714612880509534 4.3573813168372846 11.4903040324241719 O
    velocity -0.0636479014247310 0.4880078927209718 0.1934790180343680
atom 3.0794612880509522 9.5763813168372831 11.4903040324241719 O
    velocity 0.0774448099553142 -1.3572220623261098 0.0218164683900234
atom 8.2754612880509502 9.5763813168372831 11.4903040324241719 O
    velocity 0.1976053085037675 0.7762164189960481 -0.4635816948192016
atom 13.4714612880509534 9.5763813168372831 11.4903040324241719 O
    velocity 1.2314561056265685 -1.2866998238260787 -0.1868833254106010
atom 3.0794612880509522 14.7953813168372825 11.4903040324241719 O
    velocity 0.8188273483558829 -0.5569239534362148 0.1008505789483405
atom 8.2754612880509502 14.7953813168372825 11.4903040324241719 O
    velocity 0.8810247665671088 -0.1104983376448527 0.2956755528856417
atom 13.4714612880509534 14.7953813168372825 11.4903040324241719 O
    velocity 0.2160633229271217 -0.2060988095280547 0.6516322063722328
atom -0.3248161345407223 0.8616186831627165 4.4882655655782875 O
    velocity 0.6121528459333478 -0.3977042070549020 0.1902386522424496
atom 4.8711838654592752 0.8616186831627165 4.4882655655782875 O
    velocity -0.8260029711259022 0.8259873612155728 0.5683757453742366
atom 10.0671838654592740 0.8616186831627165 4.4882655655782875 O
    velocity -0.5678924684346235 -0.4659189882686081 -0.0252892774202949
atom -0.3248161345407223 6.0806186831627160 4.4882655655782875 O
    velocity 0.2063738446269424 -0.7675360441493643 0.3936020328188245
atom 4.8711838654592752 6.0806186831627160 4.4882655655782875 O
    velocity 1.1606226009808585 0.8628294253170555 -0.1244419687347504
atom 10.0671838654592740 6.0806186831627160 4.4882655655782875 O
    velocity 0.6356898625022249 -0.9963676239718545 0.7959159952350532
atom -0.3248161345407223 11.2996186831627146 4.4882655655782875 O
    velocity 0.4003851822744086 0.2027087175907671 -0.7549570935615345
atom 4.8711838654592752 11.2996186831627146 4.4882655655782875 O
    velocity -1.3089153217220526 -1.3390776499046699 0.2305702338253328
atom 10.0671838654592740 11.2996186831627146 4.4882655655782875 O
    velocity -0.8181071325122025 0.2256984815673777 0.8951195464808335
atom -1.1386009808489832 0.8616186831627165 9.8144554067235532 O
    velocity -0.8498845261073459 -1.6098480557673189 -0.5329473148328123
atom 4.0573990191510143 0.8616186831627165 9.8144554067235532 O
    velocity 0.9193965191487660 -1.6822791202005816 -0.1084486849717416
atom 9.2533990191510131 0.8616186831627165 9.8144554067235532 O
    velocity -0.2925318883452526 -0.2390522709079027 0.8766667700995729
atom -1.1386009808489832 6.0806186831627160 9.8144554067235532 O
    velocity 0.4987130923687635 -0.4913410052400894 1.0967433833428764
atom 4.0573990191510143 6.0806186831627160 9.8144554067235532 O
    velocity -0.9781966786722837 -0.3602265625565850 0.7905183635245197
atom 9.2533990191510131 6.0806186831627160 9.8144554067235532 O
    velocity 1.2431698043833923 -0.5667108283518757 -0.2982384775028291
atom -1.1386009808489832 11.2996186831627146 9.8144554067235532 O
    velocity -1.3041654740606583 0.2040303699208058 -0.6809256167327477
atom 4.0573990191510143 11.2996186831627146 9.8144554067235532 O
    velocity 0.5381742767072940 -0.2106412178915640 -0.2351994943258225
atom 9.2533990191510131 11.2996186831627146 9.8144554067235532 O
    velocity -1.0777767921650223 0.0054935271209316 0.2378318537733675
atom -1.9523858271572443 0.8616186831627165 15.1406452478688216 O
    velocity -1.0093165861748652 -0.0214612628224584 0.8408844620837556
atom 3.2436141728427534 0.8616186831627165 15.1406452478688216 O
    velocity 0.2570635079515666 0.6768726647204144 0.9934696461181902
atom 8.4396141728427523 0.8616186831627165 15.1406452478688216 O
    velocity -0.3546767394343934 1.0615956610906299 -0.6921388772529847
atom -1.9523858271572443 6.0806186831627160 15.1406452478688216 O
    velocity -0.0177349251522075 0.0689871744279747 -0.3732149470187484
atom 3.2436141728427534 6.0806186831627160 15.1406452478688216 O
    velocity -0.3672450892327166 0.1778707389280663 0.8738911745791911
atom 8.4396141728427523 6.0806186831627160 15.1406452478688216 O
    velocity -0.1973671015858570 -0.2068103977428640 -0.1236282605099883
atom -1.9523858271572443 11.2996186831627146 15.1406452478688216 O