#=======================================================
# FHI-aims file: 1400_geometry.in.primitive.supercell_6144.0010K
# Created using the Atomic Simulation Environment (ASE)
# Wed Aug 24 14:05:46 2022

# Additional information:
#  created from MB distrubtion
#  T = 10.0 K
#  quantum:             False
#  deterministic:       False
#  plus_minus:          False
#  gauge_eigenvectors:  False
#  Random seed:         1175185825
#  Sample number:       1
#=======================================================
lattice_vector 41.5679999999999978 0.0000000000000000 0.0000000000000000 
lattice_vector 0.0000000000000000 41.7520000000000024 0.0000000000000000 
lattice_vector -6.5102787704660878 0.0000000000000000 42.6095187291621329 
atom 1.2667827658430284 0.2226370489648440 1.1184859249923944 Zr
    velocity -0.3946048381357561 0.0192868478092624 -0.6379063464775111
atom 6.4627827658430279 0.2226370489648440 1.1184859249923944 Zr
    velocity -0.6544290811107404 -0.4628252646488609 -0.5312695905947765
atom 11.6587827658430250 0.2226370489648440 1.1184859249923944 Zr
    velocity 0.3098683889757933 0.1085541362204361 0.4937287534260452
atom 16.8547827658430265 0.2226370489648440 1.1184859249923944 Zr
    velocity 0.1802547675448288 -0.6120467164318846 0.0144402259750997
atom 22.0507827658430244 0.2226370489648440 1.1184859249923944 Zr
    velocity 0.1507395942486452 -0.4627416325097853 -0.6241765972094236
atom 27.2467827658430259 0.2226370489648440 1.1184859249923944 Zr
    velocity 0.4284537025271960 -0.0432781567470989 0.0573413363822441
atom 32.4427827658430274 0.2226370489648440 1.1184859249923944 Zr
    velocity 0.3702369393867755 -0.1618825412420976 0.0999861546196624
atom 37.6387827658430254 0.2226370489648440 1.1184859249923944 Zr
    velocity -0.5646666141858201 -0.2022193562302040 -0.6505900026200040
atom 1.2667827658430284 5.4416370489648447 1.1184859249923944 Zr
    velocity 0.1950963308392536 -0.1554968347551313 0.1286657528297121
atom 6.4627827658430279 5.4416370489648447 1.1184859249923944 Zr
    velocity 0.3317066070134610 0.2307197890616857 0.5178154876593177
atom 11.6587827658430250 5.4416370489648447 1.1184859249923944 Zr
    velocity -0.1937063838733388 -0.6621132435266445 0.0192432477658480
atom 16.8547827658430265 5.4416370489648447 1.1184859249923944 Zr
    velocity 0.3442349689017945 -0.7066021105304257 -0.0628101018246623
atom 22.0507827658430244 5.4416370489648447 1.1184859249923944 Zr
    velocity -0.3580443179532319 0.3863108329731518 -0.1459420466769506
atom 27.2467827658430259 5.4416370489648447 1.1184859249923944 Zr
    velocity 0.1149642370557373 0.2475332596321043 0.1865979955552411
atom 32.4427827658430274 5.4416370489648447 1.1184859249923944 Zr
    velocity 0.3017746877103089 -0.0450556471646007 -0.1400812919122177
atom 37.6387827658430254 5.4416370489648447 1.1184859249923944 Zr
    velocity -0.2116696130694880 0.3394603849840855 -0.1256039827796034
atom 1.2667827658430284 10.6606370489648459 1.1184859249923944 Zr
    velocity 0.0442229310987265 0.4392645318284183 -0.0896392891201721
atom 6.4627827658430279 10.6606370489648459 1.1184859249923944 Zr
    velocity 0.1848026033430184 0.3851678503032937 0.0632208962287306
atom 11.6587827658430250 10.6606370489648459 1.1184859249923944 Zr
    velocity 0.0664310050046164 -0.3085980297692119 -0.0080682433325779
atom 16.8547827658430265 10.6606370489648459 1.1184859249923944 Zr
    velocity -0.0790423636814670 -0.0860777278970276 -0.3126394548693752
atom 22.0507827658430244 10.6606370489648459 1.1184859249923944 Zr
    velocity -0.5667183287236343 -0.0433967837362808 -0.0144086324586753
atom 27.2467827658430259 10.6606370489648459 1.1184859249923944 Zr
    velocity -0.4157759456904079 -0.2358092415406191 0.2944813877224089
atom 32.4427827658430274 10.6606370489648459 1.1184859249923944 Zr
    velocity -0.2077269909718614 -0.0853785728382421 -0.3419997281518696
atom 37.6387827658430254 10.6606370489648459 1.1184859249923944 Zr
    velocity 0.0672061212887825 -0.2174498790017632 -0.1344445378232921
atom 1.2667827658430284 15.8796370489648453 1.1184859249923944 Zr
    velocity -0.0412542827465164 0.6472832090059967 -0.1343238421912366
atom 6.4627827658430279 15.8796370489648453 1.1184859249923944 Zr
    velocity -0.1011494775502906 -0.2381146599482895 -0.5589035543652452
atom 11.6587827658430250 15.8796370489648453 1.1184859249923944 Zr
    velocity -0.1997284007249756 -0.0324003118488474 -0.2301203329678325
atom 16.8547827658430265 15.8796370489648453 1.1184859249923944 Zr
    velocity -0.0687099356901143 -0.1410751215424824 0.2803228462323786
atom 22.0507827658430244 15.8796370489648453 1.1184859249923944 Zr
    velocity -0.2093290722155178 0.1071511010432041 0.1292742929433685
atom 27.2467827658430259 15.8796370489648453 1.1184859249923944 Zr
    velocity 0.2221416681447350 0.0819204201685960 0.2316517864520506
atom 32.4427827658430274 15.8796370489648453 1.1184859249923944 Zr
    velocity 0.2056297712942954 0.0661816737921052 0.2391543448351887
atom 37.6387827658430254 15.8796370489648453 1.1184859249923944 Zr
    velocity -0.2131174191355819 -0.0008208661677266 -0.2793170441440427
atom 1.2667827658430284 21.0986370489648465 1.1184859249923944 Zr
    velocity 0.6794581325222501 0.4990283638682655 -0.2858550820309469
atom 6.4627827658430279 21.0986370489648465 1.1184859249923944 Zr
    velocity -0.4984601399859875 -0.2654124458950978 -0.1882591337366187
atom 11.6587827658430250 21.0986370489648465 1.1184859249923944 Zr
    velocity -0.0086850553751063 0.2399092430251795 -0.3169095995622359
atom 16.8547827658430265 21.0986370489648465 1.1184859249923944 Zr
    velocity -0.1180164017681355 -0.0298953432510456 -0.4185693297787946
atom 22.0507827658430244 21.0986370489648465 1.1184859249923944 Zr
    velocity -0.2402887363777625 -0.0332573269497118 0.4787644863853635
atom 27.2467827658430259 21.0986370489648465 1.1184859249923944 Zr
    velocity 0.2156190953196112 0.2117444074962591 0.1835919277137448
atom 32.4427827658430274 21.0986370489648465 1.1184859249923944 Zr
    velocity -0.1796582784881159 0.3975777143916264 0.4641050332817944
atom 37.6387827658430254 21.0986370489648465 1.1184859249923944 Zr
    velocity 0.4957790064096854 -0.1540833515776303 -0.3051918423235176
atom 1.2667827658430284 26.3176370489648477 1.1184859249923944 Zr
    velocity -0.4504074203611299 -0.0608231437462428 0.5546955697852766
atom 6.4627827658430279 26.3176370489648477 1.1184859249923944 Zr
    velocity 0.2370233686521318 0.4382594228139396 -0.3840995025671490
atom 11.6587827658430250 26.3176370489648477 1.1184859249923944 Zr
    velocity -0.2234833884935450 0.2708342878478398 -0.0018922296288787
atom 16.8547827658430265 26.3176370489648477 1.1184859249923944 Zr
    velocity 0.2917141098138852 -0.3445750294288101 -0.5971413406594633
atom 22.0507827658430244 26.3176370489648477 1.1184859249923944 Zr
    velocity 0.5860235377158477 0.3305562714553875 0.1570274015902608
atom 27.2467827658430259 26.3176370489648477 1.1184859249923944 Zr
    velocity 0.1667263586952124 0.2379457947198554 -0.0530040177892075
atom 32.4427827658430274 26.3176370489648477 1.1184859249923944 Zr
    velocity 0.0249579913847244 -0.2415618791781660 0.4139409981715760
atom 37.6387827658430254 26.3176370489648477 1.1184859249923944 Zr
    velocity -0.1604123014604452 0.2841630071113323 -0.2261903286026375
atom 1.2667827658430284 31.5366370489648453 1.1184859249923944 Zr
    velocity -0.0274135782525997 -0.1551134372265699 -0.4932332738214986
atom 6.4627827658430279 31.5366370489648453 1.1184859249923944 Zr
    velocity 0.0346983957921283 -0.1857306712068302 -0.0042807397354972
atom 11.6587827658430250 31.5366370489648453 1.1184859249923944 Zr
    velocity -0.0717972721480665 0.4090773253193264 0.0935571094487572
atom 16.8547827658430265 31.5366370489648453 1.1184859249923944 Zr
    velocity -0.5542209446477006 -0.2157432546503499 0.1025908805698297
atom 22.0507827658430244 31.5366370489648453 1.1184859249923944 Zr
    velocity 0.1333065285131608 -0.2981166102121332 -0.7282602914563753
atom 27.2467827658430259 31.5366370489648453 1.1184859249923944 Zr
    velocity 0.4104081227940997 -0.1778605465696856 -0.3982179480171117
atom 32.4427827658430274 31.5366370489648453 1.1184859249923944 Zr
    velocity -0.1606989408685245 0.2587969568474997 0.0454243251022153
atom 37.6387827658430254 31.5366370489648453 1.1184859249923944 Zr
    velocity 0.0802860136731057 0.2164387899947864 -0.0274372128463115
atom 1.2667827658430284 36.7556370489648501 1.1184859249923944 Zr
    velocity -0.5496619719545714 -0.3094422662852250 -0.3970514044568098
atom 6.4627827658430279 36.7556370489648501 1.1184859249923944 Zr
    velocity 0.1064296597635398 -0.1817911864229392 0.0547328256138236
atom 11.6587827658430250 36.7556370489648501 1.1184859249923944 Zr
    velocity 0.4561317269455387 0.0154120375226556 0.2891002498868638
atom 16.8547827658430265 36.7556370489648501 1.1184859249923944 Zr
    velocity -0.3549641818597200 -0.5556857836488978 0.1932479957352926
atom 22.0507827658430244 36.7556370489648501 1.1184859249923944 Zr
    velocity 0.2636654371244310 -0.0923806772875886 -0.0835569279032391
atom 27.2467827658430259 36.7556370489648501 1.1184859249923944 Zr
    velocity 0.2386789229104826 -0.2018876866188304 -0.3527908488187029
atom 32.4427827658430274 36.7556370489648501 1.1184859249923944 Zr
    velocity -0.4371622727326056 0.2353765702577444 -0.2730672916840539
atom 37.6387827658430254 36.7556370489648501 1.1184859249923944 Zr
    velocity 0.0059703527571699 -0.2895410122140922 -0.0507184072840376
atom 0.4529979195347674 0.2226370489648440 6.4446757661376619 Zr
    velocity -0.1139058533936643 0.3970920773258847 -0.3768206647708039
atom 5.6489979195347670 0.2226370489648440 6.4446757661376619 Zr
    velocity -0.1824226723703457 0.2356777359661650 -0.2484769523888261
atom 10.8449979195347641 0.2226370489648440 6.4446757661376619 Zr
    velocity 0.3477672721285577 0.4936674873298194 0.2366505353250170
atom 16.0409979195347674 0.2226370489648440 6.4446757661376619 Zr
    velocity 0.0365838730624906 0.0768442276324255 0.0397991708099338
atom 21.2369979195347653 0.2226370489648440 6.4446757661376619 Zr
    velocity 0.1440951302952245 -0.0265901103306850 0.0725618134446165
atom 26.4329979195347669 0.2226370489648440 6.4446757661376619 Zr
    velocity 0.4033527982393047 0.2744448228520259 -0.1994185640788206
atom 31.6289979195347684 0.2226370489648440 6.4446757661376619 Zr
    velocity 0.0105666692148879 0.2294000731303308 -0.2429724517579890
atom 36.8249979195347663 0.2226370489648440 6.4446757661376619 Zr
    velocity -0.1815702857356315 -0.0295020825694437 -0.1515234514809209
atom 0.4529979195347674 5.4416370489648447 6.4446757661376619 Zr
    velocity 0.3447543449605626 -0.4360554630041746 0.2904604991981854
atom 5.6489979195347670 5.4416370489648447 6.4446757661376619 Zr
    velocity -0.0768939045347880 -0.0602157647479704 -0.2349843799853252
atom 10.8449979195347641 5.4416370489648447 6.4446757661376619 Zr
    velocity -0.4122730399434806 -0.2122129192178956 0.2521649437047834
atom 16.0409979195347674 5.4416370489648447 6.4446757661376619 Zr
    velocity 0.4378377071970312 0.0573431317187094 0.7846560334467945
atom 21.2369979195347653 5.4416370489648447 6.4446757661376619 Zr
    velocity 0.1267003416822980 0.0843700654900003 -0.0508920818892439
atom 26.4329979195347669 5.4416370489648447 6.4446757661376619 Zr
    velocity -0.4352660131399690 -0.6562045187944628 -0.0403416704115189
atom 31.6289979195347684 5.4416370489648447 6.4446757661376619 Zr
    velocity -0.1751025892161009 0.3930544154826978 -0.0108189089398569
atom 36.8249979195347663 5.4416370489648447 6.4446757661376619 Zr
    velocity 0.2190259256206280 -0.1306930560761517 0.4431167253394685
atom 0.4529979195347674 10.6606370489648459 6.4446757661376619 Zr
    velocity -0.2314711093030782 -0.0050796928951586 0.2216264567846707
atom 5.6489979195347670 10.6606370489648459 6.4446757661376619 Zr
    velocity 0.0393888009314972 0.4974799746232149 -1.0198625555278946
atom 10.8449979195347641 10.6606370489648459 6.4446757661376619 Zr
    velocity -0.2287512545538319 0.0347856854242253 0.3394815176710864
atom 16.0409979195347674 10.6606370489648459 6.4446757661376619 Zr
    velocity 0.1746748182576057 -0.1056711433396874 -0.3586519146953251
atom 21.2369979195347653 10.6606370489648459 6.4446757661376619 Zr
    velocity 0.0377784532476327 -0.3750818297819414 -0.3180926489561180
atom 26.4329979195347669 10.6606370489648459 6.4446757661376619 Zr
    velocity 0.3925515603358982 0.1234487445220384 -0.3478724171617154
atom 31.6289979195347684 10.6606370489648459 6.4446757661376619 Zr
    velocity -0.0126399756895379 0.1837599503784622 0.4617590003255906
atom 36.8249979195347663 10.6606370489648459 6.4446757661376619 Zr
    velocity -0.0678138770745147 0.2608584867884071 0.0173804021741643
atom 0.4529979195347674 15.8796370489648453 6.4446757661376619 Zr
    velocity -0.0060243981928416 -0.7337356691118045 0.2734467356659415
atom 5.6489979195347670 15.8796370489648453 6.4446757661376619 Zr
    velocity -0.0064836374946970 -0.0108239548147509 0.1729901336959903
atom 10.8449979195347641 15.8796370489648453 6.4446757661376619 Zr
    velocity 0.0938822736531479 -0.0928663204944696 -0.5985401580253569
atom 16.0409979195347674 15.8796370489648453 6.4446757661376619 Zr
    velocity -0.1985618831851728 0.1363720690904894 0.2129476382197754
atom 21.2369979195347653 15.8796370489648453 6.4446757661376619 Zr
    velocity 0.1757896115185908 -0.4032672888698848 -0.0476281523374905
atom 26.4329979195347669 15.8796370489648453 6.4446757661376619 Zr
    velocity 0.3940679886849703 0.3178852020062146 -0.4469112036063981
atom 31.6289979195347684 15.8796370489648453 6.4446757661376619 Zr
    velocity -0.0653636887688795 -0.5509805112397559 -0.3679526684315552
atom 36.8249979195347663 15.8796370489648453 6.4446757661376619 Zr
    velocity -0.1841600674239121 0.7832134402647365 0.4625520665862459
atom 0.4529979195347674 21.0986370489648465 6.4446757661376619 Zr
    velocity 0.3506689018770656 0.0106038701287828 0.1372445856539154
atom 5.6489979195347670 21.0986370489648465 6.4446757661376619 Zr
    velocity -0.4162197772086232 -0.3679993161576928 0.1199723304196077
atom 10.8449979195347641 21.0986370489648465 6.4446757661376619 Zr
    velocity -0.0220483114061983 -0.0875512268366654 -0.2630184667150033
atom 16.0409979195347674 21.0986370489648465 6.4446757661376619 Zr
    velocity -0.2055742447480321 -0.2420738539208945 -0.0744829688869771
atom 21.2369979195347653 21.0986370489648465 6.4446757661376619 Zr
    velocity 0.0431651734824962 0.0806555562952188 0.5579627516176477
atom 26.4329979195347669 21.0986370489648465 6.4446757661376619 Zr
    velocity -0.0679698862391338 -0.0532361334489110 -0.0643994813370302
atom 31.6289979195347684 21.0986370489648465 6.4446757661376619 Zr
    velocity -0.2308820222669361 0.1234927871822822 -0.0856106761345392
atom 36.8249979195347663 21.0986370489648465 6.4446757661376619 Zr
    velocity 0.6259926145883593 0.0909730546233282 -0.5710558276329801
atom 0.4529979195347674 26.3176370489648477 6.4446757661376619 Zr
    velocity -0.6823765771211483 -0.0379048411624443 0.0345384449184695
atom 5.6489979195347670 26.3176370489648477 6.4446757661376619 Zr
    velocity -0.1252728303664046 -0.0308443203527929 0.1559191157872287
atom 10.8449979195347641 26.3176370489648477 6.4446757661376619 Zr
    velocity 0.2382409923962508 -0.1878092294457281 -0.5568761330879165
atom 16.0409979195347674 26.3176370489648477 6.4446757661376619 Zr
    velocity -0.2071937928845087 0.1581952984815640 0.2366997595808604
atom 21.2369979195347653 26.3176370489648477 6.4446757661376619 Zr
    velocity 0.2482194458373346 -0.1782820071525369 -0.4003142095533430
atom 26.4329979195347669 26.3176370489648477 6.4446757661376619 Zr
    velocity 0.5455322058754415 0.1845890773687571 -0.0571461948279563
atom 31.6289979195347684 26.3176370489648477 6.4446757661376619 Zr
    velocity 0.0990189976412934 0.1041905404094303 0.3934169294556452
atom 36.8249979195347663 26.3176370489648477 6.4446757661376619 Zr
    velocity -0.0171326312157680 0.5424672319654957 -0.2676998586359899
atom 0.4529979195347674 31.5366370489648453 6.4446757661376619 Zr
    velocity -0.4105207038138976 0.3634473432196127 0.5859323776680725
atom 5.6489979195347670 31.5366370489648453 6.4446757661376619 Zr
    velocity -0.3229385241035573 -0.1188913884151566 -0.2636244183105840
atom 10.8449979195347641 31.5366370489648453 6.4446757661376619 Zr
    velocity -0.1599737156865050 -0.0035722465696424 -0.2124324823655778
atom 16.0409979195347674 31.5366370489648453 6.4446757661376619 Zr
    velocity -0.3186497964338804 -0.2548994519476669 -0.0867406724493750
atom 21.2369979195347653 31.5366370489648453 6.4446757661376619 Zr
    velocity -0.1667754288913531 -0.1796171280665484 0.3243983416878339
atom 26.4329979195347669 31.5366370489648453 6.4446757661376619 Zr
    velocity -0.3204880210903724 0.2332802729259850 -0.0785679792395591
atom 31.6289979195347684 31.5366370489648453 6.4446757661376619 Zr
    velocity -0.5385050102084346 0.1627711077282685 -0.1092369456008985
atom 36.8249979195347663 31.5366370489648453 6.4446757661376619 Zr
    velocity 0.0052072347852582 0.3291317102280104 -0.1122262169513430
atom 0.4529979195347674 36.7556370489648501 6.4446757661376619 Zr
    velocity 0.0543970225911055 0.0913351336731018 -0.5255709585530655
atom 5.6489979195347670 36.7556370489648501 6.4446757661376619 Zr
    velocity 0.4171708314545536 0.0037624728208036 -0.0403980797044463
atom 10.8449979195347641 36.7556370489648501 6.4446757661376619 Zr
    velocity -0.5162035601230751 -0.2302329741442725 -0.0067910744480213
atom 16.0409979195347674 36.7556370489648501 6.4446757661376619 Zr
    velocity 0.0864423124915870 0.0883360603826460 -0.1317347258619100
atom 21.2369979195347653 36.7556370489648501 6.4446757661376619 Zr
    velocity -0.0840719300075457 0.1984253172358843 -0.0398419146292538
atom 26.4329979195347669 36.7556370489648501 6.4446757661376619 Zr
    velocity 0.0108066283155427 0.0984944094783336 0.0612367608313609
atom 31.6289979195347684 36.7556370489648501 6.4446757661376619 Zr
    velocity 0.1442091225450185 0.0213321654748304 0.2382891097751879
atom 36.8249979195347663 36.7556370489648501 6.4446757661376619 Zr
    velocity -0.0556271157125333 0.0639871500996400 -0.1332387026426556
atom -0.3607869267734936 0.2226370489648440 11.7708656072829285 Zr
    velocity -0.2486073992407316 0.3829112739416032 0.2910172624039924
atom 4.8352130732265062 0.2226370489648440 11.7708656072829285 Zr
    velocity 0.5735847050098146 0.1194940347706052 0.2171019083454584
atom 10.0312130732265015 0.2226370489648440 11.7708656072829285 Zr
    velocity 0.2724083960874680 -0.1266838024724872 0.0483496769108291
atom 15.2272130732265047 0.2226370489648440 11.7708656072829285 Zr
    velocity 0.0097809016847654 0.3704904612098049 0.1646033827389567
atom 20.4232130732265027 0.2226370489648440 11.7708656072829285 Zr
    velocity -0.5149996723052324 0.2979378733400838 0.0796863976273912
atom 25.6192130732265042 0.2226370489648440 11.7708656072829285 Zr
    velocity -0.0163474608542403 -0.0881825954271856 0.2349946734502545
atom 30.8152130732265057 0.2226370489648440 11.7708656072829285 Zr
    velocity -0.2266152781703813 -0.0373092899373859 0.3814112260248753
atom 36.0112130732265072 0.2226370489648440 11.7708656072829285 Zr
    velocity 0.5795445316849435 -0.0101092506629238 -0.2705015756142905
atom -0.3607869267734936 5.4416370489648447 11.7708656072829285 Zr
    velocity 0.2720933718744812 0.3350244787025977 -0.3806634254898283
atom 4.8352130732265062 5.4416370489648447 11.7708656072829285 Zr
    velocity 0.2590559486230682 -0.1117819998235283 0.6100346733515449
atom 10.0312130732265015 5.4416370489648447 11.7708656072829285 Zr
    velocity -0.1844340723120811 -0.2362670850975223 0.0287441058770745
atom 15.2272130732265047 5.4416370489648447 11.7708656072829285 Zr
    velocity 0.3059431492981985 -0.0129899051382775 0.0869392575120516
atom 20.4232130732265027 5.4416370489648447 11.7708656072829285 Zr
    velocity 0.1248154074370760 0.4753334766829132 0.5116951858763015
atom 25.6192130732265042 5.4416370489648447 11.7708656072829285 Zr
    velocity 0.0083814082650157 0.0079729914548900 -0.1561672495534119
atom 30.8152130732265057 5.4416370489648447 11.7708656072829285 Zr
    velocity 0.0385238922417232 0.3531213254755883 -0.2617142873255200
atom 36.0112130732265072 5.4416370489648447 11.7708656072829285 Zr
    velocity 0.2014027359454627 0.3793236077639742 -0.9173315801406031
atom -0.3607869267734936 10.6606370489648459 11.7708656072829285 Zr
    velocity 0.1453420441761532 0.0213193613506856 0.4518595399578454
atom 4.8352130732265062 10.6606370489648459 11.7708656072829285 Zr
    velocity -0.5366983802579157 0.2415133758910742 -0.1456441252043533
atom 10.0312130732265015 10.6606370489648459 11.7708656072829285 Zr
    velocity 0.0393424473657246 -0.0617947576348241 -0.2407867170939088
atom 15.2272130732265047 10.6606370489648459 11.7708656072829285 Zr
    velocity -0.2127490497781281 -0.0288575377287056 0.0448888177257389
atom 20.4232130732265027 10.6606370489648459 11.7708656072829285 Zr
    velocity -0.3213781489083939 -0.5734907596239335 -0.3084038308097104
atom 25.6192130732265042 10.6606370489648459 11.7708656072829285 Zr
    velocity -0.0880657389981789 -0.0516586739202272 -0.0823936549890483
atom 30.8152130732265057 10.6606370489648459 11.7708656072829285 Zr
    velocity -0.2312509315477417 -0.1766494562310404 0.2094190875670376
atom 36.0112130732265072 10.6606370489648459 11.7708656072829285 Zr
    velocity 0.4588065025149539 -0.0590943915976940 -0.2095244221275697
atom -0.3607869267734936 15.8796370489648453 11.7708656072829285 Zr
    velocity -0.1359445325189344 -0.1502651801273398 -0.2587319861610344
atom 4.8352130732265062 15.8796370489648453 11.7708656072829285 Zr
    velocity 0.0068707440419954 0.1730853481487537 0.1349099187689409
atom 10.0312130732265015 15.8796370489648453 11.7708656072829285 Zr
    velocity -0.1002830906382477 0.2162954992970122 -0.2498183884357951
atom 15.2272130732265047 15.8796370489648453 11.7708656072829285 Zr
    velocity 0.5284287760765235 0.2141048886893135 0.3155913105711059
atom 20.4232130732265027 15.8796370489648453 11.7708656072829285 Zr
    velocity 0.0755826619882522 0.3503280395027843 0.0514376100496695
atom 25.6192130732265042 15.8796370489648453 11.7708656072829285 Zr
    velocity -0.1634354847028976 0.2214718867370850 0.2406604186614860
atom 30.8152130732265057 15.8796370489648453 11.7708656072829285 Zr
    velocity -0.2508165151095003 -0.4420787196133268 0.0266894182465456
atom 36.0112130732265072 15.8796370489648453 11.7708656072829285 Zr
    velocity 0.5557973968185492 -0.0156398131058863 0.2102898289128091
atom -0.3607869267734936 21.0986370489648465 11.7708656072829285 Zr
    velocity 0.5362411067527802 0.5987186713450217 -0.0855232289716022
atom 4.8352130732265062 21.0986370489648465 11.7708656072829285 Zr
    velocity -0.2042843085117014 -0.0019935015649938 -0.5507113809048054
atom 10.0312130732265015 21.0986370489648465 11.7708656072829285 Zr
    velocity 0.3166967884703502 0.3164824803170049 -0.1634047195680601
atom 15.2272130732265047 21.0986370489648465 11.7708656072829285 Zr
    velocity -0.1614441668760661 0.3859566582007825 0.0691723862708530
atom 20.4232130732265027 21.0986370489648465 11.7708656072829285 Zr
    velocity -0.0445514684059065 -0.5576468105777805 -0.0926253855844894
atom 25.6192130732265042 21.0986370489648465 11.7708656072829285 Zr
    velocity -0.2286508895215521 0.1003793791015318 0.1909732261688811
atom 30.8152130732265057 21.0986370489648465 11.7708656072829285 Zr
    velocity 0.1139636223186637 0.0147886638187161 0.0097836737412601
atom 36.0112130732265072 21.0986370489648465 11.7708656072829285 Zr
    velocity 0.0089785993074599 0.2850045363634474 0.2804552859992437
atom -0.3607869267734936 26.3176370489648477 11.7708656072829285 Zr
    velocity -0.0118740770499659 0.5126288426003845 0.1737866705097441
atom 4.8352130732265062 26.3176370489648477 11.7708656072829285 Zr
    velocity 0.0133475918191622 -0.0237037722609340 -0.6241737777712880
atom 10.0312130732265015 26.3176370489648477 11.7708656072829285 Zr
    velocity -0.2806920546623611 0.1507751577333220 -0.1026158477869563
atom 15.2272130732265047 26.3176370489648477 11.7708656072829285 Zr
    velocity -0.2926208038769239 0.2659008116152707 -0.0516928481693222
atom 20.4232130732265027 26.3176370489648477 11.7708656072829285 Zr
    velocity 0.0474437541318960 -0.6277395451992114 0.2064384424281349
atom 25.6192130732265042 26.3176370489648477 11.7708656072829285 Zr
    velocity 0.0101228205482438 -0.0352176503979317 0.4104153443644901
atom 30.8152130732265057 26.3176370489648477 11.7708656072829285 Zr
    velocity -0.0640084000098039 -0.2465324265262346 0.3375524733809940
atom 36.0112130732265072 26.3176370489648477 11.7708656072829285 Zr
    velocity -0.0890699726524118 -0.1635785477073250 0.2099231048548216
atom -0.3607869267734936 31.5366370489648453 11.7708656072829285 Zr
    velocity 0.0807247287342581 0.2601902781397558 -0.2757852117756510
atom 4.8352130732265062 31.5366370489648453 11.7708656072829285 Zr
    velocity -0.3890469711688473 -0.2324402504650208 -0.5104406010393768
atom 10.0312130732265015 31.5366370489648453 11.7708656072829285 Zr
    velocity 0.1345731163440638 0.6821601701956503 -0.2278366101420403
atom 15.2272130732265047 31.5366370489648453 11.7708656072829285 Zr
    velocity -0.2519525144807171 0.1042865553951920 -0.1868408065573738
atom 20.4232130732265027 31.5366370489648453 11.7708656072829285 Zr
    velocity -0.2196544908184570 -0.1148397930160747 0.0055847721160079
atom 25.6192130732265042 31.5366370489648453 11.7708656072829285 Zr
    velocity 0.0231567566616872 -0.6077208481071305 -0.3421709191454722
atom 30.8152130732265057 31.5366370489648453 11.7708656072829285 Zr
    velocity -0.1909814663962343 -0.0471057793232805 0.0607014098597547
atom 36.0112130732265072 31.5366370489648453 11.7708656072829285 Zr
    velocity -0.2386633555740402 -0.6602596053196853 -0.4302645797201730
atom -0.3607869267734936 36.7556370489648501 11.7708656072829285 Zr
    velocity -0.3514216995935273 -0.5586558382526571 0.2724165156730883
atom 4.8352130732265062 36.7556370489648501 11.7708656072829285 Zr
    velocity -0.0514007274752365 -0.0909702928750644 0.4953263186987263
atom 10.0312130732265015 36.7556370489648501 11.7708656072829285 Zr
    velocity 0.2982252299515069 -0.5409767932581031 0.2539215998161357
atom 15.2272130732265047 36.7556370489648501 11.7708656072829285 Zr
    velocity -0.8322070665480364 0.1000523615167642 -0.0623139202751280
atom 20.4232130732265027 36.7556370489648501 11.7708656072829285 Zr
    velocity 0.1280251825303171 0.4859351721558223 -0.6084405697124051
atom 25.6192130732265042 36.7556370489648501 11.7708656072829285 Zr
    velocity -0.0412877684573471 0.1011434316634075 0.2233355907573171
atom 30.8152130732265057 36.7556370489648501 11.7708656072829285 Zr
    velocity -0.1167497885882005 0.2166555563239278 0.6320063060428782
atom 36.0112130732265072 36.7556370489648501 11.7708656072829285 Zr
    velocity 0.2771420143597763 -0.1140638639208888 0.0098140217981867
atom -1.1745717730817546 0.2226370489648440 17.0970554484281934 Zr
    velocity 0.0579113607070869 -0.0613663735107537 0.1561287598082832
atom 4.0214282269182453 0.2226370489648440 17.0970554484281934 Zr
    velocity 0.2410481364101881 -0.1083240285353624 -0.1454432413986146
atom 9.2174282269182406 0.2226370489648440 17.0970554484281934 Zr
    velocity -0.0470302720924640 -0.1962208750875995 -0.0930631939419670
atom 14.4134282269182439 0.2226370489648440 17.0970554484281934 Zr
    velocity 0.1161831750345496 0.1381700429116109 0.3856801368575329
atom 19.6094282269182436 0.2226370489648440 17.0970554484281934 Zr
    velocity 0.1484449917080704 -0.1310093422623178 -0.1203268563073695
atom 24.8054282269182451 0.2226370489648440 17.0970554484281934 Zr
    velocity -0.0491635405519524 -0.0828085107792802 0.7638472626191598
atom 30.0014282269182466 0.2226370489648440 17.0970554484281934 Zr
    velocity -0.0388182466361060 0.7201118656403017 -0.0722463352394545
atom 35.1974282269182410 0.2226370489648440 17.0970554484281934 Zr
    velocity 0.1805028788823190 0.1310651814147563 0.1195920044257315
atom -1.1745717730817546 5.4416370489648447 17.0970554484281934 Zr
    velocity 0.2939614897135466 0.8203824869839715 0.6560652805590534
atom 4.0214282269182453 5.4416370489648447 17.0970554484281934 Zr
    velocity -0.0753938877781283 0.3334477616912999 -0.2214197123674197
atom 9.2174282269182406 5.4416370489648447 17.0970554484281934 Zr
    velocity 0.2032943210029544 -0.3380975033972781 0.3830394401105993
atom 14.4134282269182439 5.4416370489648447 17.0970554484281934 Zr
    velocity -0.3795814935646686 1.0994090096692541 -0.3099278836597285
atom 19.6094282269182436 5.4416370489648447 17.0970554484281934 Zr
    velocity -0.1062167161405323 -0.2001403255192919 -0.0922313825861105
atom 24.8054282269182451 5.4416370489648447 17.0970554484281934 Zr
    velocity 0.0680875352529290 0.2347527752513773 0.1266589945636905
atom 30.0014282269182466 5.4416370489648447 17.0970554484281934 Zr
    velocity 0.0503809640187893 0.2597917056901197 -0.2244565785446394
atom 35.1974282269182410 5.4416370489648447 17.0970554484281934 Zr
    velocity -0.1308891024990043 0.3072702533237858 -0.3326197853291103
atom -1.1745717730817546 10.6606370489648459 17.0970554484281934 Zr
    velocity 0.0876463697483295 0.1919836340988078 0.0894270791115282
atom 4.0214282269182453 10.6606370489648459 17.0970554484281934 Zr
    velocity -0.1303775587935559 -0.4680974525401138 0.1602421532732699
atom 9.2174282269182406 10.6606370489648459 17.0970554484281934 Zr
    velocity 0.0693316048626604 -0.2583243145798178 -0.2349270366497679