#=======================================================
# FHI-aims file: 1400_geometry.in.primitive.supercell_8748
# Created using the Atomic Simulation Environment (ASE)
# Wed Aug 24 14:04:31 2022

# Additional information:
#  Number of atoms:     8748
#  Spacegroup:          14
#  supercell:           True
#  supercell_matrix:    [9, 0, 0, 0, 9, 0, 0, 0, 9]
#  Supercell matrix:    [9 0 0 0 9 0 0 0 9]
#=======================================================
lattice_vector 46.7639999999999958 0.0000000000000000 0.0000000000000000 
lattice_vector 0.0000000000000000 46.9710000000000036 0.0000000000000000 
lattice_vector -7.3240636167743487 0.0000000000000000 47.9357085703073977 
atom_frac 0.0307432095935555 0.0047398830973333 0.0233330424927778 Zr
atom_frac 0.1418543207046666 0.0047398830973333 0.0233330424927778 Zr
atom_frac 0.2529654318157777 0.0047398830973333 0.0233330424927778 Zr
atom_frac 0.3640765429268888 0.0047398830973333 0.0233330424927778 Zr
atom_frac 0.4751876540380000 0.0047398830973333 0.0233330424927778 Zr
atom_frac 0.5862987651491111 0.0047398830973333 0.0233330424927778 Zr
atom_frac 0.6974098762602223 0.0047398830973333 0.0233330424927778 Zr
atom_frac 0.8085209873713333 0.0047398830973333 0.0233330424927778 Zr
atom_frac 0.9196320984824444 0.0047398830973333 0.0233330424927778 Zr
atom_frac 0.0307432095935555 0.1158509942084444 0.0233330424927778 Zr
atom_frac 0.1418543207046666 0.1158509942084444 0.0233330424927778 Zr
atom_frac 0.2529654318157777 0.1158509942084444 0.0233330424927778 Zr
atom_frac 0.3640765429268888 0.1158509942084444 0.0233330424927778 Zr
atom_frac 0.4751876540380000 0.1158509942084444 0.0233330424927778 Zr
atom_frac 0.5862987651491111 0.1158509942084444 0.0233330424927778 Zr
atom_frac 0.6974098762602223 0.1158509942084444 0.0233330424927778 Zr
atom_frac 0.8085209873713333 0.1158509942084444 0.0233330424927778 Zr
atom_frac 0.9196320984824444 0.1158509942084444 0.0233330424927778 Zr
atom_frac 0.0307432095935555 0.2269621053195556 0.0233330424927778 Zr
atom_frac 0.1418543207046666 0.2269621053195556 0.0233330424927778 Zr
atom_frac 0.2529654318157777 0.2269621053195556 0.0233330424927778 Zr
atom_frac 0.3640765429268888 0.2269621053195556 0.0233330424927778 Zr
atom_frac 0.4751876540380000 0.2269621053195556 0.0233330424927778 Zr
atom_frac 0.5862987651491111 0.2269621053195556 0.0233330424927778 Zr
atom_frac 0.6974098762602223 0.2269621053195556 0.0233330424927778 Zr
atom_frac 0.8085209873713333 0.2269621053195556 0.0233330424927778 Zr
atom_frac 0.9196320984824444 0.2269621053195556 0.0233330424927778 Zr
atom_frac 0.0307432095935555 0.3380732164306667 0.0233330424927778 Zr
atom_frac 0.1418543207046666 0.3380732164306667 0.0233330424927778 Zr
atom_frac 0.2529654318157777 0.3380732164306667 0.0233330424927778 Zr
atom_frac 0.3640765429268888 0.3380732164306667 0.0233330424927778 Zr
atom_frac 0.4751876540380000 0.3380732164306667 0.0233330424927778 Zr
atom_frac 0.5862987651491111 0.3380732164306667 0.0233330424927778 Zr
atom_frac 0.6974098762602223 0.3380732164306667 0.0233330424927778 Zr
atom_frac 0.8085209873713333 0.3380732164306667 0.0233330424927778 Zr
atom_frac 0.9196320984824444 0.3380732164306667 0.0233330424927778 Zr
atom_frac 0.0307432095935555 0.4491843275417778 0.0233330424927778 Zr
atom_frac 0.1418543207046666 0.4491843275417778 0.0233330424927778 Zr
atom_frac 0.2529654318157777 0.4491843275417778 0.0233330424927778 Zr
atom_frac 0.3640765429268888 0.4491843275417778 0.0233330424927778 Zr
atom_frac 0.4751876540380000 0.4491843275417778 0.0233330424927778 Zr
atom_frac 0.5862987651491111 0.4491843275417778 0.0233330424927778 Zr
atom_frac 0.6974098762602223 0.4491843275417778 0.0233330424927778 Zr
atom_frac 0.8085209873713333 0.4491843275417778 0.0233330424927778 Zr
atom_frac 0.9196320984824444 0.4491843275417778 0.0233330424927778 Zr
atom_frac 0.0307432095935555 0.5602954386528889 0.0233330424927778 Zr
atom_frac 0.1418543207046666 0.5602954386528889 0.0233330424927778 Zr
atom_frac 0.2529654318157777 0.5602954386528889 0.0233330424927778 Zr
atom_frac 0.3640765429268888 0.5602954386528889 0.0233330424927778 Zr
atom_frac 0.4751876540380000 0.5602954386528889 0.0233330424927778 Zr
atom_frac 0.5862987651491111 0.5602954386528889 0.0233330424927778 Zr
atom_frac 0.6974098762602223 0.5602954386528889 0.0233330424927778 Zr
atom_frac 0.8085209873713333 0.5602954386528889 0.0233330424927778 Zr
atom_frac 0.9196320984824444 0.5602954386528889 0.0233330424927778 Zr
atom_frac 0.0307432095935555 0.6714065497639998 0.0233330424927778 Zr
atom_frac 0.1418543207046666 0.6714065497639998 0.0233330424927778 Zr
atom_frac 0.2529654318157777 0.6714065497639998 0.0233330424927778 Zr
atom_frac 0.3640765429268888 0.6714065497639998 0.0233330424927778 Zr
atom_frac 0.4751876540380000 0.6714065497639998 0.0233330424927778 Zr
atom_frac 0.5862987651491111 0.6714065497639998 0.0233330424927778 Zr
atom_frac 0.6974098762602223 0.6714065497639998 0.0233330424927778 Zr
atom_frac 0.8085209873713333 0.6714065497639998 0.0233330424927778 Zr
atom_frac 0.9196320984824444 0.6714065497639998 0.0233330424927778 Zr
atom_frac 0.0307432095935555 0.7825176608751110 0.0233330424927778 Zr
atom_frac 0.1418543207046666 0.7825176608751110 0.0233330424927778 Zr
atom_frac 0.2529654318157777 0.7825176608751110 0.0233330424927778 Zr
atom_frac 0.3640765429268888 0.7825176608751110 0.0233330424927778 Zr
atom_frac 0.4751876540380000 0.7825176608751110 0.0233330424927778 Zr
atom_frac 0.5862987651491111 0.7825176608751110 0.0233330424927778 Zr
atom_frac 0.6974098762602223 0.7825176608751110 0.0233330424927778 Zr
atom_frac 0.8085209873713333 0.7825176608751110 0.0233330424927778 Zr
atom_frac 0.9196320984824444 0.7825176608751110 0.0233330424927778 Zr
atom_frac 0.0307432095935555 0.8936287719862221 0.0233330424927778 Zr
atom_frac 0.1418543207046666 0.8936287719862221 0.0233330424927778 Zr
atom_frac 0.2529654318157777 0.8936287719862221 0.0233330424927778 Zr
atom_frac 0.3640765429268888 0.8936287719862221 0.0233330424927778 Zr
atom_frac 0.4751876540380000 0.8936287719862221 0.0233330424927778 Zr
atom_frac 0.5862987651491111 0.8936287719862221 0.0233330424927778 Zr
atom_frac 0.6974098762602223 0.8936287719862221 0.0233330424927778 Zr
atom_frac 0.8085209873713333 0.8936287719862221 0.0233330424927778 Zr
atom_frac 0.9196320984824444 0.8936287719862221 0.0233330424927778 Zr
atom_frac 0.0307432095935555 0.0047398830973333 0.1344441536038889 Zr
atom_frac 0.1418543207046666 0.0047398830973333 0.1344441536038889 Zr
atom_frac 0.2529654318157777 0.0047398830973333 0.1344441536038889 Zr
atom_frac 0.3640765429268888 0.0047398830973333 0.1344441536038889 Zr
atom_frac 0.4751876540380000 0.0047398830973333 0.1344441536038889 Zr
atom_frac 0.5862987651491111 0.0047398830973333 0.1344441536038889 Zr
atom_frac 0.6974098762602223 0.0047398830973333 0.1344441536038889 Zr
atom_frac 0.8085209873713333 0.0047398830973333 0.1344441536038889 Zr
atom_frac 0.9196320984824444 0.0047398830973333 0.1344441536038889 Zr
atom_frac 0.0307432095935555 0.1158509942084444 0.1344441536038889 Zr
atom_frac 0.1418543207046666 0.1158509942084444 0.1344441536038889 Zr
atom_frac 0.2529654318157777 0.1158509942084444 0.1344441536038889 Zr
atom_frac 0.3640765429268888 0.1158509942084444 0.1344441536038889 Zr
atom_frac 0.4751876540380000 0.1158509942084444 0.1344441536038889 Zr
atom_frac 0.5862987651491111 0.1158509942084444 0.1344441536038889 Zr
atom_frac 0.6974098762602223 0.1158509942084444 0.1344441536038889 Zr
atom_frac 0.8085209873713333 0.1158509942084444 0.1344441536038889 Zr
atom_frac 0.9196320984824444 0.1158509942084444 0.1344441536038889 Zr
atom_frac 0.0307432095935555 0.2269621053195556 0.1344441536038889 Zr
atom_frac 0.1418543207046666 0.2269621053195556 0.1344441536038889 Zr
atom_frac 0.2529654318157777 0.2269621053195556 0.1344441536038889 Zr
atom_frac 0.3640765429268888 0.2269621053195556 0.1344441536038889 Zr
atom_frac 0.4751876540380000 0.2269621053195556 0.1344441536038889 Zr
atom_frac 0.5862987651491111 0.2269621053195556 0.1344441536038889 Zr
atom_frac 0.6974098762602223 0.2269621053195556 0.1344441536038889 Zr
atom_frac 0.8085209873713333 0.2269621053195556 0.1344441536038889 Zr
atom_frac 0.9196320984824444 0.2269621053195556 0.1344441536038889 Zr
atom_frac 0.0307432095935555 0.3380732164306667 0.1344441536038889 Zr
atom_frac 0.1418543207046666 0.3380732164306667 0.1344441536038889 Zr
atom_frac 0.2529654318157777 0.3380732164306667 0.1344441536038889 Zr
atom_frac 0.3640765429268888 0.3380732164306667 0.1344441536038889 Zr
atom_frac 0.4751876540380000 0.3380732164306667 0.1344441536038889 Zr
atom_frac 0.5862987651491111 0.3380732164306667 0.1344441536038889 Zr
atom_frac 0.6974098762602223 0.3380732164306667 0.1344441536038889 Zr
atom_frac 0.8085209873713333 0.3380732164306667 0.1344441536038889 Zr
atom_frac 0.9196320984824444 0.3380732164306667 0.1344441536038889 Zr
atom_frac 0.0307432095935555 0.4491843275417778 0.1344441536038889 Zr
atom_frac 0.1418543207046666 0.4491843275417778 0.1344441536038889 Zr
atom_frac 0.2529654318157777 0.4491843275417778 0.1344441536038889 Zr
atom_frac 0.3640765429268888 0.4491843275417778 0.1344441536038889 Zr
atom_frac 0.4751876540380000 0.4491843275417778 0.1344441536038889 Zr
atom_frac 0.5862987651491111 0.4491843275417778 0.1344441536038889 Zr
atom_frac 0.6974098762602223 0.4491843275417778 0.1344441536038889 Zr
atom_frac 0.8085209873713333 0.4491843275417778 0.1344441536038889 Zr
atom_frac 0.9196320984824444 0.4491843275417778 0.1344441536038889 Zr
atom_frac 0.0307432095935555 0.5602954386528889 0.1344441536038889 Zr
atom_frac 0.1418543207046666 0.5602954386528889 0.1344441536038889 Zr
atom_frac 0.2529654318157777 0.5602954386528889 0.1344441536038889 Zr
atom_frac 0.3640765429268888 0.5602954386528889 0.1344441536038889 Zr
atom_frac 0.4751876540380000 0.5602954386528889 0.1344441536038889 Zr
atom_frac 0.5862987651491111 0.5602954386528889 0.1344441536038889 Zr
atom_frac 0.6974098762602223 0.5602954386528889 0.1344441536038889 Zr
atom_frac 0.8085209873713333 0.5602954386528889 0.1344441536038889 Zr
atom_frac 0.9196320984824444 0.5602954386528889 0.1344441536038889 Zr
atom_frac 0.0307432095935555 0.6714065497639998 0.1344441536038889 Zr
atom_frac 0.1418543207046666 0.6714065497639998 0.1344441536038889 Zr
atom_frac 0.2529654318157777 0.6714065497639998 0.1344441536038889 Zr
atom_frac 0.3640765429268888 0.6714065497639998 0.1344441536038889 Zr
atom_frac 0.4751876540380000 0.6714065497639998 0.1344441536038889 Zr
atom_frac 0.5862987651491111 0.6714065497639998 0.1344441536038889 Zr
atom_frac 0.6974098762602223 0.6714065497639998 0.1344441536038889 Zr
atom_frac 0.8085209873713333 0.6714065497639998 0.1344441536038889 Zr
atom_frac 0.9196320984824444 0.6714065497639998 0.1344441536038889 Zr
atom_frac 0.0307432095935555 0.7825176608751110 0.1344441536038889 Zr
atom_frac 0.1418543207046666 0.7825176608751110 0.1344441536038889 Zr
atom_frac 0.2529654318157777 0.7825176608751110 0.1344441536038889 Zr
atom_frac 0.3640765429268888 0.7825176608751110 0.1344441536038889 Zr
atom_frac 0.4751876540380000 0.7825176608751110 0.1344441536038889 Zr
atom_frac 0.5862987651491111 0.7825176608751110 0.1344441536038889 Zr
atom_frac 0.6974098762602223 0.7825176608751110 0.1344441536038889 Zr
atom_frac 0.8085209873713333 0.7825176608751110 0.1344441536038889 Zr
atom_frac 0.9196320984824444 0.7825176608751110 0.1344441536038889 Zr
atom_frac 0.0307432095935555 0.8936287719862221 0.1344441536038889 Zr
atom_frac 0.1418543207046666 0.8936287719862221 0.1344441536038889 Zr
atom_frac 0.2529654318157777 0.8936287719862221 0.1344441536038889 Zr
atom_frac 0.3640765429268888 0.8936287719862221 0.1344441536038889 Zr
atom_frac 0.4751876540380000 0.8936287719862221 0.1344441536038889 Zr
atom_frac 0.5862987651491111 0.8936287719862221 0.1344441536038889 Zr
atom_frac 0.6974098762602223 0.8936287719862221 0.1344441536038889 Zr
atom_frac 0.8085209873713333 0.8936287719862221 0.1344441536038889 Zr
atom_frac 0.9196320984824444 0.8936287719862221 0.1344441536038889 Zr
atom_frac 0.0307432095935555 0.0047398830973333 0.2455552647150000 Zr
atom_frac 0.1418543207046666 0.0047398830973333 0.2455552647150000 Zr
atom_frac 0.2529654318157777 0.0047398830973333 0.2455552647150000 Zr
atom_frac 0.3640765429268888 0.0047398830973333 0.2455552647150000 Zr
atom_frac 0.4751876540380000 0.0047398830973333 0.2455552647150000 Zr
atom_frac 0.5862987651491111 0.0047398830973333 0.2455552647150000 Zr
atom_frac 0.6974098762602223 0.0047398830973333 0.2455552647150000 Zr
atom_frac 0.8085209873713333 0.0047398830973333 0.2455552647150000 Zr
atom_frac 0.9196320984824444 0.0047398830973333 0.2455552647150000 Zr
atom_frac 0.0307432095935555 0.1158509942084444 0.2455552647150000 Zr
atom_frac 0.1418543207046666 0.1158509942084444 0.2455552647150000 Zr
atom_frac 0.2529654318157777 0.1158509942084444 0.2455552647150000 Zr
atom_frac 0.3640765429268888 0.1158509942084444 0.2455552647150000 Zr
atom_frac 0.4751876540380000 0.1158509942084444 0.2455552647150000 Zr
atom_frac 0.5862987651491111 0.1158509942084444 0.2455552647150000 Zr
atom_frac 0.6974098762602223 0.1158509942084444 0.2455552647150000 Zr
atom_frac 0.8085209873713333 0.1158509942084444 0.2455552647150000 Zr
atom_frac 0.9196320984824444 0.1158509942084444 0.2455552647150000 Zr
atom_frac 0.0307432095935555 0.2269621053195556 0.2455552647150000 Zr
atom_frac 0.1418543207046666 0.2269621053195556 0.2455552647150000 Zr
atom_frac 0.2529654318157777 0.2269621053195556 0.2455552647150000 Zr
atom_frac 0.3640765429268888 0.2269621053195556 0.2455552647150000 Zr
atom_frac 0.4751876540380000 0.2269621053195556 0.2455552647150000 Zr
atom_frac 0.5862987651491111 0.2269621053195556 0.2455552647150000 Zr
atom_frac 0.6974098762602223 0.2269621053195556 0.2455552647150000 Zr
atom_frac 0.8085209873713333 0.2269621053195556 0.2455552647150000 Zr
atom_frac 0.9196320984824444 0.2269621053195556 0.2455552647150000 Zr
atom_frac 0.0307432095935555 0.3380732164306667 0.2455552647150000 Zr
atom_frac 0.1418543207046666 0.3380732164306667 0.2455552647150000 Zr
atom_frac 0.2529654318157777 0.3380732164306667 0.2455552647150000 Zr
atom_frac 0.3640765429268888 0.3380732164306667 0.2455552647150000 Zr
atom_frac 0.4751876540380000 0.3380732164306667 0.2455552647150000 Zr
atom_frac 0.5862987651491111 0.3380732164306667 0.2455552647150000 Zr
atom_frac 0.6974098762602223 0.3380732164306667 0.2455552647150000 Zr
atom_frac 0.8085209873713333 0.3380732164306667 0.2455552647150000 Zr
atom_frac 0.9196320984824444 0.3380732164306667 0.2455552647150000 Zr
atom_frac 0.0307432095935555 0.4491843275417778 0.2455552647150000 Zr
atom_frac 0.1418543207046666 0.4491843275417778 0.2455552647150000 Zr
atom_frac 0.2529654318157777 0.4491843275417778 0.2455552647150000 Zr
atom_frac 0.3640765429268888 0.4491843275417778 0.2455552647150000 Zr
atom_frac 0.4751876540380000 0.4491843275417778 0.2455552647150000 Zr
atom_frac 0.5862987651491111 0.4491843275417778 0.2455552647150000 Zr
atom_frac 0.6974098762602223 0.4491843275417778 0.2455552647150000 Zr
atom_frac 0.8085209873713333 0.4491843275417778 0.2455552647150000 Zr
atom_frac 0.9196320984824444 0.4491843275417778 0.2455552647150000 Zr
atom_frac 0.0307432095935555 0.5602954386528889 0.2455552647150000 Zr
atom_frac 0.1418543207046666 0.5602954386528889 0.2455552647150000 Zr
atom_frac 0.2529654318157777 0.5602954386528889 0.2455552647150000 Zr
atom_frac 0.3640765429268888 0.5602954386528889 0.2455552647150000 Zr
atom_frac 0.4751876540380000 0.5602954386528889 0.2455552647150000 Zr
atom_frac 0.5862987651491111 0.5602954386528889 0.2455552647150000 Zr
atom_frac 0.6974098762602223 0.5602954386528889 0.2455552647150000 Zr
atom_frac 0.8085209873713333 0.5602954386528889 0.2455552647150000 Zr
atom_frac 0.9196320984824444 0.5602954386528889 0.2455552647150000 Zr
atom_frac 0.0307432095935555 0.6714065497639998 0.2455552647150000 Zr
atom_frac 0.1418543207046666 0.6714065497639998 0.2455552647150000 Zr
atom_frac 0.2529654318157777 0.6714065497639998 0.2455552647150000 Zr
atom_frac 0.3640765429268888 0.6714065497639998 0.2455552647150000 Zr
atom_frac 0.4751876540380000 0.6714065497639998 0.2455552647150000 Zr
atom_frac 0.5862987651491111 0.6714065497639998 0.2455552647150000 Zr
atom_frac 0.6974098762602223 0.6714065497639998 0.2455552647150000 Zr
atom_frac 0.8085209873713333 0.6714065497639998 0.2455552647150000 Zr
atom_frac 0.9196320984824444 0.6714065497639998 0.2455552647150000 Zr
atom_frac 0.0307432095935555 0.7825176608751110 0.2455552647150000 Zr
atom_frac 0.1418543207046666 0.7825176608751110 0.2455552647150000 Zr
atom_frac 0.2529654318157777 0.7825176608751110 0.2455552647150000 Zr
atom_frac 0.3640765429268888 0.7825176608751110 0.2455552647150000 Zr
atom_frac 0.4751876540380000 0.7825176608751110 0.2455552647150000 Zr
atom_frac 0.5862987651491111 0.7825176608751110 0.2455552647150000 Zr
atom_frac 0.6974098762602223 0.7825176608751110 0.2455552647150000 Zr
atom_frac 0.8085209873713333 0.7825176608751110 0.2455552647150000 Zr
atom_frac 0.9196320984824444 0.7825176608751110 0.2455552647150000 Zr
atom_frac 0.0307432095935555 0.8936287719862221 0.2455552647150000 Zr
atom_frac 0.1418543207046666 0.8936287719862221 0.2455552647150000 Zr
atom_frac 0.2529654318157777 0.8936287719862221 0.2455552647150000 Zr
atom_frac 0.3640765429268888 0.8936287719862221 0.2455552647150000 Zr
atom_frac 0.4751876540380000 0.8936287719862221 0.2455552647150000 Zr
atom_frac 0.5862987651491111 0.8936287719862221 0.2455552647150000 Zr
atom_frac 0.6974098762602223 0.8936287719862221 0.2455552647150000 Zr
atom_frac 0.8085209873713333 0.8936287719862221 0.2455552647150000 Zr
atom_frac 0.9196320984824444 0.8936287719862221 0.2455552647150000 Zr
atom_frac 0.0307432095935555 0.0047398830973333 0.3566663758261111 Zr
atom_frac 0.1418543207046666 0.0047398830973333 0.3566663758261111 Zr
atom_frac 0.2529654318157777 0.0047398830973333 0.3566663758261111 Zr
atom_frac 0.3640765429268888 0.0047398830973333 0.3566663758261111 Zr
atom_frac 0.4751876540380000 0.0047398830973333 0.3566663758261111 Zr
atom_frac 0.5862987651491111 0.0047398830973333 0.3566663758261111 Zr
atom_frac 0.6974098762602223 0.0047398830973333 0.3566663758261111 Zr
atom_frac 0.8085209873713333 0.0047398830973333 0.3566663758261111 Zr
atom_frac 0.9196320984824444 0.0047398830973333 0.3566663758261111 Zr
atom_frac 0.0307432095935555 0.1158509942084444 0.3566663758261111 Zr
atom_frac 0.1418543207046666 0.1158509942084444 0.3566663758261111 Zr
atom_frac 0.2529654318157777 0.1158509942084444 0.3566663758261111 Zr
atom_frac 0.3640765429268888 0.1158509942084444 0.3566663758261111 Zr
atom_frac 0.4751876540380000 0.1158509942084444 0.3566663758261111 Zr
atom_frac 0.5862987651491111 0.1158509942084444 0.3566663758261111 Zr
atom_frac 0.6974098762602223 0.1158509942084444 0.3566663758261111 Zr
atom_frac 0.8085209873713333 0.1158509942084444 0.3566663758261111 Zr
atom_frac 0.9196320984824444 0.1158509942084444 0.3566663758261111 Zr
atom_frac 0.0307432095935555 0.2269621053195556 0.3566663758261111 Zr
atom_frac 0.1418543207046666 0.2269621053195556 0.3566663758261111 Zr
atom_frac 0.2529654318157777 0.2269621053195556 0.3566663758261111 Zr
atom_frac 0.3640765429268888 0.2269621053195556 0.3566663758261111 Zr
atom_frac 0.4751876540380000 0.2269621053195556 0.3566663758261111 Zr
atom_frac 0.5862987651491111 0.2269621053195556 0.3566663758261111 Zr
atom_frac 0.6974098762602223 0.2269621053195556 0.3566663758261111 Zr
atom_frac 0.8085209873713333 0.2269621053195556 0.3566663758261111 Zr
atom_frac 0.9196320984824444 0.2269621053195556 0.3566663758261111 Zr
atom_frac 0.0307432095935555 0.3380732164306667 0.3566663758261111 Zr
atom_frac 0.1418543207046666 0.3380732164306667 0.3566663758261111 Zr
atom_frac 0.2529654318157777 0.3380732164306667 0.3566663758261111 Zr
atom_frac 0.3640765429268888 0.3380732164306667 0.3566663758261111 Zr
atom_frac 0.4751876540380000 0.3380732164306667 0.3566663758261111 Zr
atom_frac 0.5862987651491111 0.3380732164306667 0.3566663758261111 Zr
atom_frac 0.6974098762602223 0.3380732164306667 0.3566663758261111 Zr
atom_frac 0.8085209873713333 0.3380732164306667 0.3566663758261111 Zr
atom_frac 0.9196320984824444 0.3380732164306667 0.3566663758261111 Zr
atom_frac 0.0307432095935555 0.4491843275417778 0.3566663758261111 Zr
atom_frac 0.1418543207046666 0.4491843275417778 0.3566663758261111 Zr
atom_frac 0.2529654318157777 0.4491843275417778 0.3566663758261111 Zr
atom_frac 0.3640765429268888 0.4491843275417778 0.3566663758261111 Zr
atom_frac 0.4751876540380000 0.4491843275417778 0.3566663758261111 Zr
atom_frac 0.5862987651491111 0.4491843275417778 0.3566663758261111 Zr
atom_frac 0.6974098762602223 0.4491843275417778 0.3566663758261111 Zr
atom_frac 0.8085209873713333 0.4491843275417778 0.3566663758261111 Zr
atom_frac 0.9196320984824444 0.4491843275417778 0.3566663758261111 Zr
atom_frac 0.0307432095935555 0.5602954386528889 0.3566663758261111 Zr
atom_frac 0.1418543207046666 0.5602954386528889 0.3566663758261111 Zr
atom_frac 0.2529654318157777 0.5602954386528889 0.3566663758261111 Zr
atom_frac 0.3640765429268888 0.5602954386528889 0.3566663758261111 Zr
atom_frac 0.4751876540380000 0.5602954386528889 0.3566663758261111 Zr
atom_frac 0.5862987651491111 0.5602954386528889 0.3566663758261111 Zr
atom_frac 0.6974098762602223 0.5602954386528889 0.3566663758261111 Zr
atom_frac 0.8085209873713333 0.5602954386528889 0.3566663758261111 Zr
atom_frac 0.9196320984824444 0.5602954386528889 0.3566663758261111 Zr
atom_frac 0.0307432095935555 0.6714065497639998 0.3566663758261111 Zr
atom_frac 0.1418543207046666 0.6714065497639998 0.3566663758261111 Zr
atom_frac 0.2529654318157777 0.6714065497639998 0.3566663758261111 Zr
atom_frac 0.3640765429268888 0.6714065497639998 0.3566663758261111 Zr
atom_frac 0.4751876540380000 0.6714065497639998 0.3566663758261111 Zr
atom_frac 0.5862987651491111 0.6714065497639998 0.3566663758261111 Zr
atom_frac 0.6974098762602223 0.6714065497639998 0.3566663758261111 Zr
atom_frac 0.8085209873713333 0.6714065497639998 0.3566663758261111 Zr
atom_frac 0.9196320984824444 0.6714065497639998 0.3566663758261111 Zr
atom_frac 0.0307432095935555 0.7825176608751110 0.3566663758261111 Zr
atom_frac 0.1418543207046666 0.7825176608751110 0.3566663758261111 Zr
atom_frac 0.2529654318157777 0.7825176608751110 0.3566663758261111 Zr
atom_frac 0.3640765429268888 0.7825176608751110 0.3566663758261111 Zr
atom_frac 0.4751876540380000 0.7825176608751110 0.3566663758261111 Zr
atom_frac 0.5862987651491111 0.7825176608751110 0.3566663758261111 Zr
atom_frac 0.6974098762602223 0.7825176608751110 0.3566663758261111 Zr
atom_frac 0.8085209873713333 0.7825176608751110 0.3566663758261111 Zr
atom_frac 0.9196320984824444 0.7825176608751110 0.3566663758261111 Zr
atom_frac 0.0307432095935555 0.8936287719862221 0.3566663758261111 Zr
atom_frac 0.1418543207046666 0.8936287719862221 0.3566663758261111 Zr
atom_frac 0.2529654318157777 0.8936287719862221 0.3566663758261111 Zr
atom_frac 0.3640765429268888 0.8936287719862221 0.3566663758261111 Zr
atom_frac 0.4751876540380000 0.8936287719862221 0.3566663758261111 Zr
atom_frac 0.5862987651491111 0.8936287719862221 0.3566663758261111 Zr
atom_frac 0.6974098762602223 0.8936287719862221 0.3566663758261111 Zr
atom_frac 0.8085209873713333 0.8936287719862221 0.3566663758261111 Zr
atom_frac 0.9196320984824444 0.8936287719862221 0.3566663758261111 Zr
atom_frac 0.0307432095935556 0.0047398830973333 0.4677774869372222 Zr
atom_frac 0.1418543207046666 0.0047398830973333 0.4677774869372222 Zr
atom_frac 0.2529654318157777 0.0047398830973333 0.4677774869372222 Zr
atom_frac 0.3640765429268888 0.0047398830973333 0.4677774869372222 Zr
atom_frac 0.4751876540380000 0.0047398830973333 0.4677774869372222 Zr
atom_frac 0.5862987651491111 0.0047398830973333 0.4677774869372222 Zr
atom_frac 0.6974098762602223 0.0047398830973333 0.4677774869372222 Zr
atom_frac 0.8085209873713333 0.0047398830973333 0.4677774869372222 Zr
atom_frac 0.9196320984824444 0.0047398830973333 0.4677774869372222 Zr
atom_frac 0.0307432095935556 0.1158509942084444 0.4677774869372222 Zr
atom_frac 0.1418543207046666 0.1158509942084444 0.4677774869372222 Zr
atom_frac 0.2529654318157777 0.1158509942084444 0.4677774869372222 Zr
atom_frac 0.3640765429268888 0.1158509942084444 0.4677774869372222 Zr
atom_frac 0.4751876540380000 0.1158509942084444 0.4677774869372222 Zr
atom_frac 0.5862987651491111 0.1158509942084444 0.4677774869372222 Zr
atom_frac 0.6974098762602223 0.1158509942084444 0.4677774869372222 Zr
atom_frac 0.8085209873713333 0.1158509942084444 0.4677774869372222 Zr
atom_frac 0.9196320984824444 0.1158509942084444 0.4677774869372222 Zr
atom_frac 0.0307432095935556 0.2269621053195556 0.4677774869372222 Zr
atom_frac 0.1418543207046666 0.2269621053195556 0.4677774869372222 Zr
atom_frac 0.2529654318157777 0.2269621053195556 0.4677774869372222 Zr
atom_frac 0.3640765429268888 0.2269621053195556 0.4677774869372222 Zr
atom_frac 0.4751876540380000 0.2269621053195556 0.4677774869372222 Zr
atom_frac 0.5862987651491111 0.2269621053195556 0.4677774869372222 Zr
atom_frac 0.6974098762602223 0.2269621053195556 0.4677774869372222 Zr
atom_frac 0.8085209873713333 0.2269621053195556 0.4677774869372222 Zr
atom_frac 0.9196320984824444 0.2269621053195556 0.4677774869372222 Zr
atom_frac 0.0307432095935556 0.3380732164306667 0.4677774869372222 Zr
atom_frac 0.1418543207046666 0.3380732164306667 0.4677774869372222 Zr
atom_frac 0.2529654318157777 0.3380732164306667 0.4677774869372222 Zr
atom_frac 0.3640765429268888 0.3380732164306667 0.4677774869372222 Zr
atom_frac 0.4751876540380000 0.3380732164306667 0.4677774869372222 Zr
atom_frac 0.5862987651491111 0.3380732164306667 0.4677774869372222 Zr
atom_frac 0.6974098762602223 0.3380732164306667 0.4677774869372222 Zr
atom_frac 0.8085209873713333 0.3380732164306667 0.4677774869372222 Zr
atom_frac 0.9196320984824444 0.3380732164306667 0.4677774869372222 Zr
atom_frac 0.0307432095935556 0.4491843275417778 0.4677774869372222 Zr
atom_frac 0.1418543207046666 0.4491843275417778 0.4677774869372222 Zr
atom_frac 0.2529654318157777 0.4491843275417778 0.4677774869372222 Zr
atom_frac 0.3640765429268888 0.4491843275417778 0.4677774869372222 Zr
atom_frac 0.4751876540380000 0.4491843275417778 0.4677774869372222 Zr
atom_frac 0.5862987651491111 0.4491843275417778 0.4677774869372222 Zr
atom_frac 0.6974098762602223 0.4491843275417778 0.4677774869372222 Zr
atom_frac 0.8085209873713333 0.4491843275417778 0.4677774869372222 Zr
atom_frac 0.9196320984824444 0.4491843275417778 0.4677774869372222 Zr
atom_frac 0.0307432095935556 0.5602954386528889 0.4677774869372222 Zr
atom_frac 0.1418543207046666 0.5602954386528889 0.4677774869372222 Zr
atom_frac 0.2529654318157777 0.5602954386528889 0.4677774869372222 Zr
atom_frac 0.3640765429268888 0.5602954386528889 0.4677774869372222 Zr
atom_frac 0.4751876540380000 0.5602954386528889 0.4677774869372222 Zr
atom_frac 0.5862987651491111 0.5602954386528889 0.4677774869372222 Zr
atom_frac 0.6974098762602223 0.5602954386528889 0.4677774869372222 Zr
atom_frac 0.8085209873713333 0.5602954386528889 0.4677774869372222 Zr
atom_frac 0.9196320984824444 0.5602954386528889 0.4677774869372222 Zr
atom_frac 0.0307432095935556 0.6714065497639998 0.4677774869372222 Zr
atom_frac 0.1418543207046666 0.6714065497639998 0.4677774869372222 Zr
atom_frac 0.2529654318157777 0.6714065497639998 0.4677774869372222 Zr
atom_frac 0.3640765429268888 0.6714065497639998 0.4677774869372222 Zr
atom_frac 0.4751876540380000 0.6714065497639998 0.4677774869372222 Zr
atom_frac 0.5862987651491111 0.6714065497639998 0.4677774869372222 Zr
atom_frac 0.6974098762602223 0.6714065497639998 0.4677774869372222 Zr
atom_frac 0.8085209873713333 0.6714065497639998 0.4677774869372222 Zr
atom_frac 0.9196320984824444 0.6714065497639998 0.4677774869372222 Zr
atom_frac 0.0307432095935556 0.7825176608751110 0.4677774869372222 Zr
atom_frac 0.1418543207046666 0.7825176608751110 0.4677774869372222 Zr
atom_frac 0.2529654318157777 0.7825176608751110 0.4677774869372222 Zr
atom_frac 0.3640765429268888 0.7825176608751110 0.4677774869372222 Zr
atom_frac 0.4751876540380000 0.7825176608751110 0.4677774869372222 Zr
atom_frac 0.5862987651491111 0.7825176608751110 0.4677774869372222 Zr
atom_frac 0.6974098762602223 0.7825176608751110 0.4677774869372222 Zr
atom_frac 0.8085209873713333 0.7825176608751110 0.4677774869372222 Zr
atom_frac 0.9196320984824444 0.7825176608751110 0.4677774869372222 Zr
atom_frac 0.0307432095935556 0.8936287719862221 0.4677774869372222 Zr
atom_frac 0.1418543207046666 0.8936287719862221 0.4677774869372222 Zr
atom_frac 0.2529654318157777 0.8936287719862221 0.4677774869372222 Zr
atom_frac 0.3640765429268888 0.8936287719862221 0.4677774869372222 Zr
atom_frac 0.4751876540380000 0.8936287719862221 0.4677774869372222 Zr
atom_frac 0.5862987651491111 0.8936287719862221 0.4677774869372222 Zr
atom_frac 0.6974098762602223 0.8936287719862221 0.4677774869372222 Zr
atom_frac 0.8085209873713333 0.8936287719862221 0.4677774869372222 Zr
atom_frac 0.9196320984824444 0.8936287719862221 0.4677774869372222 Zr
atom_frac 0.0307432095935556 0.0047398830973333 0.5788885980483333 Zr
atom_frac 0.1418543207046666 0.0047398830973333 0.5788885980483333 Zr
atom_frac 0.2529654318157777 0.0047398830973333 0.5788885980483333 Zr
atom_frac 0.3640765429268888 0.0047398830973333 0.5788885980483333 Zr
atom_frac 0.4751876540380000 0.0047398830973333 0.5788885980483333 Zr
atom_frac 0.5862987651491111 0.0047398830973333 0.5788885980483333 Zr
atom_frac 0.6974098762602223 0.0047398830973333 0.5788885980483333 Zr
atom_frac 0.8085209873713333 0.0047398830973333 0.5788885980483333 Zr
atom_frac 0.9196320984824444 0.0047398830973333 0.5788885980483333 Zr
atom_frac 0.0307432095935556 0.1158509942084444 0.5788885980483333 Zr
atom_frac 0.1418543207046666 0.1158509942084444 0.5788885980483333 Zr
atom_frac 0.2529654318157777 0.1158509942084444 0.5788885980483333 Zr
atom_frac 0.3640765429268888 0.1158509942084444 0.5788885980483333 Zr