#=======================================================
# FHI-aims file: 1400_geometry.in.primitive.supercell_8748.0010K
# Created using the Atomic Simulation Environment (ASE)
# Wed Aug 24 14:05:57 2022

# Additional information:
#  created from MB distrubtion
#  T = 10.0 K
#  quantum:             False
#  deterministic:       False
#  plus_minus:          False
#  gauge_eigenvectors:  False
#  Random seed:         243839990
#  Sample number:       1
#=======================================================
lattice_vector 46.7639999999999958 0.0000000000000000 0.0000000000000000 
lattice_vector 0.0000000000000000 46.9710000000000036 0.0000000000000000 
lattice_vector -7.3240636167743487 0.0000000000000000 47.9357085703073977 
atom 1.2667827658430257 0.2226370489648424 1.1184859249923955 Zr
    velocity -0.1457301385698761 0.6593486045196756 0.0193838966412333
atom 6.4627827658430252 0.2226370489648424 1.1184859249923955 Zr
    velocity -0.3372774908687687 -0.3474619893002489 -0.4163093674128976
atom 11.6587827658430232 0.2226370489648424 1.1184859249923955 Zr
    velocity -0.1568141881222402 -0.3293370697940092 -0.3567622965056544
atom 16.8547827658430194 0.2226370489648424 1.1184859249923955 Zr
    velocity 0.3568376023937615 0.8112980457633941 -0.4985723243990610
atom 22.0507827658430244 0.2226370489648424 1.1184859249923955 Zr
    velocity -0.0086153472811344 0.1197892972638841 -0.0537317400633906
atom 27.2467827658430224 0.2226370489648424 1.1184859249923955 Zr
    velocity -0.3042175659822423 0.3232716484351137 -0.2026039368932798
atom 32.4427827658430274 0.2226370489648424 1.1184859249923955 Zr
    velocity 0.0579406014625489 -0.0024515680381534 -0.1786507235219206
atom 37.6387827658430183 0.2226370489648424 1.1184859249923955 Zr
    velocity 0.0869875979903019 0.2724874168002884 0.0396326774728130
atom 42.8347827658430234 0.2226370489648424 1.1184859249923955 Zr
    velocity 0.5172353311794350 -0.1016010662674728 -0.4515942523497106
atom 1.2667827658430257 5.4416370489648420 1.1184859249923955 Zr
    velocity -0.4284147503111414 -0.3381803104880824 -0.1392272958025473
atom 6.4627827658430252 5.4416370489648420 1.1184859249923955 Zr
    velocity 0.2022002964285682 0.0079228176229126 0.7271136337184079
atom 11.6587827658430232 5.4416370489648420 1.1184859249923955 Zr
    velocity -0.1180408094691617 -0.0215171383625289 -0.7137435862348871
atom 16.8547827658430194 5.4416370489648420 1.1184859249923955 Zr
    velocity -0.1575446497273177 0.0288994519747090 0.0274573927911724
atom 22.0507827658430244 5.4416370489648420 1.1184859249923955 Zr
    velocity -0.4329700808119367 -0.4277674284690626 -0.2168107324264859
atom 27.2467827658430224 5.4416370489648420 1.1184859249923955 Zr
    velocity 0.0658412747969720 -0.5043927705262680 0.2321136535629060
atom 32.4427827658430274 5.4416370489648420 1.1184859249923955 Zr
    velocity -0.2221482864150747 -0.0679665181570187 0.3779387367729746
atom 37.6387827658430183 5.4416370489648420 1.1184859249923955 Zr
    velocity 0.0668170546958129 0.1471639549823723 -0.5502916995662681
atom 42.8347827658430234 5.4416370489648420 1.1184859249923955 Zr
    velocity -0.5431070024285241 0.0429757012108221 0.3968650559873169
atom 1.2667827658430257 10.6606370489648477 1.1184859249923955 Zr
    velocity -0.5504674064166568 0.2248554665837226 0.8034780685075028
atom 6.4627827658430252 10.6606370489648477 1.1184859249923955 Zr
    velocity 0.3493113287543526 -0.0524664040080722 -0.0600306457845507
atom 11.6587827658430232 10.6606370489648477 1.1184859249923955 Zr
    velocity -0.5034309941784763 0.4394353139495495 -0.2301361461083342
atom 16.8547827658430194 10.6606370489648477 1.1184859249923955 Zr
    velocity 0.3727067269725513 0.0746136729423721 -0.0316897851920317
atom 22.0507827658430244 10.6606370489648477 1.1184859249923955 Zr
    velocity 0.0265174111413760 0.0461405457552393 -0.0532260576530700
atom 27.2467827658430224 10.6606370489648477 1.1184859249923955 Zr
    velocity 0.1530635259539435 -0.3385478264331474 -0.0524270069608069
atom 32.4427827658430274 10.6606370489648477 1.1184859249923955 Zr
    velocity 0.3574028512593940 -0.0344676956034828 0.0847224317848554
atom 37.6387827658430183 10.6606370489648477 1.1184859249923955 Zr
    velocity -0.5543609653980983 -0.9739561599989229 -0.1118757677588750
atom 42.8347827658430234 10.6606370489648477 1.1184859249923955 Zr
    velocity 0.2711223541701966 0.6308778660383203 -0.0451815336126015
atom 1.2667827658430257 15.8796370489648453 1.1184859249923955 Zr
    velocity -0.0968422417603451 0.2871998851655913 0.1065861949442222
atom 6.4627827658430252 15.8796370489648453 1.1184859249923955 Zr
    velocity -0.3958688650536958 -0.1668997596363305 -0.1761373488593473
atom 11.6587827658430232 15.8796370489648453 1.1184859249923955 Zr
    velocity -0.0693195811308155 0.1344414312523082 0.2226347950210067
atom 16.8547827658430194 15.8796370489648453 1.1184859249923955 Zr
    velocity 0.2510782460094361 0.4900572946425358 0.1230624495974176
atom 22.0507827658430244 15.8796370489648453 1.1184859249923955 Zr
    velocity -0.2859931691615357 -0.1410033113791591 0.3597254200785714
atom 27.2467827658430224 15.8796370489648453 1.1184859249923955 Zr
    velocity -0.1888866124926357 0.0865684762300701 0.2509262400891019
atom 32.4427827658430274 15.8796370489648453 1.1184859249923955 Zr
    velocity -0.0814939838513378 0.0134668796775501 0.0173012020220156
atom 37.6387827658430183 15.8796370489648453 1.1184859249923955 Zr
    velocity -0.1357447233083092 -0.0823517057214664 -0.1976014672602248
atom 42.8347827658430234 15.8796370489648453 1.1184859249923955 Zr
    velocity -0.3442989468836550 -0.2682402486268067 0.3530811836453209
atom 1.2667827658430257 21.0986370489648465 1.1184859249923955 Zr
    velocity 0.1673283076412369 -0.0883043788923447 0.0083534630400196
atom 6.4627827658430252 21.0986370489648465 1.1184859249923955 Zr
    velocity -0.2616469823940727 -0.4301828248199694 0.1036699295212501
atom 11.6587827658430232 21.0986370489648465 1.1184859249923955 Zr
    velocity 0.2385014028089826 0.1900420275756606 0.1720629497187655
atom 16.8547827658430194 21.0986370489648465 1.1184859249923955 Zr
    velocity -0.3051691361311076 0.3414123436734292 -0.1162996226441722
atom 22.0507827658430244 21.0986370489648465 1.1184859249923955 Zr
    velocity -0.0614937003481596 0.2457147783645233 0.2029354720852856
atom 27.2467827658430224 21.0986370489648465 1.1184859249923955 Zr
    velocity -0.4966842636549607 -0.0678564980299723 -0.2960466965578050
atom 32.4427827658430274 21.0986370489648465 1.1184859249923955 Zr
    velocity 0.0161781879678774 -0.0723115274463634 0.1250648047572345
atom 37.6387827658430183 21.0986370489648465 1.1184859249923955 Zr
    velocity -0.2635045848009432 0.2028308313867927 0.0563077178458834
atom 42.8347827658430234 21.0986370489648465 1.1184859249923955 Zr
    velocity 0.3224061157596413 -0.3138813198420888 -0.2943561156537385
atom 1.2667827658430257 26.3176370489648477 1.1184859249923955 Zr
    velocity 0.0174180123953047 -0.1596372401629931 0.3585824569091766
atom 6.4627827658430252 26.3176370489648477 1.1184859249923955 Zr
    velocity -0.4027901045021990 0.6048121491630576 -0.0160170337847842
atom 11.6587827658430232 26.3176370489648477 1.1184859249923955 Zr
    velocity -0.0631707071706043 0.2796254058543958 -0.2952646878120355
atom 16.8547827658430194 26.3176370489648477 1.1184859249923955 Zr
    velocity 0.1706230683413819 0.1671525952594488 0.1670145846993121
atom 22.0507827658430244 26.3176370489648477 1.1184859249923955 Zr
    velocity -0.2355160641496487 -0.0194554662455735 0.4117614010963703
atom 27.2467827658430224 26.3176370489648477 1.1184859249923955 Zr
    velocity -0.0398831382109938 -0.1593187591557831 -0.5326697634172022
atom 32.4427827658430274 26.3176370489648477 1.1184859249923955 Zr
    velocity 0.1645897349339867 0.0953155008372265 0.2087388521170241
atom 37.6387827658430183 26.3176370489648477 1.1184859249923955 Zr
    velocity -0.1421506455387729 -0.2633859875182469 -0.0266383619791053
atom 42.8347827658430234 26.3176370489648477 1.1184859249923955 Zr
    velocity -0.4422507021884766 -0.0309005362833871 0.3437355173295384
atom 1.2667827658430257 31.5366370489648382 1.1184859249923955 Zr
    velocity 0.0228606962158290 -0.0510117663480890 0.1437583168193529
atom 6.4627827658430252 31.5366370489648382 1.1184859249923955 Zr
    velocity 0.1710788089597442 -0.4891812403292357 -0.1981594461021038
atom 11.6587827658430232 31.5366370489648382 1.1184859249923955 Zr
    velocity 0.0991391651198486 -0.1477565532208856 0.2545551818729979
atom 16.8547827658430194 31.5366370489648382 1.1184859249923955 Zr
    velocity -0.5195558765335679 0.5203764437243793 0.2768550000431698
atom 22.0507827658430244 31.5366370489648382 1.1184859249923955 Zr
    velocity -0.4160643373929793 0.1692327067541379 0.1194546064567536
atom 27.2467827658430224 31.5366370489648382 1.1184859249923955 Zr
    velocity -0.0023398485133204 -0.3273141778295129 -0.0057514075324557
atom 32.4427827658430274 31.5366370489648382 1.1184859249923955 Zr
    velocity 0.0348653321646560 0.2041541162901902 0.1729271169054633
atom 37.6387827658430183 31.5366370489648382 1.1184859249923955 Zr
    velocity -0.1828906660827784 -0.3558556556786622 0.2331914759188954
atom 42.8347827658430234 31.5366370489648382 1.1184859249923955 Zr
    velocity -0.4243402069198603 0.0448031498588417 0.2018501959949336
atom 1.2667827658430257 36.7556370489648430 1.1184859249923955 Zr
    velocity 0.2601052410449797 -0.3708107093930433 -0.0215553161125595
atom 6.4627827658430252 36.7556370489648430 1.1184859249923955 Zr
    velocity 0.1696774291055382 -0.8248575801806403 -0.1799397145366539
atom 11.6587827658430232 36.7556370489648430 1.1184859249923955 Zr
    velocity 0.0672011025547646 0.2984938750841837 -0.0151836715826420
atom 16.8547827658430194 36.7556370489648430 1.1184859249923955 Zr
    velocity 0.1901310631629724 0.3379889414945995 0.2582421875864868
atom 22.0507827658430244 36.7556370489648430 1.1184859249923955 Zr
    velocity 0.0501288617761017 0.1673070812390377 0.1943070063922780
atom 27.2467827658430224 36.7556370489648430 1.1184859249923955 Zr
    velocity -0.3211129473623170 0.3208713906657427 0.1163208970696048
atom 32.4427827658430274 36.7556370489648430 1.1184859249923955 Zr
    velocity 0.1810056568009002 0.1019571398839771 -0.0708213290136319
atom 37.6387827658430183 36.7556370489648430 1.1184859249923955 Zr
    velocity -0.3123818876992656 -0.2675135388378824 0.1113036253237599
atom 42.8347827658430234 36.7556370489648430 1.1184859249923955 Zr
    velocity -0.0845754172627566 -0.1601027681639298 -0.1378658776350987
atom 1.2667827658430257 41.9746370489648442 1.1184859249923955 Zr
    velocity 0.0804057723279811 0.0399991945854802 -0.3210414951316274
atom 6.4627827658430252 41.9746370489648442 1.1184859249923955 Zr
    velocity -0.0385191649636073 0.1379720992345729 -0.1086042378513790
atom 11.6587827658430232 41.9746370489648442 1.1184859249923955 Zr
    velocity 0.1730763611237763 -0.2920945208925895 0.2051263766082155
atom 16.8547827658430194 41.9746370489648442 1.1184859249923955 Zr
    velocity 0.1147452628737107 0.2629277068355604 -0.0144823692721873
atom 22.0507827658430244 41.9746370489648442 1.1184859249923955 Zr
    velocity 0.3420123939911441 0.2168232028391093 0.0810616437414945
atom 27.2467827658430224 41.9746370489648442 1.1184859249923955 Zr
    velocity -0.5810038850671617 0.2204153949762460 0.1074925030811017
atom 32.4427827658430274 41.9746370489648442 1.1184859249923955 Zr
    velocity -0.4546663294415572 0.1241899703092215 0.0075439747512079
atom 37.6387827658430183 41.9746370489648442 1.1184859249923955 Zr
    velocity -0.1892794167447606 -0.1026617264731501 0.0211620531224553
atom 42.8347827658430234 41.9746370489648442 1.1184859249923955 Zr
    velocity -0.2876188594693639 0.8455699584931192 -0.2439440460681167
atom 0.4529979195347648 0.2226370489648424 6.4446757661376610 Zr
    velocity -0.0826482082444058 0.1037196052498306 0.1116030121120723
atom 5.6489979195347644 0.2226370489648424 6.4446757661376610 Zr
    velocity -0.0039934992571440 -0.1582612501878853 0.2618312093705422
atom 10.8449979195347623 0.2226370489648424 6.4446757661376610 Zr
    velocity 0.1823991470109841 -0.2136447071317266 -0.1451767176202217
atom 16.0409979195347603 0.2226370489648424 6.4446757661376610 Zr
    velocity 0.3126996266580326 0.1603519670131885 -0.2472699310618034
atom 21.2369979195347653 0.2226370489648424 6.4446757661376610 Zr
    velocity 0.1753159232178338 0.2463667388716646 -0.0791364440011766
atom 26.4329979195347633 0.2226370489648424 6.4446757661376610 Zr
    velocity 0.3771215722107708 -0.2355102206777433 0.2885977149520068
atom 31.6289979195347684 0.2226370489648424 6.4446757661376610 Zr
    velocity -0.0676553033963655 0.0139184927631573 0.4860726143772604
atom 36.8249979195347592 0.2226370489648424 6.4446757661376610 Zr
    velocity 0.0404022736813240 0.4287450945793361 0.2419852062134888
atom 42.0209979195347643 0.2226370489648424 6.4446757661376610 Zr
    velocity 0.2180385827586106 0.3592440097755217 -0.2286712040051307
atom 0.4529979195347648 5.4416370489648420 6.4446757661376610 Zr
    velocity -0.0744520722210352 0.0085327093652211 0.2158344060940333
atom 5.6489979195347644 5.4416370489648420 6.4446757661376610 Zr
    velocity 0.0968514879552908 -0.1469264715897714 -0.0029256692619777
atom 10.8449979195347623 5.4416370489648420 6.4446757661376610 Zr
    velocity 0.4759602906575570 0.5953792015920063 -0.4009436950877526
atom 16.0409979195347603 5.4416370489648420 6.4446757661376610 Zr
    velocity 0.1445817763242221 0.1906495479319976 -0.4051882501614265
atom 21.2369979195347653 5.4416370489648420 6.4446757661376610 Zr
    velocity 0.0895681596387543 0.6916753884087083 0.1181693995143136
atom 26.4329979195347633 5.4416370489648420 6.4446757661376610 Zr
    velocity 0.0726243054071196 -0.2795960533811981 0.2922946008112430
atom 31.6289979195347684 5.4416370489648420 6.4446757661376610 Zr
    velocity -0.2330801996094177 -0.1059892202267424 -0.0745002054047640
atom 36.8249979195347592 5.4416370489648420 6.4446757661376610 Zr
    velocity -0.1148127292181732 0.2921899271683813 0.3438136888522677
atom 42.0209979195347643 5.4416370489648420 6.4446757661376610 Zr
    velocity -0.3511861473072301 0.2389991847116289 0.2376611169643484
atom 0.4529979195347648 10.6606370489648477 6.4446757661376610 Zr
    velocity 0.0767735414544215 -0.2207996441557627 -0.1595954407633292
atom 5.6489979195347644 10.6606370489648477 6.4446757661376610 Zr
    velocity -0.2236848507279390 0.1137628336024316 -0.1997871331106502
atom 10.8449979195347623 10.6606370489648477 6.4446757661376610 Zr
    velocity -0.5710518201372552 -0.0369532506179658 0.1256375660691325
atom 16.0409979195347603 10.6606370489648477 6.4446757661376610 Zr
    velocity -0.6279709210505016 -0.0082538501572479 0.4278871044684771
atom 21.2369979195347653 10.6606370489648477 6.4446757661376610 Zr
    velocity 0.0382907592632849 -0.5480180262772090 0.0625635241962784
atom 26.4329979195347633 10.6606370489648477 6.4446757661376610 Zr
    velocity -0.1844887577288416 0.1079484229224267 0.2437382285261769
atom 31.6289979195347684 10.6606370489648477 6.4446757661376610 Zr
    velocity 0.0310578363029133 0.0857842438075548 -0.1794439333069867
atom 36.8249979195347592 10.6606370489648477 6.4446757661376610 Zr
    velocity -0.1173686951739071 0.2052533369783428 -0.5389747765737395
atom 42.0209979195347643 10.6606370489648477 6.4446757661376610 Zr
    velocity 0.1311686167117421 0.4702226576006929 -0.1612896826615104
atom 0.4529979195347648 15.8796370489648453 6.4446757661376610 Zr
    velocity 0.3554732303987205 0.1015604253598129 0.0164306797491755
atom 5.6489979195347644 15.8796370489648453 6.4446757661376610 Zr
    velocity -0.0910162285471185 -0.2142973912613548 0.1566411028548670
atom 10.8449979195347623 15.8796370489648453 6.4446757661376610 Zr
    velocity -0.0694844421468003 -0.3008597971918024 0.0954587574183740
atom 16.0409979195347603 15.8796370489648453 6.4446757661376610 Zr
    velocity 0.5844526945956009 -0.2905083449840872 0.0509943775908793
atom 21.2369979195347653 15.8796370489648453 6.4446757661376610 Zr
    velocity -0.3256345983541422 -0.1572661774100326 -0.2625099744385342
atom 26.4329979195347633 15.8796370489648453 6.4446757661376610 Zr
    velocity 0.6068653633017296 -0.6253506681407074 0.4688683680101140
atom 31.6289979195347684 15.8796370489648453 6.4446757661376610 Zr
    velocity 0.4360531727016700 -0.0967895575771748 -0.2064182422152518
atom 36.8249979195347592 15.8796370489648453 6.4446757661376610 Zr
    velocity 0.1117483879370981 0.3213956475309320 0.0663114938899286
atom 42.0209979195347643 15.8796370489648453 6.4446757661376610 Zr
    velocity 0.3765441234872805 -0.0113008432193875 -0.2104592769436196
atom 0.4529979195347648 21.0986370489648465 6.4446757661376610 Zr
    velocity 0.1713710922940398 0.0978158144327260 0.1506216927724684
atom 5.6489979195347644 21.0986370489648465 6.4446757661376610 Zr
    velocity 0.1209876147455800 0.4114771265552960 0.2591618788877733
atom 10.8449979195347623 21.0986370489648465 6.4446757661376610 Zr
    velocity 0.3022768325365652 -0.1611597058800558 0.1182100282487259
atom 16.0409979195347603 21.0986370489648465 6.4446757661376610 Zr
    velocity 0.5011768647423247 -0.2273690770360288 -0.0324267651382817
atom 21.2369979195347653 21.0986370489648465 6.4446757661376610 Zr
    velocity 0.3820737161347457 -0.1407914629756649 0.0948764990193111
atom 26.4329979195347633 21.0986370489648465 6.4446757661376610 Zr
    velocity 0.2014708660787480 -0.5147902446387057 0.4807931616826590
atom 31.6289979195347684 21.0986370489648465 6.4446757661376610 Zr
    velocity -0.0627039635494207 -0.1784097164953841 -0.3620076699079234
atom 36.8249979195347592 21.0986370489648465 6.4446757661376610 Zr
    velocity 0.2907255360503502 -0.4665221307906466 0.5579572750445032
atom 42.0209979195347643 21.0986370489648465 6.4446757661376610 Zr
    velocity 0.5634766987460610 -0.0912805180880531 -0.3595501749988402
atom 0.4529979195347648 26.3176370489648477 6.4446757661376610 Zr
    velocity 0.0263306542721112 0.6759186394560786 -0.0406603071748596
atom 5.6489979195347644 26.3176370489648477 6.4446757661376610 Zr
    velocity -0.1473475936986813 -0.1909422004755950 -0.3667914905663939
atom 10.8449979195347623 26.3176370489648477 6.4446757661376610 Zr
    velocity -0.1655577682019418 0.0095062152177887 -0.2851395992118759
atom 16.0409979195347603 26.3176370489648477 6.4446757661376610 Zr
    velocity -0.1652306375689461 0.3623013314516654 0.0228171640046344
atom 21.2369979195347653 26.3176370489648477 6.4446757661376610 Zr
    velocity -0.0171132197165101 -0.3410274607731641 -0.0580293840959389
atom 26.4329979195347633 26.3176370489648477 6.4446757661376610 Zr
    velocity 0.4727557278860900 -0.1038973151258757 0.0297728099929452
atom 31.6289979195347684 26.3176370489648477 6.4446757661376610 Zr
    velocity -0.1528619186684072 -0.5896969057029117 -0.1984430637452279
atom 36.8249979195347592 26.3176370489648477 6.4446757661376610 Zr
    velocity 0.0927986676706036 -0.4017459919396076 -0.5895311582251628
atom 42.0209979195347643 26.3176370489648477 6.4446757661376610 Zr
    velocity 0.3858153769367891 -0.2122873070576815 0.0404668738833064
atom 0.4529979195347648 31.5366370489648382 6.4446757661376610 Zr
    velocity -0.1375250359139340 -0.4835483114491631 -0.0850483300070079
atom 5.6489979195347644 31.5366370489648382 6.4446757661376610 Zr
    velocity 0.3307673028309291 0.1616067971399076 0.2572515699325411
atom 10.8449979195347623 31.5366370489648382 6.4446757661376610 Zr
    velocity 0.6360558581236820 -0.3555253584378810 -0.2960266852795040
atom 16.0409979195347603 31.5366370489648382 6.4446757661376610 Zr
    velocity -0.0294823279674735 -0.1978744036636537 0.0050349008931524
atom 21.2369979195347653 31.5366370489648382 6.4446757661376610 Zr
    velocity 0.0891362671937923 -0.3026121896621713 0.2764875732985206
atom 26.4329979195347633 31.5366370489648382 6.4446757661376610 Zr
    velocity 0.2575910143534233 0.1166470147632654 0.0445753460665598
atom 31.6289979195347684 31.5366370489648382 6.4446757661376610 Zr
    velocity 0.4810224968125155 0.1326296401399982 0.1946797859625602
atom 36.8249979195347592 31.5366370489648382 6.4446757661376610 Zr
    velocity 0.0816052187172051 0.0410625827602309 -0.0981123382438974
atom 42.0209979195347643 31.5366370489648382 6.4446757661376610 Zr
    velocity -0.4822605680677951 -0.3108834683486029 -0.1949338693430618
atom 0.4529979195347648 36.7556370489648430 6.4446757661376610 Zr
    velocity -0.3246283420175658 -0.1166649099303640 -0.1740592843839237
atom 5.6489979195347644 36.7556370489648430 6.4446757661376610 Zr
    velocity -0.2373002004336456 0.1162588528899187 -0.4965859978549912
atom 10.8449979195347623 36.7556370489648430 6.4446757661376610 Zr
    velocity -0.5254047147830389 0.6204979190636046 0.0724924502060813
atom 16.0409979195347603 36.7556370489648430 6.4446757661376610 Zr
    velocity -0.0357142505136858 -0.2663726486712948 0.0837590256100750
atom 21.2369979195347653 36.7556370489648430 6.4446757661376610 Zr
    velocity 0.1368955450025276 0.2068988429806097 0.0213116048781169
atom 26.4329979195347633 36.7556370489648430 6.4446757661376610 Zr
    velocity -0.0650374346947162 -0.0389745302059184 0.0448684269087841
atom 31.6289979195347684 36.7556370489648430 6.4446757661376610 Zr
    velocity -0.0338843837027323 0.0996550788802171 0.5935846604717292
atom 36.8249979195347592 36.7556370489648430 6.4446757661376610 Zr
    velocity -0.0620417525669633 -0.0740057635303837 -0.4909910046422356
atom 42.0209979195347643 36.7556370489648430 6.4446757661376610 Zr
    velocity 0.0331742269581223 -0.6392152813412424 0.1048739888310282
atom 0.4529979195347648 41.9746370489648442 6.4446757661376610 Zr
    velocity 0.1594728568374031 0.1464707596857013 -0.0566829978129213
atom 5.6489979195347644 41.9746370489648442 6.4446757661376610 Zr
    velocity 0.5477967241582696 -0.1376068058101085 0.2483841517026902
atom 10.8449979195347623 41.9746370489648442 6.4446757661376610 Zr
    velocity -0.3284902703711067 0.2920381769643425 0.2325727619335393
atom 16.0409979195347603 41.9746370489648442 6.4446757661376610 Zr
    velocity 0.4410856664976558 0.2179097271375768 0.1672371650973481
atom 21.2369979195347653 41.9746370489648442 6.4446757661376610 Zr
    velocity 0.0105574853309873 -0.4322617407440776 0.2927997890305835
atom 26.4329979195347633 41.9746370489648442 6.4446757661376610 Zr
    velocity -0.1698163400352928 0.1892432869748194 -0.3391746154735850
atom 31.6289979195347684 41.9746370489648442 6.4446757661376610 Zr
    velocity -0.4986889911842560 -0.2644272902618028 -0.0500439922280089
atom 36.8249979195347592 41.9746370489648442 6.4446757661376610 Zr
    velocity 0.1453193742316987 0.2409833957451828 -0.4341729144012512
atom 42.0209979195347643 41.9746370489648442 6.4446757661376610 Zr
    velocity 0.0610634579439139 -0.2007112133659288 -0.1301937483278781
atom -0.3607869267734961 0.2226370489648424 11.7708656072829267 Zr
    velocity -0.1710716782510616 -0.4495375311927834 0.3971215574064009
atom 4.8352130732265035 0.2226370489648424 11.7708656072829267 Zr
    velocity 0.3286057236119870 0.2384468935749640 -0.1524400226981613
atom 10.0312130732265015 0.2226370489648424 11.7708656072829267 Zr
    velocity -0.4223626296713473 -0.6055506981506004 -0.0271461888409980
atom 15.2272130732264994 0.2226370489648424 11.7708656072829267 Zr
    velocity -0.1682012593706639 -0.0451946449216078 -0.1357834412683332
atom 20.4232130732265027 0.2226370489648424 11.7708656072829267 Zr
    velocity -0.1227468381546724 0.0721514709275170 -0.0255258398428976
atom 25.6192130732265007 0.2226370489648424 11.7708656072829267 Zr
    velocity 0.0574021671365320 0.2406952737961380 0.1260654199914548
atom 30.8152130732265057 0.2226370489648424 11.7708656072829267 Zr
    velocity 0.1388141186009101 0.1216689197129087 -0.3912569543216232
atom 36.0112130732265001 0.2226370489648424 11.7708656072829267 Zr
    velocity 0.1305987486654417 -0.0719303493848952 0.2248000820776139
atom 41.2072130732265052 0.2226370489648424 11.7708656072829267 Zr
    velocity -0.0757245540457402 0.4424069136789691 0.0935951206352956
atom -0.3607869267734961 5.4416370489648420 11.7708656072829267 Zr
    velocity 0.4598994457773984 -0.2494743558194913 -0.0053727045181153
atom 4.8352130732265035 5.4416370489648420 11.7708656072829267 Zr
    velocity 0.3842042078690627 -0.6779624360896551 -0.1668524115947706
atom 10.0312130732265015 5.4416370489648420 11.7708656072829267 Zr
    velocity 0.0489890193605456 0.3630510541559401 0.3171068771743911
atom 15.2272130732264994 5.4416370489648420 11.7708656072829267 Zr
    velocity -0.2148440370659397 0.2008877016629252 -0.0254095610955989
atom 20.4232130732265027 5.4416370489648420 11.7708656072829267 Zr
    velocity -0.1215084019081274 0.2281857250150484 -0.3952928983017242
atom 25.6192130732265007 5.4416370489648420 11.7708656072829267 Zr
    velocity 0.2783451899906111 0.4661388353231610 0.4270535339125446
atom 30.8152130732265057 5.4416370489648420 11.7708656072829267 Zr
    velocity -0.0051672349647754 -0.1254617283729919 -0.0660092601149186
atom 36.0112130732265001 5.4416370489648420 11.7708656072829267 Zr
    velocity -0.2247515634670125 0.4688230027626776 -0.0039764433206444
atom 41.2072130732265052 5.4416370489648420 11.7708656072829267 Zr
    velocity -0.2199100048655801 -0.0199128434911306 -0.2679770991493010
atom -0.3607869267734961 10.6606370489648477 11.7708656072829267 Zr
    velocity -0.0520767521240259 0.3964657140186694 -0.2392111033847060
atom 4.8352130732265035 10.6606370489648477 11.7708656072829267 Zr
    velocity 0.0490837482517091 -0.1135281944967723 0.0232210656338430
atom 10.0312130732265015 10.6606370489648477 11.7708656072829267 Zr
    velocity 0.0679654715982669 0.1255474025503854 -0.0475477997304806
atom 15.2272130732264994 10.6606370489648477 11.7708656072829267 Zr
    velocity -0.1117890361156432 0.1742687605027173 0.1956563735654805
atom 20.4232130732265027 10.6606370489648477 11.7708656072829267 Zr
    velocity 0.3617597680792738 -0.7103735013288851 -0.1257260961705733
atom 25.6192130732265007 10.6606370489648477 11.7708656072829267 Zr
    velocity -0.3310105984714778 -0.0725990554440774 -0.1224480276788960
atom 30.8152130732265057 10.6606370489648477 11.7708656072829267 Zr
    velocity 0.3326778702103013 0.1723274617934985 -0.3485958172522352
atom 36.0112130732265001 10.6606370489648477 11.7708656072829267 Zr
    velocity -0.3320665263308140 0.5257075207262362 0.0500997048070458
atom 41.2072130732265052 10.6606370489648477 11.7708656072829267 Zr
    velocity 0.1063399196017715 -0.2682945220277691 0.0154444475880436
atom -0.3607869267734961 15.8796370489648453 11.7708656072829267 Zr
    velocity 0.0403688202073437 -0.0702900687178336 -0.2423720144129298
atom 4.8352130732265035 15.8796370489648453 11.7708656072829267 Zr
    velocity -0.5589916937435415 -0.0315367673214744 0.0859709562179453
atom 10.0312130732265015 15.8796370489648453 11.7708656072829267 Zr
    velocity 0.0791484147847556 -0.1748195113799053 -0.2544352647745264
atom 15.2272130732264994 15.8796370489648453 11.7708656072829267 Zr
    velocity -0.2530261034090932 -0.0725832986952138 0.6072990983678686
atom 20.4232130732265027 15.8796370489648453 11.7708656072829267 Zr
    velocity -0.2704268343868766 -0.3358406233145372 0.0212842296780880
atom 25.6192130732265007 15.8796370489648453 11.7708656072829267 Zr
    velocity 0.2356023891685297 0.2012681520490399 -0.0729453355904709
atom 30.8152130732265057 15.8796370489648453 11.7708656072829267 Zr
    velocity -0.1689314043694176 0.4077670697753730 -0.0693584342104189
atom 36.0112130732265001 15.8796370489648453 11.7708656072829267 Zr
    velocity 0.0489715411787626 -0.1713648508123893 0.3226747906872393
atom 41.2072130732265052 15.8796370489648453 11.7708656072829267 Zr
    velocity -0.1555991710403836 -0.2143839555955282 -0.1302831054824292
atom -0.3607869267734961 21.0986370489648465 11.7708656072829267 Zr
    velocity 0.4035932809835081 0.0177807680662699 0.0477534772152673
atom 4.8352130732265035 21.0986370489648465 11.7708656072829267 Zr
    velocity 0.1216088920732991 0.0285613277840512 0.6383034246937080
atom 10.0312130732265015 21.0986370489648465 11.7708656072829267 Zr
    velocity 0.1476729613875918 -0.1168506344703263 0.4493785316173319
atom 15.2272130732264994 21.0986370489648465 11.7708656072829267 Zr
    velocity -0.4380609786688401 -0.2656916053203502 -0.1845771005131995
atom 20.4232130732265027 21.0986370489648465 11.7708656072829267 Zr
    velocity 0.4160750232828749 -0.4054254603109868 -0.1454994963892864
atom 25.6192130732265007 21.0986370489648465 11.7708656072829267 Zr
    velocity 0.1057102165891154 -0.1986704727812832 -0.1994551667921521
atom 30.8152130732265057 21.0986370489648465 11.7708656072829267 Zr
    velocity -0.1156293125230541 -0.2445688530921979 -0.0698995021153459
atom 36.0112130732265001 21.0986370489648465 11.7708656072829267 Zr
    velocity -0.1929323082109821 -0.6318537256283100 0.1624232153217769
atom 41.2072130732265052 21.0986370489648465 11.7708656072829267 Zr
    velocity 0.1428797128835000 -0.0431064363242054 0.3831266631477829
atom -0.3607869267734961 26.3176370489648477 11.7708656072829267 Zr
    velocity 0.1734583698283978 -0.2246560315951475 0.1014857756746209
atom 4.8352130732265035 26.3176370489648477 11.7708656072829267 Zr
    velocity 0.4933184029558825 -0.0762535646010877 0.1610717194383186
atom 10.0312130732265015 26.3176370489648477 11.7708656072829267 Zr
    velocity 0.3951233602883199 -0.5624235666372596 -0.3643172439748166
atom 15.2272130732264994 26.3176370489648477 11.7708656072829267 Zr
    velocity 0.1386480827088891 -0.2913098073233705 0.0294373603131161
atom 20.4232130732265027 26.3176370489648477 11.7708656072829267 Zr