#=======================================================
# FHI-aims file: 1400_geometry.in.primitive.supercell_4116.0010K
# Created using the Atomic Simulation Environment (ASE)
# Wed Aug 24 14:05:38 2022

# Additional information:
#  created from MB distrubtion
#  T = 10.0 K
#  quantum:             False
#  deterministic:       False
#  plus_minus:          False
#  gauge_eigenvectors:  False
#  Random seed:         1948973807
#  Sample number:       1
#=======================================================
lattice_vector 36.3719999999999999 0.0000000000000000 0.0000000000000000 
lattice_vector 0.0000000000000000 36.5330000000000013 0.0000000000000000 
lattice_vector -5.6964939241578270 0.0000000000000000 37.2833288880168681 
atom 1.2667827658430262 0.2226370489648424 1.1184859249923962 Zr
    velocity 0.0616405609397960 0.4480529561754317 0.3689785707575616
atom 6.4627827658430270 0.2226370489648424 1.1184859249923962 Zr
    velocity 0.1260089997936953 -0.2159336456750662 -0.3062270888781574
atom 11.6587827658430303 0.2226370489648424 1.1184859249923962 Zr
    velocity -0.0507247775767331 0.1405926910555650 -0.0601167709948796
atom 16.8547827658430265 0.2226370489648424 1.1184859249923962 Zr
    velocity -0.3063596907280647 0.4323512841315348 0.2400784374310849
atom 22.0507827658430280 0.2226370489648424 1.1184859249923962 Zr
    velocity 0.2909830517175385 -0.2101312238499170 0.0461299541484738
atom 27.2467827658430295 0.2226370489648424 1.1184859249923962 Zr
    velocity 0.0666230747331077 0.0812727298422277 -0.7310268220379953
atom 32.4427827658430203 0.2226370489648424 1.1184859249923962 Zr
    velocity -0.7583813883432199 0.0990226710021810 0.3738843492843692
atom 1.2667827658430262 5.4416370489648447 1.1184859249923962 Zr
    velocity 0.0333987722674903 0.0066574995438545 -0.0553879675937323
atom 6.4627827658430270 5.4416370489648447 1.1184859249923962 Zr
    velocity 0.2259807315429418 -0.1442626434349982 0.0663760057677351
atom 11.6587827658430303 5.4416370489648447 1.1184859249923962 Zr
    velocity -0.0610614430826613 0.2270752917501395 0.1268761700745309
atom 16.8547827658430265 5.4416370489648447 1.1184859249923962 Zr
    velocity 0.4762234330376606 0.1353509862326261 0.0518159804907852
atom 22.0507827658430280 5.4416370489648447 1.1184859249923962 Zr
    velocity 0.4784129369703129 0.0149703304020171 0.0082178580141750
atom 27.2467827658430295 5.4416370489648447 1.1184859249923962 Zr
    velocity -0.2084272700364334 0.0298290119044415 -0.5732822568550013
atom 32.4427827658430203 5.4416370489648447 1.1184859249923962 Zr
    velocity 0.2804962230746009 0.0848403468309699 0.0546992386490989
atom 1.2667827658430262 10.6606370489648459 1.1184859249923962 Zr
    velocity 0.2759985638319986 0.0161490628120639 0.1401245144467407
atom 6.4627827658430270 10.6606370489648459 1.1184859249923962 Zr
    velocity -0.1656403991079645 -0.0868610120772223 -0.3488982172809438
atom 11.6587827658430303 10.6606370489648459 1.1184859249923962 Zr
    velocity 0.0851388658102168 0.2067995458284220 -0.0483559817192747
atom 16.8547827658430265 10.6606370489648459 1.1184859249923962 Zr
    velocity 0.3155840056973150 -0.3755237588804787 0.5695035028104108
atom 22.0507827658430280 10.6606370489648459 1.1184859249923962 Zr
    velocity 0.4549347284675108 -0.1881814927932686 -0.1446228773624048
atom 27.2467827658430295 10.6606370489648459 1.1184859249923962 Zr
    velocity -0.1027417788236346 0.2578594969125065 0.1662163225423779
atom 32.4427827658430203 10.6606370489648459 1.1184859249923962 Zr
    velocity -0.1385857976402120 0.0888481581605343 0.3291480180399876
atom 1.2667827658430262 15.8796370489648435 1.1184859249923962 Zr
    velocity 0.0477300939616159 -0.0701933303473169 -0.4177947432119424
atom 6.4627827658430270 15.8796370489648435 1.1184859249923962 Zr
    velocity -0.0583578500620733 -0.4774797197560607 -0.0960707070287762
atom 11.6587827658430303 15.8796370489648435 1.1184859249923962 Zr
    velocity 0.3383638296474143 0.3916111814920879 0.3537934339819293
atom 16.8547827658430265 15.8796370489648435 1.1184859249923962 Zr
    velocity -0.2929672772931290 -0.6313402356508382 -0.0583106890842274
atom 22.0507827658430280 15.8796370489648435 1.1184859249923962 Zr
    velocity -0.3810301941866344 0.0059943038562326 0.6398630395993736
atom 27.2467827658430295 15.8796370489648435 1.1184859249923962 Zr
    velocity -0.0947100129024954 -0.0669077116432473 0.2263300931242087
atom 32.4427827658430203 15.8796370489648435 1.1184859249923962 Zr
    velocity 0.0526968113497236 -0.4428579071481360 0.1775786784135086
atom 1.2667827658430262 21.0986370489648429 1.1184859249923962 Zr
    velocity 0.1781449371800683 -0.3947954275430346 -0.0842237843979565
atom 6.4627827658430270 21.0986370489648429 1.1184859249923962 Zr
    velocity -0.0823437033767325 -0.1564980984568383 -0.1317253790997331
atom 11.6587827658430303 21.0986370489648429 1.1184859249923962 Zr
    velocity 0.0359951345138931 0.3574780926357147 0.0676948919831816
atom 16.8547827658430265 21.0986370489648429 1.1184859249923962 Zr
    velocity -0.0902589535926585 0.2776252138946710 -0.0852771551130125
atom 22.0507827658430280 21.0986370489648429 1.1184859249923962 Zr
    velocity -0.7689865697001055 0.2377422431669866 -0.5597695491216891
atom 27.2467827658430295 21.0986370489648429 1.1184859249923962 Zr
    velocity -0.1990536372222776 -0.1175446060234309 -0.1922192427989099
atom 32.4427827658430203 21.0986370489648429 1.1184859249923962 Zr
    velocity -0.3762170898501696 0.3107553368086756 -0.0608890413645543
atom 1.2667827658430262 26.3176370489648441 1.1184859249923962 Zr
    velocity 0.3703203032188020 0.1393890306850009 0.1603083398741973
atom 6.4627827658430270 26.3176370489648441 1.1184859249923962 Zr
    velocity 0.1022192205615812 0.0695379647813138 -0.1293371299954454
atom 11.6587827658430303 26.3176370489648441 1.1184859249923962 Zr
    velocity 0.1180104946126809 -0.0839029810706330 0.0248302367363524
atom 16.8547827658430265 26.3176370489648441 1.1184859249923962 Zr
    velocity -0.0272743387864482 -0.0633489309878559 0.4015112465800350
atom 22.0507827658430280 26.3176370489648441 1.1184859249923962 Zr
    velocity -0.7937163656133251 0.5998856031238199 0.1027933091669160
atom 27.2467827658430295 26.3176370489648441 1.1184859249923962 Zr
    velocity -0.3469435717587414 -0.1293344760420016 -0.1840222847624633
atom 32.4427827658430203 26.3176370489648441 1.1184859249923962 Zr
    velocity -0.4272575798304222 0.1937879943305757 0.7581239520645319
atom 1.2667827658430262 31.5366370489648418 1.1184859249923962 Zr
    velocity -0.1371509108333001 -0.4674741627058290 0.1958762673416720
atom 6.4627827658430270 31.5366370489648418 1.1184859249923962 Zr
    velocity 0.0567887170508535 0.4190813669325894 -0.0648463086175318
atom 11.6587827658430303 31.5366370489648418 1.1184859249923962 Zr
    velocity -0.1140569871342804 0.1946384292807600 0.1396089401632195
atom 16.8547827658430265 31.5366370489648418 1.1184859249923962 Zr
    velocity -0.5586270700506960 0.1755061713590950 0.5142329757118821
atom 22.0507827658430280 31.5366370489648418 1.1184859249923962 Zr
    velocity 0.3045109501261714 0.7197946744958154 0.4430891053947714
atom 27.2467827658430295 31.5366370489648418 1.1184859249923962 Zr
    velocity -0.1282047349550818 -0.1392254945050289 0.3341442509163281
atom 32.4427827658430203 31.5366370489648418 1.1184859249923962 Zr
    velocity 0.1002622307685622 -0.1875064189066040 -0.3060215230591110
atom 0.4529979195347656 0.2226370489648424 6.4446757661376610 Zr
    velocity -0.0139338817043376 0.2809474116573267 0.2302556610897976
atom 5.6489979195347662 0.2226370489648424 6.4446757661376610 Zr
    velocity -0.5546304648602401 -0.1608703556963683 -0.3085858073533351
atom 10.8449979195347694 0.2226370489648424 6.4446757661376610 Zr
    velocity -0.2364596068087279 -0.0217602198592822 -0.2511468199532840
atom 16.0409979195347674 0.2226370489648424 6.4446757661376610 Zr
    velocity 0.3403979861286293 -0.0549530870094795 -0.2391973876681008
atom 21.2369979195347689 0.2226370489648424 6.4446757661376610 Zr
    velocity 0.0559530738647153 -0.3923230019778421 0.1379806179869196
atom 26.4329979195347704 0.2226370489648424 6.4446757661376610 Zr
    velocity 0.1997828944732405 0.3950690935995066 -0.6019926083978075
atom 31.6289979195347613 0.2226370489648424 6.4446757661376610 Zr
    velocity 0.4392545604836280 -0.1992292170461750 0.2780292377093313
atom 0.4529979195347656 5.4416370489648447 6.4446757661376610 Zr
    velocity 0.5950576408831934 -0.4815843905223585 -0.1972387928890841
atom 5.6489979195347662 5.4416370489648447 6.4446757661376610 Zr
    velocity 0.0822375185895591 0.3248239484516276 0.3312188086222712
atom 10.8449979195347694 5.4416370489648447 6.4446757661376610 Zr
    velocity -0.3603836331098853 0.0733495745388926 -0.1528619038919820
atom 16.0409979195347674 5.4416370489648447 6.4446757661376610 Zr
    velocity 0.1367261354095668 -0.2169683224852133 0.0841854346300683
atom 21.2369979195347689 5.4416370489648447 6.4446757661376610 Zr
    velocity 0.2162964912818301 -0.0394149292971135 0.5264584488421066
atom 26.4329979195347704 5.4416370489648447 6.4446757661376610 Zr
    velocity -0.4762542383093881 -0.0045943419549700 0.1458585615143157
atom 31.6289979195347613 5.4416370489648447 6.4446757661376610 Zr
    velocity -0.1811631537179498 0.3241356817150804 0.0631218675162414
atom 0.4529979195347656 10.6606370489648459 6.4446757661376610 Zr
    velocity 0.3304012751979122 0.5878853595582433 -0.0345867039283226
atom 5.6489979195347662 10.6606370489648459 6.4446757661376610 Zr
    velocity -0.0232037424977917 0.0961744658630135 -0.0456078672708910
atom 10.8449979195347694 10.6606370489648459 6.4446757661376610 Zr
    velocity -0.0130906327962840 -0.2058124715836960 0.0331047894228563
atom 16.0409979195347674 10.6606370489648459 6.4446757661376610 Zr
    velocity 0.1285434218018073 -0.2776240983523559 0.2467671040632520
atom 21.2369979195347689 10.6606370489648459 6.4446757661376610 Zr
    velocity 0.1694071508667909 0.1183559475264379 0.2488980606845078
atom 26.4329979195347704 10.6606370489648459 6.4446757661376610 Zr
    velocity -0.4063702398054904 -0.1346589235805883 0.0642525512165078
atom 31.6289979195347613 10.6606370489648459 6.4446757661376610 Zr
    velocity 0.2649250962175059 0.2506819810737549 -0.2114430256731998
atom 0.4529979195347656 15.8796370489648435 6.4446757661376610 Zr
    velocity -0.1891290879415049 -0.0540581135062555 0.1504729790891990
atom 5.6489979195347662 15.8796370489648435 6.4446757661376610 Zr
    velocity 0.2771602746403161 -0.1717946715863517 -0.0090120890382628
atom 10.8449979195347694 15.8796370489648435 6.4446757661376610 Zr
    velocity 0.1635032189896660 0.4235872614558662 0.1308649250703451
atom 16.0409979195347674 15.8796370489648435 6.4446757661376610 Zr
    velocity 0.5647659938977173 -0.1472559309297105 0.6966416873562596
atom 21.2369979195347689 15.8796370489648435 6.4446757661376610 Zr
    velocity 0.3629772017906019 0.3986938283059532 -0.1415631784163434
atom 26.4329979195347704 15.8796370489648435 6.4446757661376610 Zr
    velocity -0.0014958798590208 -0.1417991683714211 -0.1190419210801845
atom 31.6289979195347613 15.8796370489648435 6.4446757661376610 Zr
    velocity -0.9194882349081137 0.0381067471463386 -0.1221255029203706
atom 0.4529979195347656 21.0986370489648429 6.4446757661376610 Zr
    velocity 0.1158935993101346 0.5136594558490069 -0.1135744171288090
atom 5.6489979195347662 21.0986370489648429 6.4446757661376610 Zr
    velocity 0.2450832435055091 0.0634794424635966 0.2427330704556344
atom 10.8449979195347694 21.0986370489648429 6.4446757661376610 Zr
    velocity 0.1549524905744138 0.2747667657469970 -0.1329001392213450
atom 16.0409979195347674 21.0986370489648429 6.4446757661376610 Zr
    velocity 0.0346236967170783 -0.4449813974382794 0.1734761322428602
atom 21.2369979195347689 21.0986370489648429 6.4446757661376610 Zr
    velocity -0.3862281730285602 0.1601302974447155 -0.0159471375902318
atom 26.4329979195347704 21.0986370489648429 6.4446757661376610 Zr
    velocity -0.3272301311343258 0.2971426120678333 0.6835716528281416
atom 31.6289979195347613 21.0986370489648429 6.4446757661376610 Zr
    velocity 0.2952375238268668 -0.6300713316190865 0.0003875433966935
atom 0.4529979195347656 26.3176370489648441 6.4446757661376610 Zr
    velocity -0.2157573275866994 0.1562026865536331 0.3957438216726899
atom 5.6489979195347662 26.3176370489648441 6.4446757661376610 Zr
    velocity 0.3082937337082668 0.0637761455385448 0.2213824425122289
atom 10.8449979195347694 26.3176370489648441 6.4446757661376610 Zr
    velocity -0.2811392505960276 -0.0652912391610590 -0.2668750723534299
atom 16.0409979195347674 26.3176370489648441 6.4446757661376610 Zr
    velocity -0.1684578104884159 0.2338868525944214 0.0531899929819131
atom 21.2369979195347689 26.3176370489648441 6.4446757661376610 Zr
    velocity 0.1740248816485246 0.2888226737873414 -0.3405579992500417
atom 26.4329979195347704 26.3176370489648441 6.4446757661376610 Zr
    velocity 0.2632131957461278 -0.0632336959048787 -0.2124620583334636
atom 31.6289979195347613 26.3176370489648441 6.4446757661376610 Zr
    velocity 0.2728292214750601 0.3662750673479740 0.5267186945817717
atom 0.4529979195347656 31.5366370489648418 6.4446757661376610 Zr
    velocity -0.6207022318613363 0.3646025164894853 0.5453063188474568
atom 5.6489979195347662 31.5366370489648418 6.4446757661376610 Zr
    velocity 0.0621804631392768 -0.0062269156020314 0.2669911290234680
atom 10.8449979195347694 31.5366370489648418 6.4446757661376610 Zr
    velocity -0.0264162077479334 -0.5084341868556564 0.1689654875348801
atom 16.0409979195347674 31.5366370489648418 6.4446757661376610 Zr
    velocity -0.0973211569723212 -0.4414170941486266 0.3051670856454278
atom 21.2369979195347689 31.5366370489648418 6.4446757661376610 Zr
    velocity -0.2312534318798669 0.4073069505468031 -0.3846781782681873
atom 26.4329979195347704 31.5366370489648418 6.4446757661376610 Zr
    velocity 0.2086436754933896 -0.2012650104707789 0.0787706395636107
atom 31.6289979195347613 31.5366370489648418 6.4446757661376610 Zr
    velocity 0.3846252926767477 -0.0858247571643520 -0.4641374386527057
atom -0.3607869267734951 0.2226370489648424 11.7708656072829250 Zr
    velocity -0.3792765618200200 -0.0729183723250237 0.1465424230135044
atom 4.8352130732265062 0.2226370489648424 11.7708656072829250 Zr
    velocity -0.1491343659926980 -0.2335719030375383 -0.0679449031198712
atom 10.0312130732265086 0.2226370489648424 11.7708656072829250 Zr
    velocity 0.0698559420844693 -0.1662111530851975 0.3768405767426128
atom 15.2272130732265065 0.2226370489648424 11.7708656072829250 Zr
    velocity 0.2721540377803554 -0.0391795056634377 -0.0911145952146012
atom 20.4232130732265063 0.2226370489648424 11.7708656072829250 Zr
    velocity 0.1341436064815255 0.1211497253974882 -0.0680412451091944
atom 25.6192130732265078 0.2226370489648424 11.7708656072829250 Zr
    velocity 0.1488581954037942 0.0739579795553877 -0.4109861846809162
atom 30.8152130732264986 0.2226370489648424 11.7708656072829250 Zr
    velocity -0.0135931170546926 -0.4339489098181382 -0.0056807860588014
atom -0.3607869267734951 5.4416370489648447 11.7708656072829250 Zr
    velocity -0.1456920231174688 0.2533936019815629 0.1553802594439037
atom 4.8352130732265062 5.4416370489648447 11.7708656072829250 Zr
    velocity -0.4190197587239653 0.0569525532637086 -0.1390565523564079
atom 10.0312130732265086 5.4416370489648447 11.7708656072829250 Zr
    velocity 0.0371263011245556 -0.0062774617553075 -0.2618032941065326
atom 15.2272130732265065 5.4416370489648447 11.7708656072829250 Zr
    velocity 0.4141924167781098 0.2132617415753934 -0.5774364853521150
atom 20.4232130732265063 5.4416370489648447 11.7708656072829250 Zr
    velocity 0.0261229336262086 -0.0210084316518598 -0.1039072550379109
atom 25.6192130732265078 5.4416370489648447 11.7708656072829250 Zr
    velocity 0.0799198682273943 0.0236969380781621 -0.0664744644519229
atom 30.8152130732264986 5.4416370489648447 11.7708656072829250 Zr
    velocity -0.2027257829167792 -0.1022623965564945 0.3374216510416068
atom -0.3607869267734951 10.6606370489648459 11.7708656072829250 Zr
    velocity -0.2570916773099197 -0.1601095102936638 -0.1232053578009343
atom 4.8352130732265062 10.6606370489648459 11.7708656072829250 Zr
    velocity -0.4449226347201344 0.4040028876683360 0.4002502278991628
atom 10.0312130732265086 10.6606370489648459 11.7708656072829250 Zr
    velocity -0.3950483011254883 0.0874874386155366 -0.2541446462446448
atom 15.2272130732265065 10.6606370489648459 11.7708656072829250 Zr
    velocity 0.0098783135144930 -0.0717881101452059 0.2958695223701253
atom 20.4232130732265063 10.6606370489648459 11.7708656072829250 Zr
    velocity 0.3282893583564871 0.1314619650935002 -0.0415868484421121
atom 25.6192130732265078 10.6606370489648459 11.7708656072829250 Zr
    velocity -0.0335340255005015 0.1986397258616011 0.1354158197106435
atom 30.8152130732264986 10.6606370489648459 11.7708656072829250 Zr
    velocity -0.1989852174611260 0.2692998124103337 -0.3975013697181020
atom -0.3607869267734951 15.8796370489648435 11.7708656072829250 Zr
    velocity 0.2227075095268535 0.4189655682420616 0.2828004780447972
atom 4.8352130732265062 15.8796370489648435 11.7708656072829250 Zr
    velocity -0.2395449283972728 -0.0110106059233392 0.0621782871738533
atom 10.0312130732265086 15.8796370489648435 11.7708656072829250 Zr
    velocity -0.2224539591872175 0.4192790973822725 0.3725100510362290
atom 15.2272130732265065 15.8796370489648435 11.7708656072829250 Zr
    velocity -0.0565736198175099 0.1859015841538331 0.2267051992197189
atom 20.4232130732265063 15.8796370489648435 11.7708656072829250 Zr
    velocity 0.0507438238716121 0.1553761213071528 0.0211510756048348
atom 25.6192130732265078 15.8796370489648435 11.7708656072829250 Zr
    velocity -0.0254244687526351 0.0076954551340138 -0.3236535039266171
atom 30.8152130732264986 15.8796370489648435 11.7708656072829250 Zr
    velocity -0.0354730144804143 -0.0891390957445649 -0.1337918020815543
atom -0.3607869267734951 21.0986370489648429 11.7708656072829250 Zr
    velocity 0.4023419337759523 0.0254287781507510 -0.1637481825367245
atom 4.8352130732265062 21.0986370489648429 11.7708656072829250 Zr
    velocity 0.1128981037025993 0.1292447767036776 0.2249758869560142
atom 10.0312130732265086 21.0986370489648429 11.7708656072829250 Zr
    velocity -0.5744891055556192 0.0568447206935248 -0.0366235732209511
atom 15.2272130732265065 21.0986370489648429 11.7708656072829250 Zr
    velocity -0.1937358281998734 0.0754615643038579 0.2279812125373249
atom 20.4232130732265063 21.0986370489648429 11.7708656072829250 Zr
    velocity -0.1465979638039946 0.0949630032562392 0.0725624265214918
atom 25.6192130732265078 21.0986370489648429 11.7708656072829250 Zr
    velocity 0.0547232933930979 0.2109667215794441 -0.1657825953887584
atom 30.8152130732264986 21.0986370489648429 11.7708656072829250 Zr
    velocity -0.2580214562972593 -0.1480928099445352 -0.1254310888269227
atom -0.3607869267734951 26.3176370489648441 11.7708656072829250 Zr
    velocity 0.1030552269783929 0.0909735052532300 0.2328396757781482
atom 4.8352130732265062 26.3176370489648441 11.7708656072829250 Zr
    velocity -0.2778700462227531 0.2644688540029925 -0.3315416356286302
atom 10.0312130732265086 26.3176370489648441 11.7708656072829250 Zr
    velocity 0.7617576647524402 0.2348764756798729 -0.4005353004293792
atom 15.2272130732265065 26.3176370489648441 11.7708656072829250 Zr
    velocity -0.3784207909445351 0.1121430291496881 0.2124119646126234
atom 20.4232130732265063 26.3176370489648441 11.7708656072829250 Zr
    velocity -0.0783664757318387 -0.5872726547114177 0.0460705955865807
atom 25.6192130732265078 26.3176370489648441 11.7708656072829250 Zr
    velocity 0.2451568556702957 -0.3848792949750253 0.1296051273434486
atom 30.8152130732264986 26.3176370489648441 11.7708656072829250 Zr
    velocity -0.0538695812326655 0.2141346425023622 -0.0843815223410381
atom -0.3607869267734951 31.5366370489648418 11.7708656072829250 Zr
    velocity -0.3291157839826925 0.2617932650374666 0.0642895619185628
atom 4.8352130732265062 31.5366370489648418 11.7708656072829250 Zr
    velocity -0.3926969963068556 0.2220490585855476 0.2205914813868906
atom 10.0312130732265086 31.5366370489648418 11.7708656072829250 Zr
    velocity -0.1722366883028977 0.2247616257150400 0.4067730763289298
atom 15.2272130732265065 31.5366370489648418 11.7708656072829250 Zr
    velocity 0.3082187629468064 -0.3425320422508571 -0.7892183112577077
atom 20.4232130732265063 31.5366370489648418 11.7708656072829250 Zr
    velocity -0.1408264150075042 0.0878269109014695 0.3527651900083130
atom 25.6192130732265078 31.5366370489648418 11.7708656072829250 Zr
    velocity 0.2510047701269234 -0.0697625003081531 0.0627424312629010
atom 30.8152130732264986 31.5366370489648418 11.7708656072829250 Zr
    velocity -0.3716716728248762 0.0982468304200262 0.3071602931278292
atom -1.1745717730817558 0.2226370489648424 17.0970554484281898 Zr
    velocity -0.0070074063259549 0.0871041750536972 0.0004512235476301
atom 4.0214282269182453 0.2226370489648424 17.0970554484281898 Zr
    velocity -0.1595214951618284 -0.5247594514506825 0.0810959933709316
atom 9.2174282269182477 0.2226370489648424 17.0970554484281898 Zr
    velocity 0.1905014347510151 -0.0954684880059561 -0.1683179977426414
atom 14.4134282269182457 0.2226370489648424 17.0970554484281898 Zr
    velocity 0.0012358557985499 0.4718241330480087 0.7029485491955855
atom 19.6094282269182472 0.2226370489648424 17.0970554484281898 Zr
    velocity -0.2050067608067463 -0.5583851235298386 -0.2545406123647804
atom 24.8054282269182487 0.2226370489648424 17.0970554484281898 Zr
    velocity -0.3172400515841343 -0.2867208938856867 0.3194012353852230
atom 30.0014282269182395 0.2226370489648424 17.0970554484281898 Zr
    velocity 0.0665912783835464 0.3482305231374644 0.2130035701283683
atom -1.1745717730817558 5.4416370489648447 17.0970554484281898 Zr
    velocity -0.2687980431777092 -0.2704616640572557 0.0106437271939176
atom 4.0214282269182453 5.4416370489648447 17.0970554484281898 Zr
    velocity -0.4065154167043380 -0.2738692609996550 0.0276763067316794
atom 9.2174282269182477 5.4416370489648447 17.0970554484281898 Zr
    velocity 0.0707388414208792 -0.2112007540016901 0.1898650614864084
atom 14.4134282269182457 5.4416370489648447 17.0970554484281898 Zr
    velocity 0.1266994131037106 -0.0094399018688932 0.2103581972064585
atom 19.6094282269182472 5.4416370489648447 17.0970554484281898 Zr
    velocity 0.4399421652592194 -0.1313585706567489 0.1396243723568298
atom 24.8054282269182487 5.4416370489648447 17.0970554484281898 Zr
    velocity 0.0867121812024522 0.4282583553536428 0.4479697984686180
atom 30.0014282269182395 5.4416370489648447 17.0970554484281898 Zr
    velocity 0.0404468643205930 0.4117681898707433 -0.3026206089444028
atom -1.1745717730817558 10.6606370489648459 17.0970554484281898 Zr
    velocity -0.3398894688807375 -0.1773490139043062 -0.3302482409409042
atom 4.0214282269182453 10.6606370489648459 17.0970554484281898 Zr
    velocity -0.3988488044842469 -0.1522706061273610 0.4528418196911189
atom 9.2174282269182477 10.6606370489648459 17.0970554484281898 Zr
    velocity 0.0363350939524166 0.2939544071042780 -0.5399310808103260
atom 14.4134282269182457 10.6606370489648459 17.0970554484281898 Zr
    velocity -0.0128175815139010 0.2237959587618455 -0.0660531489515714
atom 19.6094282269182472 10.6606370489648459 17.0970554484281898 Zr
    velocity -0.2614533444971987 -0.5215077213651425 0.0732755198564762
atom 24.8054282269182487 10.6606370489648459 17.0970554484281898 Zr
    velocity 0.3200256194023492 0.1019442844713436 0.0362031168500135
atom 30.0014282269182395 10.6606370489648459 17.0970554484281898 Zr
    velocity 0.2557009317032132 -0.1877769339374304 0.0058242838638315
atom -1.1745717730817558 15.8796370489648435 17.0970554484281898 Zr
    velocity -0.1735748612789311 0.3261073714271081 0.0818169582625391
atom 4.0214282269182453 15.8796370489648435 17.0970554484281898 Zr
    velocity 0.3134589053696252 0.3228952958758479 0.0324820889030355
atom 9.2174282269182477 15.8796370489648435 17.0970554484281898 Zr
    velocity 0.2738060322813212 0.0692122239863653 0.7243572768367860
atom 14.4134282269182457 15.8796370489648435 17.0970554484281898 Zr
    velocity 0.2578417721946683 -0.5765405394264620 0.0859459263433721
atom 19.6094282269182472 15.8796370489648435 17.0970554484281898 Zr
    velocity 0.4483442471651511 0.3592551646957006 0.0169074734673191
atom 24.8054282269182487 15.8796370489648435 17.0970554484281898 Zr
    velocity 0.3910557835383278 -0.1064150861485958 0.2647141818311854
atom 30.0014282269182395 15.8796370489648435 17.0970554484281898 Zr
    velocity 0.1690691421556939 -0.0256060339183254 0.0820153703786792
atom -1.1745717730817558 21.0986370489648429 17.0970554484281898 Zr
    velocity -0.2036308031781556 -0.5457613298771893 -0.3941666975418264
atom 4.0214282269182453 21.0986370489648429 17.0970554484281898 Zr
    velocity 0.3739376704547533 0.1254608118784639 0.1722912669723861
atom 9.2174282269182477 21.0986370489648429 17.0970554484281898 Zr
    velocity -0.0744972993874699 0.2584783744274208 0.5750372064632191
atom 14.4134282269182457 21.0986370489648429 17.0970554484281898 Zr
    velocity -0.0525181040310169 0.0925505999634215 -0.0588732699811322
atom 19.6094282269182472 21.0986370489648429 17.0970554484281898 Zr
    velocity -0.2982149086981127 -0.1661076873766702 0.2110213413383288
atom 24.8054282269182487 21.0986370489648429 17.0970554484281898 Zr
    velocity -0.0199110559252857 -0.2582226551078263 0.0291764940679317
atom 30.0014282269182395 21.0986370489648429 17.0970554484281898 Zr
    velocity -0.1369052557689685 0.2070852918114068 -0.0341247550374387
atom -1.1745717730817558 26.3176370489648441 17.0970554484281898 Zr
    velocity 0.2698623563885929 -0.5859033570041515 -0.2870060459883329
atom 4.0214282269182453 26.3176370489648441 17.0970554484281898 Zr
    velocity -0.4224628129944275 -0.3629514667619613 -0.3797632393724414
atom 9.2174282269182477 26.3176370489648441 17.0970554484281898 Zr
    velocity -0.0239607227417613 0.2187343684167130 0.0456247583227200
atom 14.4134282269182457 26.3176370489648441 17.0970554484281898 Zr
    velocity 0.3527463931865540 0.1149091872302608 -0.5950575572612731
atom 19.6094282269182472 26.3176370489648441 17.0970554484281898 Zr
    velocity 0.2220927215406235 -0.3512240906003191 -0.2044786407277387
atom 24.8054282269182487 26.3176370489648441 17.0970554484281898 Zr
    velocity 0.1013791013640473 -0.4328752918828848 -0.2036824441735413
atom 30.0014282269182395 26.3176370489648441 17.0970554484281898 Zr
    velocity -0.0355536481666818 -0.1844556640255693 -0.1625665027579428
atom -1.1745717730817558 31.5366370489648418 17.0970554484281898 Zr
    velocity -0.2615514383735000 -0.3051217174192059 -0.4017758791333229
atom 4.0214282269182453 31.5366370489648418 17.0970554484281898 Zr
    velocity -0.1475957694719122 -0.0987704046430248 -0.5222868699887276
atom 9.2174282269182477 31.5366370489648418 17.0970554484281898 Zr
    velocity 0.2618902852358831 -0.6922346654149071 0.5282217014765422
atom 14.4134282269182457 31.5366370489648418 17.0970554484281898 Zr
    velocity -0.2546604719081921 -0.4266600925977354 -0.1825367772238607
atom 19.6094282269182472 31.5366370489648418 17.0970554484281898 Zr
    velocity 0.1355584669293625 0.3109050904518413 0.2607663007269587
atom 24.8054282269182487 31.5366370489648418 17.0970554484281898 Zr
    velocity 0.1962057178791452 0.2476937094978370 -0.2562986435327488
atom 30.0014282269182395 31.5366370489648418 17.0970554484281898 Zr
    velocity -0.0162311985712564 0.1168976052031559 0.2527820135311775
atom -1.9883566193900171 0.2226370489648424 22.4232452895734582 Zr
    velocity 0.0408003704022218 -0.2358528178554871 0.1559731956855563
atom 3.2076433806099840 0.2226370489648424 22.4232452895734582 Zr
    velocity 0.0642400180043166 -0.0875125726591706 0.2307130516381905
atom 8.4036433806099868 0.2226370489648424 22.4232452895734582 Zr
    velocity 0.0901882335779242 -0.5156449546532675 0.1512025295324075
atom 13.5996433806099848 0.2226370489648424 22.4232452895734582 Zr
    velocity 0.0595130928229315 -0.1344587744891236 -0.0125209759953646
atom 18.7956433806099845 0.2226370489648424 22.4232452895734582 Zr
    velocity 0.0834542475841716 -0.1179226330247883 0.2301149839166158
atom 23.9916433806099860 0.2226370489648424 22.4232452895734582 Zr
    velocity -0.1447487010830316 -0.1639902466397680 -0.1215174742827967
atom 29.1876433806099769 0.2226370489648424 22.4232452895734582 Zr
    velocity -0.2554866927086304 -0.1067699013624807 -0.2453178333524655
atom -1.9883566193900171 5.4416370489648447 22.4232452895734582 Zr
    velocity 0.4112315942057086 -0.0655747811043430 -0.0454603209308040
atom 3.2076433806099840 5.4416370489648447 22.4232452895734582 Zr
    velocity 0.0286027950342926 0.0030469341545528 0.2817264977245127
atom 8.4036433806099868 5.4416370489648447 22.4232452895734582 Zr
    velocity 0.4564679926613431 0.1326512478192845 0.2463351308062885
atom 13.5996433806099848 5.4416370489648447 22.4232452895734582 Zr
    velocity -0.3218626425380012 -0.1536597559049249 -0.1982050118373388
atom 18.7956433806099845 5.4416370489648447 22.4232452895734582 Zr
    velocity -0.0804111359387028 -0.1135692063300057 -0.0543073596215633
atom 23.9916433806099860 5.4416370489648447 22.4232452895734582 Zr
    velocity -0.2584264633745886 -0.7127942642838372 0.1095238322934708
atom 29.1876433806099769 5.4416370489648447 22.4232452895734582 Zr
    velocity 0.4425930057753145 -0.0508479353146217 0.1660334019574562
atom -1.9883566193900171 10.6606370489648459 22.4232452895734582 Zr
    velocity -0.1487416547546094 -0.0301368436628131 0.0342743759825472