#=======================================================
# FHI-aims file: 1400_geometry.in.primitive.supercell_960
# Created using the Atomic Simulation Environment (ASE)
# Wed Aug 24 14:05:08 2022

# Additional information:
#  Number of atoms:     960
#  Spacegroup:          14
#  supercell:           True
#  supercell_matrix:    [4, 0, 0, 0, 4, 0, 0, 0, 5]
#  Supercell matrix:    [4 0 0 0 4 0 0 0 5]
#=======================================================
lattice_vector 20.7839999999999989 0.0000000000000000 0.0000000000000000 
lattice_vector 0.0000000000000000 20.8760000000000012 0.0000000000000000 
lattice_vector -4.0689242315413052 0.0000000000000000 26.6309492057263313 
atom_frac 0.0691722215855000 0.0106647369690000 0.0419994764870000 Zr
atom_frac 0.3191722215855000 0.0106647369690000 0.0419994764870000 Zr
atom_frac 0.5691722215854998 0.0106647369690000 0.0419994764870000 Zr
atom_frac 0.8191722215855000 0.0106647369690000 0.0419994764870000 Zr
atom_frac 0.0691722215855000 0.2606647369690000 0.0419994764870000 Zr
atom_frac 0.3191722215855000 0.2606647369690000 0.0419994764870000 Zr
atom_frac 0.5691722215854998 0.2606647369690000 0.0419994764870000 Zr
atom_frac 0.8191722215855000 0.2606647369690000 0.0419994764870000 Zr
atom_frac 0.0691722215855000 0.5106647369690001 0.0419994764870000 Zr
atom_frac 0.3191722215855000 0.5106647369690001 0.0419994764870000 Zr
atom_frac 0.5691722215854998 0.5106647369690001 0.0419994764870000 Zr
atom_frac 0.8191722215855000 0.5106647369690001 0.0419994764870000 Zr
atom_frac 0.0691722215855000 0.7606647369690001 0.0419994764870000 Zr
atom_frac 0.3191722215855000 0.7606647369690001 0.0419994764870000 Zr
atom_frac 0.5691722215854998 0.7606647369690001 0.0419994764870000 Zr
atom_frac 0.8191722215855000 0.7606647369690001 0.0419994764870000 Zr
atom_frac 0.0691722215855000 0.0106647369690000 0.2419994764870001 Zr
atom_frac 0.3191722215855000 0.0106647369690000 0.2419994764870001 Zr
atom_frac 0.5691722215854998 0.0106647369690000 0.2419994764870001 Zr
atom_frac 0.8191722215855000 0.0106647369690000 0.2419994764870001 Zr
atom_frac 0.0691722215855000 0.2606647369690000 0.2419994764870001 Zr
atom_frac 0.3191722215855000 0.2606647369690000 0.2419994764870001 Zr
atom_frac 0.5691722215854998 0.2606647369690000 0.2419994764870001 Zr
atom_frac 0.8191722215855000 0.2606647369690000 0.2419994764870001 Zr
atom_frac 0.0691722215855000 0.5106647369690001 0.2419994764870001 Zr
atom_frac 0.3191722215855000 0.5106647369690001 0.2419994764870001 Zr
atom_frac 0.5691722215854998 0.5106647369690001 0.2419994764870001 Zr
atom_frac 0.8191722215855000 0.5106647369690001 0.2419994764870001 Zr
atom_frac 0.0691722215855000 0.7606647369690001 0.2419994764870001 Zr
atom_frac 0.3191722215855000 0.7606647369690001 0.2419994764870001 Zr
atom_frac 0.5691722215854998 0.7606647369690001 0.2419994764870001 Zr
atom_frac 0.8191722215855000 0.7606647369690001 0.2419994764870001 Zr
atom_frac 0.0691722215855000 0.0106647369690000 0.4419994764870001 Zr
atom_frac 0.3191722215855000 0.0106647369690000 0.4419994764870001 Zr
atom_frac 0.5691722215854998 0.0106647369690000 0.4419994764870001 Zr
atom_frac 0.8191722215855000 0.0106647369690000 0.4419994764870001 Zr
atom_frac 0.0691722215855000 0.2606647369690000 0.4419994764870001 Zr
atom_frac 0.3191722215855000 0.2606647369690000 0.4419994764870001 Zr
atom_frac 0.5691722215854998 0.2606647369690000 0.4419994764870001 Zr
atom_frac 0.8191722215855000 0.2606647369690000 0.4419994764870001 Zr
atom_frac 0.0691722215855000 0.5106647369690001 0.4419994764870001 Zr
atom_frac 0.3191722215855000 0.5106647369690001 0.4419994764870001 Zr
atom_frac 0.5691722215854998 0.5106647369690001 0.4419994764870001 Zr
atom_frac 0.8191722215855000 0.5106647369690001 0.4419994764870001 Zr
atom_frac 0.0691722215855000 0.7606647369690001 0.4419994764870001 Zr
atom_frac 0.3191722215855000 0.7606647369690001 0.4419994764870001 Zr
atom_frac 0.5691722215854998 0.7606647369690001 0.4419994764870001 Zr
atom_frac 0.8191722215855000 0.7606647369690001 0.4419994764870001 Zr
atom_frac 0.0691722215855000 0.0106647369690000 0.6419994764870001 Zr
atom_frac 0.3191722215854999 0.0106647369690000 0.6419994764870001 Zr
atom_frac 0.5691722215854998 0.0106647369690000 0.6419994764870001 Zr
atom_frac 0.8191722215855000 0.0106647369690000 0.6419994764870001 Zr
atom_frac 0.0691722215855000 0.2606647369690000 0.6419994764870001 Zr
atom_frac 0.3191722215854999 0.2606647369690000 0.6419994764870001 Zr
atom_frac 0.5691722215854998 0.2606647369690000 0.6419994764870001 Zr
atom_frac 0.8191722215855000 0.2606647369690000 0.6419994764870001 Zr
atom_frac 0.0691722215855000 0.5106647369690001 0.6419994764870001 Zr
atom_frac 0.3191722215854999 0.5106647369690001 0.6419994764870001 Zr
atom_frac 0.5691722215854998 0.5106647369690001 0.6419994764870001 Zr
atom_frac 0.8191722215855000 0.5106647369690001 0.6419994764870001 Zr
atom_frac 0.0691722215855000 0.7606647369690001 0.6419994764870001 Zr
atom_frac 0.3191722215854999 0.7606647369690001 0.6419994764870001 Zr
atom_frac 0.5691722215854998 0.7606647369690001 0.6419994764870001 Zr
atom_frac 0.8191722215855000 0.7606647369690001 0.6419994764870001 Zr
atom_frac 0.0691722215855000 0.0106647369690000 0.8419994764870000 Zr
atom_frac 0.3191722215855000 0.0106647369690000 0.8419994764870000 Zr
atom_frac 0.5691722215854998 0.0106647369690000 0.8419994764870000 Zr
atom_frac 0.8191722215855000 0.0106647369690000 0.8419994764870000 Zr
atom_frac 0.0691722215855000 0.2606647369690000 0.8419994764870000 Zr
atom_frac 0.3191722215855000 0.2606647369690000 0.8419994764870000 Zr
atom_frac 0.5691722215854998 0.2606647369690000 0.8419994764870000 Zr
atom_frac 0.8191722215855000 0.2606647369690000 0.8419994764870000 Zr
atom_frac 0.0691722215855000 0.5106647369690001 0.8419994764870000 Zr
atom_frac 0.3191722215855000 0.5106647369690001 0.8419994764870000 Zr
atom_frac 0.5691722215854998 0.5106647369690001 0.8419994764870000 Zr
atom_frac 0.8191722215855000 0.5106647369690001 0.8419994764870000 Zr
atom_frac 0.0691722215855000 0.7606647369690001 0.8419994764870000 Zr
atom_frac 0.3191722215855000 0.7606647369690001 0.8419994764870000 Zr
atom_frac 0.5691722215854998 0.7606647369690001 0.8419994764870000 Zr
atom_frac 0.8191722215855000 0.7606647369690001 0.8419994764870000 Zr
atom_frac 0.1808277641644999 0.2393352630310000 0.1580005263130000 Zr
atom_frac 0.4308277641644999 0.2393352630310000 0.1580005263130000 Zr
atom_frac 0.6808277641644999 0.2393352630310000 0.1580005263130000 Zr
atom_frac 0.9308277641645000 0.2393352630310000 0.1580005263130000 Zr
atom_frac 0.1808277641644999 0.4893352630310000 0.1580005263130000 Zr
atom_frac 0.4308277641644999 0.4893352630310000 0.1580005263130000 Zr
atom_frac 0.6808277641644999 0.4893352630310000 0.1580005263130000 Zr
atom_frac 0.9308277641645000 0.4893352630310000 0.1580005263130000 Zr
atom_frac 0.1808277641644999 0.7393352630310001 0.1580005263130000 Zr
atom_frac 0.4308277641644999 0.7393352630310001 0.1580005263130000 Zr
atom_frac 0.6808277641644999 0.7393352630310001 0.1580005263130000 Zr
atom_frac 0.9308277641645000 0.7393352630310001 0.1580005263130000 Zr
atom_frac 0.1808277641644999 0.9893352630310001 0.1580005263130000 Zr
atom_frac 0.4308277641644999 0.9893352630310001 0.1580005263130000 Zr
atom_frac 0.6808277641644999 0.9893352630310001 0.1580005263130000 Zr
atom_frac 0.9308277641645000 0.9893352630310001 0.1580005263130000 Zr
atom_frac 0.1808277641644999 0.2393352630310000 0.3580005263130001 Zr
atom_frac 0.4308277641644999 0.2393352630310000 0.3580005263130001 Zr
atom_frac 0.6808277641644999 0.2393352630310000 0.3580005263130001 Zr
atom_frac 0.9308277641645002 0.2393352630310000 0.3580005263130001 Zr
atom_frac 0.1808277641644999 0.4893352630310000 0.3580005263130001 Zr
atom_frac 0.4308277641644999 0.4893352630310000 0.3580005263130001 Zr
atom_frac 0.6808277641644999 0.4893352630310000 0.3580005263130001 Zr
atom_frac 0.9308277641645002 0.4893352630310000 0.3580005263130001 Zr
atom_frac 0.1808277641644999 0.7393352630310001 0.3580005263130001 Zr
atom_frac 0.4308277641644999 0.7393352630310001 0.3580005263130001 Zr
atom_frac 0.6808277641644999 0.7393352630310001 0.3580005263130001 Zr
atom_frac 0.9308277641645002 0.7393352630310001 0.3580005263130001 Zr
atom_frac 0.1808277641644999 0.9893352630310001 0.3580005263130001 Zr
atom_frac 0.4308277641644999 0.9893352630310001 0.3580005263130001 Zr
atom_frac 0.6808277641644999 0.9893352630310001 0.3580005263130001 Zr
atom_frac 0.9308277641645002 0.9893352630310001 0.3580005263130001 Zr
atom_frac 0.1808277641644999 0.2393352630310000 0.5580005263130001 Zr
atom_frac 0.4308277641644999 0.2393352630310000 0.5580005263130001 Zr
atom_frac 0.6808277641644999 0.2393352630310000 0.5580005263130001 Zr
atom_frac 0.9308277641645000 0.2393352630310000 0.5580005263130001 Zr
atom_frac 0.1808277641644999 0.4893352630310000 0.5580005263130001 Zr
atom_frac 0.4308277641644999 0.4893352630310000 0.5580005263130001 Zr
atom_frac 0.6808277641644999 0.4893352630310000 0.5580005263130001 Zr
atom_frac 0.9308277641645000 0.4893352630310000 0.5580005263130001 Zr
atom_frac 0.1808277641644999 0.7393352630310001 0.5580005263130001 Zr
atom_frac 0.4308277641644999 0.7393352630310001 0.5580005263130001 Zr
atom_frac 0.6808277641644999 0.7393352630310001 0.5580005263130001 Zr
atom_frac 0.9308277641645000 0.7393352630310001 0.5580005263130001 Zr
atom_frac 0.1808277641644999 0.9893352630310001 0.5580005263130001 Zr
atom_frac 0.4308277641644999 0.9893352630310001 0.5580005263130001 Zr
atom_frac 0.6808277641644999 0.9893352630310001 0.5580005263130001 Zr
atom_frac 0.9308277641645000 0.9893352630310001 0.5580005263130001 Zr
atom_frac 0.1808277641644999 0.2393352630310000 0.7580005263130001 Zr
atom_frac 0.4308277641644999 0.2393352630310000 0.7580005263130001 Zr
atom_frac 0.6808277641644999 0.2393352630310000 0.7580005263130001 Zr
atom_frac 0.9308277641645002 0.2393352630310000 0.7580005263130001 Zr
atom_frac 0.1808277641644999 0.4893352630310000 0.7580005263130001 Zr
atom_frac 0.4308277641644999 0.4893352630310000 0.7580005263130001 Zr
atom_frac 0.6808277641644999 0.4893352630310000 0.7580005263130001 Zr
atom_frac 0.9308277641645002 0.4893352630310000 0.7580005263130001 Zr
atom_frac 0.1808277641644999 0.7393352630310001 0.7580005263130001 Zr
atom_frac 0.4308277641644999 0.7393352630310001 0.7580005263130001 Zr
atom_frac 0.6808277641644999 0.7393352630310001 0.7580005263130001 Zr
atom_frac 0.9308277641645002 0.7393352630310001 0.7580005263130001 Zr
atom_frac 0.1808277641644999 0.9893352630310001 0.7580005263130001 Zr
atom_frac 0.4308277641644999 0.9893352630310001 0.7580005263130001 Zr
atom_frac 0.6808277641644999 0.9893352630310001 0.7580005263130001 Zr
atom_frac 0.9308277641645002 0.9893352630310001 0.7580005263130001 Zr
atom_frac 0.1808277641644999 0.2393352630310000 0.9580005263130001 Zr
atom_frac 0.4308277641645000 0.2393352630310000 0.9580005263130001 Zr
atom_frac 0.6808277641644999 0.2393352630310000 0.9580005263130001 Zr
atom_frac 0.9308277641645000 0.2393352630310000 0.9580005263130001 Zr
atom_frac 0.1808277641644999 0.4893352630310000 0.9580005263130001 Zr
atom_frac 0.4308277641645000 0.4893352630310000 0.9580005263130001 Zr
atom_frac 0.6808277641644999 0.4893352630310000 0.9580005263130001 Zr
atom_frac 0.9308277641645000 0.4893352630310000 0.9580005263130001 Zr
atom_frac 0.1808277641644999 0.7393352630310001 0.9580005263130001 Zr
atom_frac 0.4308277641645000 0.7393352630310001 0.9580005263130001 Zr
atom_frac 0.6808277641644999 0.7393352630310001 0.9580005263130001 Zr
atom_frac 0.9308277641645000 0.7393352630310001 0.9580005263130001 Zr
atom_frac 0.1808277641644999 0.9893352630310001 0.9580005263130001 Zr
atom_frac 0.4308277641645000 0.9893352630310001 0.9580005263130001 Zr
atom_frac 0.6808277641644999 0.9893352630310001 0.9580005263130001 Zr
atom_frac 0.9308277641645000 0.9893352630310001 0.9580005263130001 Zr
atom_frac 0.1808277641644999 0.1356647369690000 0.0580005263130000 Zr
atom_frac 0.4308277641644999 0.1356647369690000 0.0580005263130000 Zr
atom_frac 0.6808277641644999 0.1356647369690000 0.0580005263130000 Zr
atom_frac 0.9308277641645000 0.1356647369690000 0.0580005263130000 Zr
atom_frac 0.1808277641644999 0.3856647369690001 0.0580005263130000 Zr
atom_frac 0.4308277641644999 0.3856647369690001 0.0580005263130000 Zr
atom_frac 0.6808277641644999 0.3856647369690001 0.0580005263130000 Zr
atom_frac 0.9308277641645000 0.3856647369690001 0.0580005263130000 Zr
atom_frac 0.1808277641644999 0.6356647369690001 0.0580005263130000 Zr
atom_frac 0.4308277641644999 0.6356647369690001 0.0580005263130000 Zr
atom_frac 0.6808277641644999 0.6356647369690001 0.0580005263130000 Zr
atom_frac 0.9308277641645000 0.6356647369690001 0.0580005263130000 Zr
atom_frac 0.1808277641644999 0.8856647369690001 0.0580005263130000 Zr
atom_frac 0.4308277641644999 0.8856647369690001 0.0580005263130000 Zr
atom_frac 0.6808277641644999 0.8856647369690001 0.0580005263130000 Zr
atom_frac 0.9308277641645000 0.8856647369690001 0.0580005263130000 Zr
atom_frac 0.1808277641644999 0.1356647369690000 0.2580005263130000 Zr
atom_frac 0.4308277641644999 0.1356647369690000 0.2580005263130000 Zr
atom_frac 0.6808277641644999 0.1356647369690000 0.2580005263130000 Zr
atom_frac 0.9308277641645000 0.1356647369690000 0.2580005263130000 Zr
atom_frac 0.1808277641644999 0.3856647369690001 0.2580005263130000 Zr
atom_frac 0.4308277641644999 0.3856647369690001 0.2580005263130000 Zr
atom_frac 0.6808277641644999 0.3856647369690001 0.2580005263130000 Zr
atom_frac 0.9308277641645000 0.3856647369690001 0.2580005263130000 Zr
atom_frac 0.1808277641644999 0.6356647369690001 0.2580005263130000 Zr
atom_frac 0.4308277641644999 0.6356647369690001 0.2580005263130000 Zr
atom_frac 0.6808277641644999 0.6356647369690001 0.2580005263130000 Zr
atom_frac 0.9308277641645000 0.6356647369690001 0.2580005263130000 Zr
atom_frac 0.1808277641644999 0.8856647369690001 0.2580005263130000 Zr
atom_frac 0.4308277641644999 0.8856647369690001 0.2580005263130000 Zr
atom_frac 0.6808277641644999 0.8856647369690001 0.2580005263130000 Zr
atom_frac 0.9308277641645000 0.8856647369690001 0.2580005263130000 Zr
atom_frac 0.1808277641644999 0.1356647369690000 0.4580005263130001 Zr
atom_frac 0.4308277641644999 0.1356647369690000 0.4580005263130001 Zr
atom_frac 0.6808277641645000 0.1356647369690000 0.4580005263130001 Zr
atom_frac 0.9308277641645000 0.1356647369690000 0.4580005263130001 Zr
atom_frac 0.1808277641644999 0.3856647369690001 0.4580005263130001 Zr
atom_frac 0.4308277641644999 0.3856647369690001 0.4580005263130001 Zr
atom_frac 0.6808277641645000 0.3856647369690001 0.4580005263130001 Zr
atom_frac 0.9308277641645000 0.3856647369690001 0.4580005263130001 Zr
atom_frac 0.1808277641644999 0.6356647369690001 0.4580005263130001 Zr
atom_frac 0.4308277641644999 0.6356647369690001 0.4580005263130001 Zr
atom_frac 0.6808277641645000 0.6356647369690001 0.4580005263130001 Zr
atom_frac 0.9308277641645000 0.6356647369690001 0.4580005263130001 Zr
atom_frac 0.1808277641644999 0.8856647369690001 0.4580005263130001 Zr
atom_frac 0.4308277641644999 0.8856647369690001 0.4580005263130001 Zr
atom_frac 0.6808277641645000 0.8856647369690001 0.4580005263130001 Zr
atom_frac 0.9308277641645000 0.8856647369690001 0.4580005263130001 Zr
atom_frac 0.1808277641644999 0.1356647369690000 0.6580005263130002 Zr
atom_frac 0.4308277641645000 0.1356647369690000 0.6580005263130002 Zr
atom_frac 0.6808277641644999 0.1356647369690000 0.6580005263130002 Zr
atom_frac 0.9308277641645002 0.1356647369690000 0.6580005263130002 Zr
atom_frac 0.1808277641644999 0.3856647369690001 0.6580005263130002 Zr
atom_frac 0.4308277641645000 0.3856647369690001 0.6580005263130002 Zr
atom_frac 0.6808277641644999 0.3856647369690001 0.6580005263130002 Zr
atom_frac 0.9308277641645002 0.3856647369690001 0.6580005263130002 Zr
atom_frac 0.1808277641644999 0.6356647369690001 0.6580005263130002 Zr
atom_frac 0.4308277641645000 0.6356647369690001 0.6580005263130002 Zr
atom_frac 0.6808277641644999 0.6356647369690001 0.6580005263130002 Zr
atom_frac 0.9308277641645002 0.6356647369690001 0.6580005263130002 Zr
atom_frac 0.1808277641644999 0.8856647369690001 0.6580005263130002 Zr
atom_frac 0.4308277641645000 0.8856647369690001 0.6580005263130002 Zr
atom_frac 0.6808277641644999 0.8856647369690001 0.6580005263130002 Zr
atom_frac 0.9308277641645002 0.8856647369690001 0.6580005263130002 Zr
atom_frac 0.1808277641644999 0.1356647369690000 0.8580005263130001 Zr
atom_frac 0.4308277641644999 0.1356647369690000 0.8580005263130001 Zr
atom_frac 0.6808277641645000 0.1356647369690000 0.8580005263130001 Zr
atom_frac 0.9308277641645000 0.1356647369690000 0.8580005263130001 Zr
atom_frac 0.1808277641644999 0.3856647369690001 0.8580005263130001 Zr
atom_frac 0.4308277641644999 0.3856647369690001 0.8580005263130001 Zr
atom_frac 0.6808277641645000 0.3856647369690001 0.8580005263130001 Zr
atom_frac 0.9308277641645000 0.3856647369690001 0.8580005263130001 Zr
atom_frac 0.1808277641644999 0.6356647369690001 0.8580005263130001 Zr
atom_frac 0.4308277641644999 0.6356647369690001 0.8580005263130001 Zr
atom_frac 0.6808277641645000 0.6356647369690001 0.8580005263130001 Zr
atom_frac 0.9308277641645000 0.6356647369690001 0.8580005263130001 Zr
atom_frac 0.1808277641644999 0.8856647369690001 0.8580005263130001 Zr
atom_frac 0.4308277641644999 0.8856647369690001 0.8580005263130001 Zr
atom_frac 0.6808277641645000 0.8856647369690001 0.8580005263130001 Zr
atom_frac 0.9308277641645000 0.8856647369690001 0.8580005263130001 Zr
atom_frac 0.0691722215855000 0.1143352630310000 0.1419994764870000 Zr
atom_frac 0.3191722215855000 0.1143352630310000 0.1419994764870000 Zr
atom_frac 0.5691722215854998 0.1143352630310000 0.1419994764870000 Zr
atom_frac 0.8191722215855000 0.1143352630310000 0.1419994764870000 Zr
atom_frac 0.0691722215855000 0.3643352630310000 0.1419994764870000 Zr
atom_frac 0.3191722215855000 0.3643352630310000 0.1419994764870000 Zr
atom_frac 0.5691722215854998 0.3643352630310000 0.1419994764870000 Zr
atom_frac 0.8191722215855000 0.3643352630310000 0.1419994764870000 Zr
atom_frac 0.0691722215855000 0.6143352630309999 0.1419994764870000 Zr
atom_frac 0.3191722215855000 0.6143352630309999 0.1419994764870000 Zr
atom_frac 0.5691722215854998 0.6143352630309999 0.1419994764870000 Zr
atom_frac 0.8191722215855000 0.6143352630309999 0.1419994764870000 Zr
atom_frac 0.0691722215855000 0.8643352630309999 0.1419994764870000 Zr
atom_frac 0.3191722215855000 0.8643352630309999 0.1419994764870000 Zr
atom_frac 0.5691722215854998 0.8643352630309999 0.1419994764870000 Zr
atom_frac 0.8191722215855000 0.8643352630309999 0.1419994764870000 Zr
atom_frac 0.0691722215855000 0.1143352630310000 0.3419994764870001 Zr
atom_frac 0.3191722215855000 0.1143352630310000 0.3419994764870001 Zr
atom_frac 0.5691722215854998 0.1143352630310000 0.3419994764870001 Zr
atom_frac 0.8191722215855000 0.1143352630310000 0.3419994764870001 Zr
atom_frac 0.0691722215855000 0.3643352630310000 0.3419994764870001 Zr
atom_frac 0.3191722215855000 0.3643352630310000 0.3419994764870001 Zr
atom_frac 0.5691722215854998 0.3643352630310000 0.3419994764870001 Zr
atom_frac 0.8191722215855000 0.3643352630310000 0.3419994764870001 Zr
atom_frac 0.0691722215855000 0.6143352630309999 0.3419994764870001 Zr
atom_frac 0.3191722215855000 0.6143352630309999 0.3419994764870001 Zr
atom_frac 0.5691722215854998 0.6143352630309999 0.3419994764870001 Zr
atom_frac 0.8191722215855000 0.6143352630309999 0.3419994764870001 Zr
atom_frac 0.0691722215855000 0.8643352630309999 0.3419994764870001 Zr
atom_frac 0.3191722215855000 0.8643352630309999 0.3419994764870001 Zr
atom_frac 0.5691722215854998 0.8643352630309999 0.3419994764870001 Zr
atom_frac 0.8191722215855000 0.8643352630309999 0.3419994764870001 Zr
atom_frac 0.0691722215855000 0.1143352630310000 0.5419994764870002 Zr
atom_frac 0.3191722215855000 0.1143352630310000 0.5419994764870002 Zr
atom_frac 0.5691722215854998 0.1143352630310000 0.5419994764870002 Zr
atom_frac 0.8191722215855000 0.1143352630310000 0.5419994764870002 Zr
atom_frac 0.0691722215855000 0.3643352630310000 0.5419994764870002 Zr
atom_frac 0.3191722215855000 0.3643352630310000 0.5419994764870002 Zr
atom_frac 0.5691722215854998 0.3643352630310000 0.5419994764870002 Zr
atom_frac 0.8191722215855000 0.3643352630310000 0.5419994764870002 Zr
atom_frac 0.0691722215855000 0.6143352630309999 0.5419994764870002 Zr
atom_frac 0.3191722215855000 0.6143352630309999 0.5419994764870002 Zr
atom_frac 0.5691722215854998 0.6143352630309999 0.5419994764870002 Zr
atom_frac 0.8191722215855000 0.6143352630309999 0.5419994764870002 Zr
atom_frac 0.0691722215855000 0.8643352630309999 0.5419994764870002 Zr
atom_frac 0.3191722215855000 0.8643352630309999 0.5419994764870002 Zr
atom_frac 0.5691722215854998 0.8643352630309999 0.5419994764870002 Zr
atom_frac 0.8191722215855000 0.8643352630309999 0.5419994764870002 Zr
atom_frac 0.0691722215855000 0.1143352630310000 0.7419994764870000 Zr
atom_frac 0.3191722215855000 0.1143352630310000 0.7419994764870000 Zr
atom_frac 0.5691722215854998 0.1143352630310000 0.7419994764870000 Zr
atom_frac 0.8191722215855000 0.1143352630310000 0.7419994764870000 Zr
atom_frac 0.0691722215855000 0.3643352630310000 0.7419994764870000 Zr
atom_frac 0.3191722215855000 0.3643352630310000 0.7419994764870000 Zr
atom_frac 0.5691722215854998 0.3643352630310000 0.7419994764870000 Zr
atom_frac 0.8191722215855000 0.3643352630310000 0.7419994764870000 Zr
atom_frac 0.0691722215855000 0.6143352630309999 0.7419994764870000 Zr
atom_frac 0.3191722215855000 0.6143352630309999 0.7419994764870000 Zr
atom_frac 0.5691722215854998 0.6143352630309999 0.7419994764870000 Zr
atom_frac 0.8191722215855000 0.6143352630309999 0.7419994764870000 Zr
atom_frac 0.0691722215855000 0.8643352630309999 0.7419994764870000 Zr
atom_frac 0.3191722215855000 0.8643352630309999 0.7419994764870000 Zr
atom_frac 0.5691722215854998 0.8643352630309999 0.7419994764870000 Zr
atom_frac 0.8191722215855000 0.8643352630309999 0.7419994764870000 Zr
atom_frac 0.0691722215855000 0.1143352630310000 0.9419994764870001 Zr
atom_frac 0.3191722215855000 0.1143352630310000 0.9419994764870001 Zr
atom_frac 0.5691722215854998 0.1143352630310000 0.9419994764870001 Zr
atom_frac 0.8191722215855000 0.1143352630310000 0.9419994764870001 Zr
atom_frac 0.0691722215855000 0.3643352630310000 0.9419994764870001 Zr
atom_frac 0.3191722215855000 0.3643352630310000 0.9419994764870001 Zr
atom_frac 0.5691722215854998 0.3643352630310000 0.9419994764870001 Zr
atom_frac 0.8191722215855000 0.3643352630310000 0.9419994764870001 Zr
atom_frac 0.0691722215855000 0.6143352630309999 0.9419994764870001 Zr
atom_frac 0.3191722215855000 0.6143352630309999 0.9419994764870001 Zr
atom_frac 0.5691722215854998 0.6143352630309999 0.9419994764870001 Zr
atom_frac 0.8191722215855000 0.6143352630309999 0.9419994764870001 Zr
atom_frac 0.0691722215855000 0.8643352630309999 0.9419994764870001 Zr
atom_frac 0.3191722215855000 0.8643352630309999 0.9419994764870001 Zr
atom_frac 0.5691722215854998 0.8643352630309999 0.9419994764870001 Zr
atom_frac 0.8191722215855000 0.8643352630309999 0.9419994764870001 Zr
atom_frac 0.0173663800865000 0.0837268306590000 0.0685356962272000 O
atom_frac 0.2673663800865000 0.0837268306590000 0.0685356962272000 O
atom_frac 0.5173663800865000 0.0837268306590000 0.0685356962272000 O
atom_frac 0.7673663800865000 0.0837268306590000 0.0685356962272000 O
atom_frac 0.0173663800865000 0.3337268306590000 0.0685356962272000 O
atom_frac 0.2673663800865000 0.3337268306590000 0.0685356962272000 O
atom_frac 0.5173663800865000 0.3337268306590000 0.0685356962272000 O
atom_frac 0.7673663800865000 0.3337268306590000 0.0685356962272000 O
atom_frac 0.0173663800865000 0.5837268306590000 0.0685356962272000 O
atom_frac 0.2673663800865000 0.5837268306590000 0.0685356962272000 O
atom_frac 0.5173663800865000 0.5837268306590000 0.0685356962272000 O
atom_frac 0.7673663800865000 0.5837268306590000 0.0685356962272000 O
atom_frac 0.0173663800865000 0.8337268306590001 0.0685356962272000 O
atom_frac 0.2673663800865000 0.8337268306590001 0.0685356962272000 O
atom_frac 0.5173663800865000 0.8337268306590001 0.0685356962272000 O
atom_frac 0.7673663800865000 0.8337268306590001 0.0685356962272000 O
atom_frac 0.0173663800865000 0.0837268306590000 0.2685356962272000 O
atom_frac 0.2673663800865000 0.0837268306590000 0.2685356962272000 O
atom_frac 0.5173663800865000 0.0837268306590000 0.2685356962272000 O
atom_frac 0.7673663800865000 0.0837268306590000 0.2685356962272000 O
atom_frac 0.0173663800865000 0.3337268306590000 0.2685356962272000 O
atom_frac 0.2673663800865000 0.3337268306590000 0.2685356962272000 O
atom_frac 0.5173663800865000 0.3337268306590000 0.2685356962272000 O
atom_frac 0.7673663800865000 0.3337268306590000 0.2685356962272000 O
atom_frac 0.0173663800865000 0.5837268306590000 0.2685356962272000 O
atom_frac 0.2673663800865000 0.5837268306590000 0.2685356962272000 O
atom_frac 0.5173663800865000 0.5837268306590000 0.2685356962272000 O
atom_frac 0.7673663800865000 0.5837268306590000 0.2685356962272000 O
atom_frac 0.0173663800865000 0.8337268306590001 0.2685356962272000 O
atom_frac 0.2673663800865000 0.8337268306590001 0.2685356962272000 O
atom_frac 0.5173663800865000 0.8337268306590001 0.2685356962272000 O
atom_frac 0.7673663800865000 0.8337268306590001 0.2685356962272000 O
atom_frac 0.0173663800865000 0.0837268306590000 0.4685356962272000 O
atom_frac 0.2673663800865000 0.0837268306590000 0.4685356962272000 O
atom_frac 0.5173663800864999 0.0837268306590000 0.4685356962272000 O
atom_frac 0.7673663800865000 0.0837268306590000 0.4685356962272000 O
atom_frac 0.0173663800865000 0.3337268306590000 0.4685356962272000 O
atom_frac 0.2673663800865000 0.3337268306590000 0.4685356962272000 O
atom_frac 0.5173663800864999 0.3337268306590000 0.4685356962272000 O
atom_frac 0.7673663800865000 0.3337268306590000 0.4685356962272000 O
atom_frac 0.0173663800865000 0.5837268306590000 0.4685356962272000 O
atom_frac 0.2673663800865000 0.5837268306590000 0.4685356962272000 O
atom_frac 0.5173663800864999 0.5837268306590000 0.4685356962272000 O
atom_frac 0.7673663800865000 0.5837268306590000 0.4685356962272000 O
atom_frac 0.0173663800865000 0.8337268306590001 0.4685356962272000 O
atom_frac 0.2673663800865000 0.8337268306590001 0.4685356962272000 O
atom_frac 0.5173663800864999 0.8337268306590001 0.4685356962272000 O
atom_frac 0.7673663800865000 0.8337268306590001 0.4685356962272000 O
atom_frac 0.0173663800865000 0.0837268306590000 0.6685356962272001 O
atom_frac 0.2673663800865000 0.0837268306590000 0.6685356962272001 O
atom_frac 0.5173663800865000 0.0837268306590000 0.6685356962272001 O
atom_frac 0.7673663800865000 0.0837268306590000 0.6685356962272001 O
atom_frac 0.0173663800865000 0.3337268306590000 0.6685356962272001 O
atom_frac 0.2673663800865000 0.3337268306590000 0.6685356962272001 O
atom_frac 0.5173663800865000 0.3337268306590000 0.6685356962272001 O
atom_frac 0.7673663800865000 0.3337268306590000 0.6685356962272001 O
atom_frac 0.0173663800865000 0.5837268306590000 0.6685356962272001 O
atom_frac 0.2673663800865000 0.5837268306590000 0.6685356962272001 O
atom_frac 0.5173663800865000 0.5837268306590000 0.6685356962272001 O
atom_frac 0.7673663800865000 0.5837268306590000 0.6685356962272001 O
atom_frac 0.0173663800865000 0.8337268306590001 0.6685356962272001 O
atom_frac 0.2673663800865000 0.8337268306590001 0.6685356962272001 O
atom_frac 0.5173663800865000 0.8337268306590001 0.6685356962272001 O
atom_frac 0.7673663800865000 0.8337268306590001 0.6685356962272001 O
atom_frac 0.0173663800865000 0.0837268306590000 0.8685356962271999 O
atom_frac 0.2673663800865000 0.0837268306590000 0.8685356962271999 O
atom_frac 0.5173663800865000 0.0837268306590000 0.8685356962271999 O
atom_frac 0.7673663800865000 0.0837268306590000 0.8685356962271999 O
atom_frac 0.0173663800865000 0.3337268306590000 0.8685356962271999 O
atom_frac 0.2673663800865000 0.3337268306590000 0.8685356962271999 O
atom_frac 0.5173663800865000 0.3337268306590000 0.8685356962271999 O
atom_frac 0.7673663800865000 0.3337268306590000 0.8685356962271999 O
atom_frac 0.0173663800865000 0.5837268306590000 0.8685356962271999 O
atom_frac 0.2673663800865000 0.5837268306590000 0.8685356962271999 O
atom_frac 0.5173663800865000 0.5837268306590000 0.8685356962271999 O
atom_frac 0.7673663800865000 0.5837268306590000 0.8685356962271999 O
atom_frac 0.0173663800865000 0.8337268306590001 0.8685356962271999 O
atom_frac 0.2673663800865000 0.8337268306590001 0.8685356962271999 O
atom_frac 0.5173663800865000 0.8337268306590001 0.8685356962271999 O
atom_frac 0.7673663800865000 0.8337268306590001 0.8685356962271999 O
atom_frac 0.2326336056634999 0.1662731693410000 0.1314643065728000 O
atom_frac 0.4826336056634999 0.1662731693410000 0.1314643065728000 O
atom_frac 0.7326336056634999 0.1662731693410000 0.1314643065728000 O
atom_frac 0.9826336056634998 0.1662731693410000 0.1314643065728000 O
atom_frac 0.2326336056634999 0.4162731693409999 0.1314643065728000 O
atom_frac 0.4826336056634999 0.4162731693409999 0.1314643065728000 O
atom_frac 0.7326336056634999 0.4162731693409999 0.1314643065728000 O
atom_frac 0.9826336056634998 0.4162731693409999 0.1314643065728000 O
atom_frac 0.2326336056634999 0.6662731693410000 0.1314643065728000 O
atom_frac 0.4826336056634999 0.6662731693410000 0.1314643065728000 O
atom_frac 0.7326336056634999 0.6662731693410000 0.1314643065728000 O
atom_frac 0.9826336056634998 0.6662731693410000 0.1314643065728000 O
atom_frac 0.2326336056634999 0.9162731693410000 0.1314643065728000 O
atom_frac 0.4826336056634999 0.9162731693410000 0.1314643065728000 O
atom_frac 0.7326336056634999 0.9162731693410000 0.1314643065728000 O
atom_frac 0.9826336056634998 0.9162731693410000 0.1314643065728000 O
atom_frac 0.2326336056634999 0.1662731693410000 0.3314643065728000 O
atom_frac 0.4826336056634999 0.1662731693410000 0.3314643065728000 O
atom_frac 0.7326336056634999 0.1662731693410000 0.3314643065728000 O
atom_frac 0.9826336056634998 0.1662731693410000 0.3314643065728000 O