#=======================================================
# FHI-aims file: 300_geometry.in.primitive.supercell_96
# Created using the Atomic Simulation Environment (ASE)
# Wed Aug 24 13:57:51 2022

# Additional information:
#  Number of atoms:     96
#  Spacegroup:          14
#  supercell:           True
#  supercell_matrix:    [2, 0, 0, 0, 2, 0, 0, 0, 2]
#  Supercell matrix:    [2 0 0 0 2 0 0 0 2]
#=======================================================
lattice_vector 10.2940000000000005 0.0000000000000000 0.0000000000000000 
lattice_vector 0.0000000000000000 10.4399999999999995 0.0000000000000000 
lattice_vector -1.7207574871085876 0.0000000000000000 10.5080396682996842 
atom_frac 0.1383444431710000 0.0213294739380000 0.1049986912175000 Zr
atom_frac 0.6383444431710000 0.0213294739380000 0.1049986912175000 Zr
atom_frac 0.1383444431710000 0.5213294739380000 0.1049986912175000 Zr
atom_frac 0.6383444431710000 0.5213294739380000 0.1049986912175000 Zr
atom_frac 0.1383444431710000 0.0213294739380000 0.6049986912175001 Zr
atom_frac 0.6383444431710000 0.0213294739380000 0.6049986912175001 Zr
atom_frac 0.1383444431710000 0.5213294739380000 0.6049986912175001 Zr
atom_frac 0.6383444431710000 0.5213294739380000 0.6049986912175001 Zr
atom_frac 0.3616555283290001 0.4786705260620001 0.3950013157825000 Zr
atom_frac 0.8616555283290002 0.4786705260620001 0.3950013157825000 Zr
atom_frac 0.3616555283290001 0.9786705260620002 0.3950013157825000 Zr
atom_frac 0.8616555283290002 0.9786705260620002 0.3950013157825000 Zr
atom_frac 0.3616555283290001 0.4786705260620001 0.8950013157824999 Zr
atom_frac 0.8616555283290002 0.4786705260620001 0.8950013157824999 Zr
atom_frac 0.3616555283290001 0.9786705260620002 0.8950013157824999 Zr
atom_frac 0.8616555283290002 0.9786705260620002 0.8950013157824999 Zr
atom_frac 0.3616555283289999 0.2713294739380001 0.1450013157825001 Zr
atom_frac 0.8616555283289999 0.2713294739380001 0.1450013157825001 Zr
atom_frac 0.3616555283289999 0.7713294739380000 0.1450013157825001 Zr
atom_frac 0.8616555283289999 0.7713294739380000 0.1450013157825001 Zr
atom_frac 0.3616555283289999 0.2713294739380001 0.6450013157825001 Zr
atom_frac 0.8616555283289999 0.2713294739380001 0.6450013157825001 Zr
atom_frac 0.3616555283289999 0.7713294739380000 0.6450013157825001 Zr
atom_frac 0.8616555283289999 0.7713294739380000 0.6450013157825001 Zr
atom_frac 0.1383444431710000 0.2286705260620000 0.3549986912174999 Zr
atom_frac 0.6383444431710000 0.2286705260620000 0.3549986912174999 Zr
atom_frac 0.1383444431710000 0.7286705260620000 0.3549986912174999 Zr
atom_frac 0.6383444431710000 0.7286705260620000 0.3549986912174999 Zr
atom_frac 0.1383444431710000 0.2286705260620000 0.8549986912174999 Zr
atom_frac 0.6383444431709999 0.2286705260620000 0.8549986912174999 Zr
atom_frac 0.1383444431710000 0.7286705260620000 0.8549986912174999 Zr
atom_frac 0.6383444431709999 0.7286705260620000 0.8549986912174999 Zr
atom_frac 0.0347327601730000 0.1674536613180000 0.1713392405680000 O
atom_frac 0.5347327601730000 0.1674536613180000 0.1713392405680000 O
atom_frac 0.0347327601730000 0.6674536613180000 0.1713392405680000 O
atom_frac 0.5347327601730000 0.6674536613180000 0.1713392405680000 O
atom_frac 0.0347327601730000 0.1674536613180000 0.6713392405680001 O
atom_frac 0.5347327601730000 0.1674536613180000 0.6713392405680001 O
atom_frac 0.0347327601730000 0.6674536613180000 0.6713392405680001 O
atom_frac 0.5347327601730000 0.6674536613180000 0.6713392405680001 O
atom_frac 0.4652672113269999 0.3325463386820001 0.3286607664320000 O
atom_frac 0.9652672113270000 0.3325463386820001 0.3286607664320000 O
atom_frac 0.4652672113269999 0.8325463386820000 0.3286607664320000 O
atom_frac 0.9652672113270000 0.8325463386820000 0.3286607664320000 O
atom_frac 0.4652672113269999 0.3325463386820001 0.8286607664320000 O
atom_frac 0.9652672113270000 0.3325463386820001 0.8286607664320000 O
atom_frac 0.4652672113269999 0.8325463386820000 0.8286607664320000 O
atom_frac 0.9652672113270000 0.8325463386820000 0.8286607664320000 O
atom_frac 0.4652672113270001 0.4174536613180000 0.0786607664320000 O
atom_frac 0.9652672113270000 0.4174536613180000 0.0786607664320000 O
atom_frac 0.4652672113270001 0.9174536613180001 0.0786607664320000 O
atom_frac 0.9652672113270000 0.9174536613180001 0.0786607664320000 O
atom_frac 0.4652672113270001 0.4174536613180000 0.5786607664320000 O
atom_frac 0.9652672113270000 0.4174536613180000 0.5786607664320000 O
atom_frac 0.4652672113270001 0.9174536613180001 0.5786607664320000 O
atom_frac 0.9652672113270000 0.9174536613180001 0.5786607664320000 O
atom_frac 0.0347327601730000 0.0825463386820000 0.4213392405680002 O
atom_frac 0.5347327601730000 0.0825463386820000 0.4213392405680002 O
atom_frac 0.0347327601730000 0.5825463386820000 0.4213392405680002 O
atom_frac 0.5347327601730000 0.5825463386820000 0.4213392405680002 O
atom_frac 0.0347327601730000 0.0825463386820000 0.9213392405680000 O
atom_frac 0.5347327601730000 0.0825463386820000 0.9213392405680000 O
atom_frac 0.0347327601730000 0.5825463386820000 0.9213392405680000 O
atom_frac 0.5347327601730000 0.5825463386820000 0.9213392405680000 O
atom_frac 0.2246141866374999 0.3787152644040001 0.2396045997645000 O
atom_frac 0.7246141866375000 0.3787152644040001 0.2396045997645000 O
atom_frac 0.2246141866374999 0.8787152644040001 0.2396045997645000 O
atom_frac 0.7246141866375000 0.8787152644040001 0.2396045997645000 O
atom_frac 0.2246141866374999 0.3787152644040001 0.7396045997645000 O
atom_frac 0.7246141866375000 0.3787152644040001 0.7396045997645000 O
atom_frac 0.2246141866374999 0.8787152644040001 0.7396045997645000 O
atom_frac 0.7246141866375000 0.8787152644040001 0.7396045997645000 O
atom_frac 0.2753857848624999 0.1212847355960000 0.2603954072355001 O
atom_frac 0.7753857848624999 0.1212847355960000 0.2603954072355001 O
atom_frac 0.2753857848624999 0.6212847355960001 0.2603954072355001 O
atom_frac 0.7753857848624999 0.6212847355960001 0.2603954072355001 O
atom_frac 0.2753857848624999 0.1212847355960000 0.7603954072355001 O
atom_frac 0.7753857848624999 0.1212847355960000 0.7603954072355001 O
atom_frac 0.2753857848624999 0.6212847355960001 0.7603954072355001 O
atom_frac 0.7753857848624999 0.6212847355960001 0.7603954072355001 O
atom_frac 0.2753857848625000 0.1287152644040000 0.0103954072355000 O
atom_frac 0.7753857848625000 0.1287152644040000 0.0103954072355000 O
atom_frac 0.2753857848625000 0.6287152644039999 0.0103954072355000 O
atom_frac 0.7753857848625000 0.6287152644039999 0.0103954072355000 O
atom_frac 0.2753857848625000 0.1287152644040000 0.5103954072355000 O
atom_frac 0.7753857848625000 0.1287152644040000 0.5103954072355000 O
atom_frac 0.2753857848625000 0.6287152644039999 0.5103954072355000 O
atom_frac 0.7753857848625000 0.6287152644039999 0.5103954072355000 O
atom_frac 0.2246141866375000 0.3712847355960001 0.4896045997645002 O
atom_frac 0.7246141866375000 0.3712847355960001 0.4896045997645002 O
atom_frac 0.2246141866375000 0.8712847355960002 0.4896045997645002 O
atom_frac 0.7246141866375000 0.8712847355960002 0.4896045997645002 O
atom_frac 0.2246141866375000 0.3712847355960001 0.9896045997645002 O
atom_frac 0.7246141866375000 0.3712847355960001 0.9896045997645002 O
atom_frac 0.2246141866375000 0.8712847355960002 0.9896045997645002 O
atom_frac 0.7246141866375000 0.8712847355960002 0.9896045997645002 O
