#=======================================================
# FHI-aims file: 300_geometry.in.primitive.supercell_2592.0010K
# Created using the Atomic Simulation Environment (ASE)
# Wed Aug 24 14:02:08 2022

# Additional information:
#  created from MB distrubtion
#  T = 10.0 K
#  quantum:             False
#  deterministic:       False
#  plus_minus:          False
#  gauge_eigenvectors:  False
#  Random seed:         1410444541
#  Sample number:       1
#=======================================================
lattice_vector 30.8820000000000014 0.0000000000000000 0.0000000000000000 
lattice_vector 0.0000000000000000 31.3200000000000003 0.0000000000000000 
lattice_vector -5.1622724613257631 0.0000000000000000 31.5241190048990525 
atom 1.2434404139531570 0.2226797079127200 1.1033304124330405 Zr
    velocity -0.4664660728688137 0.1056975007788056 -0.6184156772095948
atom 6.3904404139531588 0.2226797079127200 1.1033304124330405 Zr
    velocity -0.2245420696662218 0.2770612093716270 -0.1479763777945581
atom 11.5374404139531563 0.2226797079127200 1.1033304124330405 Zr
    velocity -0.0366567321368330 0.0987958107386734 0.2738894952590189
atom 16.6844404139531548 0.2226797079127200 1.1033304124330405 Zr
    velocity 0.0331952499075414 0.5308745779470840 -0.4340890027783117
atom 21.8314404139531533 0.2226797079127200 1.1033304124330405 Zr
    velocity 0.2054846268370915 -0.2075203019539858 -0.2410325036080183
atom 26.9784404139531553 0.2226797079127200 1.1033304124330405 Zr
    velocity -0.0039855809187494 0.3710309731999931 0.5413959015036459
atom 1.2434404139531570 5.4426797079127178 1.1033304124330405 Zr
    velocity -0.0936258100774520 -0.2214338499965364 0.3374872343476783
atom 6.3904404139531588 5.4426797079127178 1.1033304124330405 Zr
    velocity 0.1833651082013089 -0.0938456925809188 0.1196954539438154
atom 11.5374404139531563 5.4426797079127178 1.1033304124330405 Zr
    velocity 0.1088446964651115 0.1397845989718811 -0.8526338790080190
atom 16.6844404139531548 5.4426797079127178 1.1033304124330405 Zr
    velocity -0.3044764709846426 0.2962502257483510 -0.1221386354320565
atom 21.8314404139531533 5.4426797079127178 1.1033304124330405 Zr
    velocity 0.5799028996796645 0.0201801940445595 -0.5275891553430228
atom 26.9784404139531553 5.4426797079127178 1.1033304124330405 Zr
    velocity -0.1493881414571034 -0.4064345756988427 0.6181980687841624
atom 1.2434404139531570 10.6626797079127176 1.1033304124330405 Zr
    velocity 0.0620094788443661 0.0496513266448315 0.1513571430831570
atom 6.3904404139531588 10.6626797079127176 1.1033304124330405 Zr
    velocity 0.1624783668655375 -0.0815147246856857 -0.2149661600181220
atom 11.5374404139531563 10.6626797079127176 1.1033304124330405 Zr
    velocity 0.1026471982008444 0.1815229235859003 0.1728735636611928
atom 16.6844404139531548 10.6626797079127176 1.1033304124330405 Zr
    velocity -0.0953072362039994 -0.1970027932685863 0.3171645116910718
atom 21.8314404139531533 10.6626797079127176 1.1033304124330405 Zr
    velocity -0.0689397203638562 0.2924750289016163 -0.1205858526563852
atom 26.9784404139531553 10.6626797079127176 1.1033304124330405 Zr
    velocity -0.1353263930653292 -0.0721553197926593 -0.1605585623441024
atom 1.2434404139531570 15.8826797079127182 1.1033304124330405 Zr
    velocity -0.3312956541017837 0.6030486622706637 0.3500734067147677
atom 6.3904404139531588 15.8826797079127182 1.1033304124330405 Zr
    velocity 0.1992153650961462 -0.1098993517992697 0.0205403086677084
atom 11.5374404139531563 15.8826797079127182 1.1033304124330405 Zr
    velocity -0.2920313847718433 -0.2127633127604043 -0.4962393153735752
atom 16.6844404139531548 15.8826797079127182 1.1033304124330405 Zr
    velocity 0.1032364167179609 0.0833973525853181 0.2948885510879652
atom 21.8314404139531533 15.8826797079127182 1.1033304124330405 Zr
    velocity -0.1939022155521653 0.1291531972964466 0.4304470152766504
atom 26.9784404139531553 15.8826797079127182 1.1033304124330405 Zr
    velocity 0.0461339373711373 -0.1997141275084794 0.0713258324384151
atom 1.2434404139531570 21.1026797079127206 1.1033304124330405 Zr
    velocity -0.0160889611607871 -0.1841955987265913 -0.0390291286218232
atom 6.3904404139531588 21.1026797079127206 1.1033304124330405 Zr
    velocity -0.0023414740636263 0.2719357454855811 0.0947037012213794
atom 11.5374404139531563 21.1026797079127206 1.1033304124330405 Zr
    velocity -0.2472667753059526 -0.1299767660882730 -0.1262840270456134
atom 16.6844404139531548 21.1026797079127206 1.1033304124330405 Zr
    velocity 0.1534153414925727 0.4598117005877944 -0.1754796272209773
atom 21.8314404139531533 21.1026797079127206 1.1033304124330405 Zr
    velocity -0.2410013736974249 -0.9658384955174744 0.3510554960829801
atom 26.9784404139531553 21.1026797079127206 1.1033304124330405 Zr
    velocity 0.4158277980573961 0.2134132866120959 -0.4352458407194582
atom 1.2434404139531570 26.3226797079127195 1.1033304124330405 Zr
    velocity -0.2712001782804189 0.0332785098237971 0.2809903009292523
atom 6.3904404139531588 26.3226797079127195 1.1033304124330405 Zr
    velocity -0.3835345059691078 -0.1755343032959296 0.1601050410978070
atom 11.5374404139531563 26.3226797079127195 1.1033304124330405 Zr
    velocity -0.2091244252219600 0.3056911314626030 0.5116471410760992
atom 16.6844404139531548 26.3226797079127195 1.1033304124330405 Zr
    velocity 0.1757466427242849 -0.0183208262544957 0.1148898612424298
atom 21.8314404139531533 26.3226797079127195 1.1033304124330405 Zr
    velocity 0.0354288758250736 0.0764366038906338 -0.3195578235732100
atom 26.9784404139531553 26.3226797079127195 1.1033304124330405 Zr
    velocity 0.0274811808640539 0.0603071034367197 0.2706299878912085
atom 0.3830616703988634 0.2226797079127200 6.3573502465828815 Zr
    velocity 0.1239774526010516 -0.1163578743489935 -0.1252112698244838
atom 5.5300616703988652 0.2226797079127200 6.3573502465828815 Zr
    velocity 0.3644959980206320 0.3844436683464374 -0.0745524891033729
atom 10.6770616703988619 0.2226797079127200 6.3573502465828815 Zr
    velocity -0.1535899265866779 0.1405279223039492 0.1349010125959620
atom 15.8240616703988621 0.2226797079127200 6.3573502465828815 Zr
    velocity 0.4215720027574583 -0.2170164214851376 0.4404762750068431
atom 20.9710616703988606 0.2226797079127200 6.3573502465828815 Zr
    velocity 0.5964386902118204 -0.5797203398163798 -0.1497090193890658
atom 26.1180616703988626 0.2226797079127200 6.3573502465828815 Zr
    velocity 0.2303993584012199 -0.1126158337041663 -0.4029701041420578
atom 0.3830616703988634 5.4426797079127178 6.3573502465828815 Zr
    velocity -0.2676976926719134 0.2474302340921603 -0.0136215706636912
atom 5.5300616703988652 5.4426797079127178 6.3573502465828815 Zr
    velocity 0.0748177267805512 0.4879376457182917 -0.6561747498786364
atom 10.6770616703988619 5.4426797079127178 6.3573502465828815 Zr
    velocity 0.1453975001336333 0.1149529431845120 -0.1066608733905679
atom 15.8240616703988621 5.4426797079127178 6.3573502465828815 Zr
    velocity 0.0124844282891991 0.2508111885202875 0.1663147724383909
atom 20.9710616703988606 5.4426797079127178 6.3573502465828815 Zr
    velocity 0.2959504025867262 0.0222692524063291 0.5191295411274361
atom 26.1180616703988626 5.4426797079127178 6.3573502465828815 Zr
    velocity 0.6377828679628276 -0.4309725707511634 -0.1844144791590331
atom 0.3830616703988634 10.6626797079127176 6.3573502465828815 Zr
    velocity 0.0580686353391106 0.2585727506931643 0.5768471203642210
atom 5.5300616703988652 10.6626797079127176 6.3573502465828815 Zr
    velocity -0.7139556029948887 0.1227993227351227 -0.4405578966890722
atom 10.6770616703988619 10.6626797079127176 6.3573502465828815 Zr
    velocity 0.0660018823802414 0.2295606825739168 0.0960505825514940
atom 15.8240616703988621 10.6626797079127176 6.3573502465828815 Zr
    velocity 0.2963549198584554 0.0560919151791042 -0.6759406456864183
atom 20.9710616703988606 10.6626797079127176 6.3573502465828815 Zr
    velocity 0.0424693322232902 0.1466723859630064 -0.2015235944521489
atom 26.1180616703988626 10.6626797079127176 6.3573502465828815 Zr
    velocity 0.1666580884300707 -0.1145805934078592 -0.4036310389662547
atom 0.3830616703988634 15.8826797079127182 6.3573502465828815 Zr
    velocity 0.0046316785888836 -0.2802327739034109 -0.0431572315235662
atom 5.5300616703988652 15.8826797079127182 6.3573502465828815 Zr
    velocity 0.3921730396075462 0.1955679166996728 -0.1836014060066591
atom 10.6770616703988619 15.8826797079127182 6.3573502465828815 Zr
    velocity -0.3445436181718586 0.4066641225059154 0.1236872695811099
atom 15.8240616703988621 15.8826797079127182 6.3573502465828815 Zr
    velocity -0.1725774801169998 0.0522866067402908 -0.1509589367375494
atom 20.9710616703988606 15.8826797079127182 6.3573502465828815 Zr
    velocity 0.6646464434924697 -0.1639719858796214 0.3159726791564074
atom 26.1180616703988626 15.8826797079127182 6.3573502465828815 Zr
    velocity 0.0741794814605178 0.0945700038955137 0.5291918636160258
atom 0.3830616703988634 21.1026797079127206 6.3573502465828815 Zr
    velocity -0.1444733567841380 0.0310935383561582 -0.2762030436622394
atom 5.5300616703988652 21.1026797079127206 6.3573502465828815 Zr
    velocity 0.3908350336645176 0.2900225516647758 -0.5859821367471016
atom 10.6770616703988619 21.1026797079127206 6.3573502465828815 Zr
    velocity -0.0675663150420639 0.4797142720135348 0.1821395966580724
atom 15.8240616703988621 21.1026797079127206 6.3573502465828815 Zr
    velocity 0.1688602274462231 0.3541003926805942 -0.0360731432584643
atom 20.9710616703988606 21.1026797079127206 6.3573502465828815 Zr
    velocity 0.4849237524499976 -0.4369194285313441 -0.3280271231288329
atom 26.1180616703988626 21.1026797079127206 6.3573502465828815 Zr
    velocity 0.2865202385374626 0.3385932726965826 -0.3716796159427397
atom 0.3830616703988634 26.3226797079127195 6.3573502465828815 Zr
    velocity 0.1548336800194525 0.1455035718380520 -0.3637334569379914
atom 5.5300616703988652 26.3226797079127195 6.3573502465828815 Zr
    velocity 0.0821788996089356 -0.2995125434401150 -0.0047201321092986
atom 10.6770616703988619 26.3226797079127195 6.3573502465828815 Zr
    velocity 0.5515768975126890 0.0253822330576525 0.3856662168452109
atom 15.8240616703988621 26.3226797079127195 6.3573502465828815 Zr
    velocity -0.3673114709965321 0.2686710548511912 0.3959947327113808
atom 20.9710616703988606 26.3226797079127195 6.3573502465828815 Zr
    velocity -0.0070192322786329 0.4644091696102663 0.3348526605189056
atom 26.1180616703988626 26.3226797079127195 6.3573502465828815 Zr
    velocity 0.0504823263072349 0.3368234859429056 -0.1065337641611145
atom -0.4773170731554306 0.2226797079127200 11.6113700807327245 Zr
    velocity -0.1752771805441621 -0.2589908229270455 0.1917922154973012
atom 4.6696829268445716 0.2226797079127200 11.6113700807327245 Zr
    velocity -0.1206565880755731 0.4191308211497248 -0.4771700470957869
atom 9.8166829268445692 0.2226797079127200 11.6113700807327245 Zr
    velocity -0.2071249490728649 -0.0912665742288195 0.6041238554399588
atom 14.9636829268445695 0.2226797079127200 11.6113700807327245 Zr
    velocity -0.0279501738970555 0.2616277969031620 0.4232072488906309
atom 20.1106829268445679 0.2226797079127200 11.6113700807327245 Zr
    velocity -0.0627636360392620 0.1344557684054703 0.3156048130800276
atom 25.2576829268445699 0.2226797079127200 11.6113700807327245 Zr
    velocity -0.1086703835780555 0.3328934402756926 0.8706107140040329
atom -0.4773170731554306 5.4426797079127178 11.6113700807327245 Zr
    velocity 0.1144041854446474 -0.0362327932241592 -0.1257861102660989
atom 4.6696829268445716 5.4426797079127178 11.6113700807327245 Zr
    velocity 0.1112590210584873 0.7921972626327611 0.1057674154885699
atom 9.8166829268445692 5.4426797079127178 11.6113700807327245 Zr
    velocity 0.3364855872494809 0.0451178961103874 0.3329082209860545
atom 14.9636829268445695 5.4426797079127178 11.6113700807327245 Zr
    velocity 0.0907616503677945 -0.5160641210598208 -0.4509854779487216
atom 20.1106829268445679 5.4426797079127178 11.6113700807327245 Zr
    velocity -0.3798008750466729 0.1652014874570530 0.2232491112346201
atom 25.2576829268445699 5.4426797079127178 11.6113700807327245 Zr
    velocity -0.0237742590293645 -0.5175569389974447 -0.3495775093480893
atom -0.4773170731554306 10.6626797079127176 11.6113700807327245 Zr
    velocity -0.3944814294204846 0.0616336695113121 0.0754130435863602
atom 4.6696829268445716 10.6626797079127176 11.6113700807327245 Zr
    velocity -0.4333250006948989 -0.0221601489286410 0.3288466053092317
atom 9.8166829268445692 10.6626797079127176 11.6113700807327245 Zr
    velocity -0.3272584600514640 -0.1129595976171941 -0.4261101154294314
atom 14.9636829268445695 10.6626797079127176 11.6113700807327245 Zr
    velocity -0.0690119915579807 0.0448590605025567 0.2221313787120084
atom 20.1106829268445679 10.6626797079127176 11.6113700807327245 Zr
    velocity -0.1390430855565084 -0.1358601607719462 -0.3735396162662780
atom 25.2576829268445699 10.6626797079127176 11.6113700807327245 Zr
    velocity -0.0768510707578325 0.0336904381493445 0.4473685827104121
atom -0.4773170731554306 15.8826797079127182 11.6113700807327245 Zr
    velocity 0.4412019082631016 -0.2785926269861772 -0.3136136169473707
atom 4.6696829268445716 15.8826797079127182 11.6113700807327245 Zr
    velocity -0.3746396545812131 -0.3333819349318664 0.2300532543470172
atom 9.8166829268445692 15.8826797079127182 11.6113700807327245 Zr
    velocity 0.2019628975960172 -0.7682592339376182 -0.0628112317568470
atom 14.9636829268445695 15.8826797079127182 11.6113700807327245 Zr
    velocity 0.1446536781095815 0.5015344517629093 0.0168369717637621
atom 20.1106829268445679 15.8826797079127182 11.6113700807327245 Zr
    velocity 0.4439468525017237 -0.2464722431772063 -0.5891019506843328
atom 25.2576829268445699 15.8826797079127182 11.6113700807327245 Zr
    velocity 0.0437587489793778 -0.3516707049692804 0.4239737612716087
atom -0.4773170731554306 21.1026797079127206 11.6113700807327245 Zr
    velocity 0.2617427708089609 -0.4647704019735016 0.0303321710477904
atom 4.6696829268445716 21.1026797079127206 11.6113700807327245 Zr
    velocity -0.1904471566285920 0.2721103557977417 -0.4888050997399735
atom 9.8166829268445692 21.1026797079127206 11.6113700807327245 Zr
    velocity 0.1627339945266841 -0.0557433619832973 -0.3880599519249595
atom 14.9636829268445695 21.1026797079127206 11.6113700807327245 Zr
    velocity -0.3992686918215376 -0.1030762548475894 -0.4729376024248597
atom 20.1106829268445679 21.1026797079127206 11.6113700807327245 Zr
    velocity -0.2177757519600556 -0.0191398014957089 -0.2088311351329140
atom 25.2576829268445699 21.1026797079127206 11.6113700807327245 Zr
    velocity 0.2950078316872985 -0.2162425707363340 0.0321785983850901
atom -0.4773170731554306 26.3226797079127195 11.6113700807327245 Zr
    velocity 0.2539762092363275 -0.3118344684032530 0.3413948641979183
atom 4.6696829268445716 26.3226797079127195 11.6113700807327245 Zr
    velocity -0.2521894071118376 -0.6132453224978220 -0.0182607010123715
atom 9.8166829268445692 26.3226797079127195 11.6113700807327245 Zr
    velocity 0.0264913081519196 0.0305717276894401 0.1527224213709894
atom 14.9636829268445695 26.3226797079127195 11.6113700807327245 Zr
    velocity 0.3131234667397335 0.1153684060248203 -0.2292732952841029
atom 20.1106829268445679 26.3226797079127195 11.6113700807327245 Zr
    velocity 0.1288983421663648 -0.3082840209013363 0.2374614136317967
atom 25.2576829268445699 26.3226797079127195 11.6113700807327245 Zr
    velocity 0.2685296833583132 -0.0655712692157034 0.2554610080807539
atom -1.3376958167097246 0.2226797079127200 16.8653899148825666 Zr
    velocity 0.3396695687176323 -0.0656155810401397 0.2954992001917766
atom 3.8093041832902772 0.2226797079127200 16.8653899148825666 Zr
    velocity -0.2581919684254249 -0.1618148940886137 -0.3322871634936134
atom 8.9563041832902748 0.2226797079127200 16.8653899148825666 Zr
    velocity 0.2579451703755787 -0.0893734217539401 0.2376042882638173
atom 14.1033041832902750 0.2226797079127200 16.8653899148825666 Zr
    velocity -0.0683282197474131 -0.0094467675643849 0.1421706444683541
atom 19.2503041832902753 0.2226797079127200 16.8653899148825666 Zr
    velocity 0.4638417954723387 0.3066126919280620 -0.3841172682420158
atom 24.3973041832902808 0.2226797079127200 16.8653899148825666 Zr
    velocity -0.1641876031476856 0.3485879455348262 -0.1349921130688962
atom -1.3376958167097246 5.4426797079127178 16.8653899148825666 Zr
    velocity 0.5245865441586918 -0.1581363627716457 -0.3299535745592584
atom 3.8093041832902772 5.4426797079127178 16.8653899148825666 Zr
    velocity 0.3555552859244039 -0.1847018216116212 0.5184114616649323
atom 8.9563041832902748 5.4426797079127178 16.8653899148825666 Zr
    velocity -0.1634491959489275 -0.2735714150739273 -0.5131689237223586
atom 14.1033041832902750 5.4426797079127178 16.8653899148825666 Zr
    velocity 0.2203053427877976 -0.4320217130849438 0.1220545675540041
atom 19.2503041832902753 5.4426797079127178 16.8653899148825666 Zr
    velocity 0.6148013412308659 -0.5764661519369086 -0.2447473609540173
atom 24.3973041832902808 5.4426797079127178 16.8653899148825666 Zr
    velocity -0.3464232314793061 -0.3771019364401217 -0.3845631858426817
atom -1.3376958167097246 10.6626797079127176 16.8653899148825666 Zr
    velocity 0.4791263072803779 -0.0746456924036865 -0.1200871330122274
atom 3.8093041832902772 10.6626797079127176 16.8653899148825666 Zr
    velocity 0.6897226848719086 -0.0345211169019527 0.3691309995422619
atom 8.9563041832902748 10.6626797079127176 16.8653899148825666 Zr
    velocity -0.3206332437595864 0.0014349388790876 -0.5635580458665310
atom 14.1033041832902750 10.6626797079127176 16.8653899148825666 Zr
    velocity -0.1855093566071916 0.0695745066556440 -0.5388983833974541
atom 19.2503041832902753 10.6626797079127176 16.8653899148825666 Zr
    velocity -0.3451781892150337 -0.3942158453064897 -0.3473673203817876
atom 24.3973041832902808 10.6626797079127176 16.8653899148825666 Zr
    velocity -0.1149974243687326 -0.4729668193774078 0.4062238523019109
atom -1.3376958167097246 15.8826797079127182 16.8653899148825666 Zr
    velocity 0.0706602543278959 0.1605075472881929 0.6003476991487116
atom 3.8093041832902772 15.8826797079127182 16.8653899148825666 Zr
    velocity 0.0210556695269415 0.0923449979428047 0.1280428925169235
atom 8.9563041832902748 15.8826797079127182 16.8653899148825666 Zr
    velocity -0.1981725044182082 -0.0409770261591060 0.3288831228121082
atom 14.1033041832902750 15.8826797079127182 16.8653899148825666 Zr
    velocity -0.1432066802173690 0.2946585541570538 0.0237988011726101
atom 19.2503041832902753 15.8826797079127182 16.8653899148825666 Zr
    velocity 0.4040340479514993 -0.0728924709255218 -0.1443716340945343
atom 24.3973041832902808 15.8826797079127182 16.8653899148825666 Zr
    velocity 0.3688019914206612 0.0488550556416215 0.6237315309135786
atom -1.3376958167097246 21.1026797079127206 16.8653899148825666 Zr
    velocity 0.0535277205446282 -0.0094464905019048 0.0723207404100327
atom 3.8093041832902772 21.1026797079127206 16.8653899148825666 Zr
    velocity 0.2376342706629006 -0.0137271482075391 -0.3707252620457603
atom 8.9563041832902748 21.1026797079127206 16.8653899148825666 Zr
    velocity 0.0100981776023058 0.5508587588511215 -0.3975439016774271
atom 14.1033041832902750 21.1026797079127206 16.8653899148825666 Zr
    velocity -0.0657750916333067 0.1240711844466652 -0.0300260569729784
atom 19.2503041832902753 21.1026797079127206 16.8653899148825666 Zr
    velocity 0.0364481906218140 0.0854134689954851 0.1121731793603804
atom 24.3973041832902808 21.1026797079127206 16.8653899148825666 Zr
    velocity 0.1291087675827232 0.1858149811618238 -0.3731516598270117
atom -1.3376958167097246 26.3226797079127195 16.8653899148825666 Zr
    velocity -0.0865421568063094 -0.1665850559073458 -0.3529810005295462
atom 3.8093041832902772 26.3226797079127195 16.8653899148825666 Zr
    velocity -0.2245956403554369 -0.2312033985035392 0.2961901582058607
atom 8.9563041832902748 26.3226797079127195 16.8653899148825666 Zr
    velocity -0.4012823211711578 0.1551116696113835 -0.2264423607819146
atom 14.1033041832902750 26.3226797079127195 16.8653899148825666 Zr
    velocity 0.1582223201635493 -0.4572335407571997 -0.1246544597786352
atom 19.2503041832902753 26.3226797079127195 16.8653899148825666 Zr
    velocity -0.3974832196177718 -0.3144442560764677 0.0861409578254949
atom 24.3973041832902808 26.3226797079127195 16.8653899148825666 Zr
    velocity 0.1705196869555473 0.3821470998216568 0.3184395920236638
atom -2.1980745602640175 0.2226797079127200 22.1194097490324033 Zr
    velocity 0.3756102153357933 -0.2281216795168997 -0.0252305452296410
atom 2.9489254397359841 0.2226797079127200 22.1194097490324033 Zr
    velocity 0.1207995745830583 -0.3689812953161917 -0.4131644109678512
atom 8.0959254397359821 0.2226797079127200 22.1194097490324033 Zr
    velocity 0.1028694840923523 0.5512986808903205 -0.3170846602784317
atom 13.2429254397359824 0.2226797079127200 22.1194097490324033 Zr
    velocity 0.2066977220680819 -0.1884484160047018 -0.6662104414103610
atom 18.3899254397359790 0.2226797079127200 22.1194097490324033 Zr
    velocity -0.5222721403772369 -0.2953621962767657 0.1786674671163909
atom 23.5369254397359811 0.2226797079127200 22.1194097490324033 Zr
    velocity 0.4833806282834177 -0.0984522201633842 -0.1341751641512978
atom -2.1980745602640175 5.4426797079127178 22.1194097490324033 Zr
    velocity -0.3057293333012838 0.1429570856571161 -0.0084207053129031
atom 2.9489254397359841 5.4426797079127178 22.1194097490324033 Zr
    velocity -0.1138194813855443 0.1708186297481155 0.1051442335304847
atom 8.0959254397359821 5.4426797079127178 22.1194097490324033 Zr
    velocity 0.1936376935259420 -0.2188967682054097 -0.5311217941113632
atom 13.2429254397359824 5.4426797079127178 22.1194097490324033 Zr
    velocity -0.3000304453285549 0.5235730063424171 0.0174532339898374
atom 18.3899254397359790 5.4426797079127178 22.1194097490324033 Zr
    velocity 0.2062719370443367 0.1506982489960909 0.1635986834916842
atom 23.5369254397359811 5.4426797079127178 22.1194097490324033 Zr
    velocity 0.4190066653678303 0.2689140178726923 0.4647215005702020
atom -2.1980745602640175 10.6626797079127176 22.1194097490324033 Zr
    velocity -0.1819644989016670 -0.2395201431669780 -0.2883101458241381
atom 2.9489254397359841 10.6626797079127176 22.1194097490324033 Zr
    velocity -0.0199077761652310 -0.0089340116314037 0.0601836591305069
atom 8.0959254397359821 10.6626797079127176 22.1194097490324033 Zr
    velocity -0.6277046884072025 0.5450289051252710 0.1633394971954140
atom 13.2429254397359824 10.6626797079127176 22.1194097490324033 Zr
    velocity -0.2299710496241858 0.0623723613827261 0.5064640824131922
atom 18.3899254397359790 10.6626797079127176 22.1194097490324033 Zr
    velocity 0.2422036813641218 -0.0554073748048318 0.0009323594018912
atom 23.5369254397359811 10.6626797079127176 22.1194097490324033 Zr
    velocity -0.1054555236653323 -0.3032020936621443 -0.1604730997496396
atom -2.1980745602640175 15.8826797079127182 22.1194097490324033 Zr
    velocity 0.0020593968749436 -0.1660557838687112 -0.1774404842034666
atom 2.9489254397359841 15.8826797079127182 22.1194097490324033 Zr
    velocity 0.0394268437799438 0.0896278389754552 -0.0242143730402876
atom 8.0959254397359821 15.8826797079127182 22.1194097490324033 Zr
    velocity 0.5150782176730929 -0.0295069425106751 0.3581478020586340
atom 13.2429254397359824 15.8826797079127182 22.1194097490324033 Zr
    velocity 0.0146098689079419 -0.0406295974479854 0.1438516520040453
atom 18.3899254397359790 15.8826797079127182 22.1194097490324033 Zr
    velocity 0.1793723885700544 0.0790662686706804 0.2431061208644990
atom 23.5369254397359811 15.8826797079127182 22.1194097490324033 Zr
    velocity 0.1777111349694799 0.2670902725351506 -0.0521060755200065
atom -2.1980745602640175 21.1026797079127206 22.1194097490324033 Zr
    velocity -0.2836861795433254 -0.0386498972304083 -0.1195198414433030
atom 2.9489254397359841 21.1026797079127206 22.1194097490324033 Zr
    velocity -0.5107372335277806 -0.2234839909260490 -0.0000177472530022
atom 8.0959254397359821 21.1026797079127206 22.1194097490324033 Zr
    velocity 0.1428604998382176 -0.1111288559117613 0.5371488443875650
atom 13.2429254397359824 21.1026797079127206 22.1194097490324033 Zr
    velocity -0.2652319692840603 -0.1657205350515556 -0.7580810983224004
atom 18.3899254397359790 21.1026797079127206 22.1194097490324033 Zr
    velocity 0.0001123616101115 0.0886865732086312 -0.4340135498743889
atom 23.5369254397359811 21.1026797079127206 22.1194097490324033 Zr
    velocity 0.3188493955405686 0.0358095395949766 0.2265459446372276
atom -2.1980745602640175 26.3226797079127195 22.1194097490324033 Zr
    velocity 0.0884433405622527 -0.4175928262947162 -0.0258001597225859
atom 2.9489254397359841 26.3226797079127195 22.1194097490324033 Zr
    velocity 0.0701423148014281 -0.0620921346861809 -0.1169508450215946
atom 8.0959254397359821 26.3226797079127195 22.1194097490324033 Zr
    velocity 0.1592209556502929 0.5887787071948124 0.5274040064092931
atom 13.2429254397359824 26.3226797079127195 22.1194097490324033 Zr
    velocity 0.3522484880503983 0.0932842551890279 -0.0766552185266448
atom 18.3899254397359790 26.3226797079127195 22.1194097490324033 Zr
    velocity -0.1482425322526947 0.1656593781268870 0.3203969100380551
atom 23.5369254397359811 26.3226797079127195 22.1194097490324033 Zr
    velocity -0.2528102936173803 -0.2202067574642448 -0.0035888484500302
atom -3.0584533038183115 0.2226797079127200 27.3734295831822436 Zr
    velocity 0.3966823783164644 -0.0543065873471518 0.2062171639865309
atom 2.0885466961816905 0.2226797079127200 27.3734295831822436 Zr
    velocity 0.2130080591438279 0.1896305249366173 -0.2077818339841279
atom 7.2355466961816877 0.2226797079127200 27.3734295831822436 Zr
    velocity 0.1895954316622276 -0.6105998061381510 0.0206007536951344
atom 12.3825466961816879 0.2226797079127200 27.3734295831822436 Zr
    velocity -0.1710350792039857 -0.3148790437335889 -0.0783331479838713
atom 17.5295466961816864 0.2226797079127200 27.3734295831822436 Zr
    velocity 0.0346415145761273 -0.0749003386416904 0.3084008563839279
atom 22.6765466961816884 0.2226797079127200 27.3734295831822436 Zr
    velocity -0.7566913591455177 0.0613547569008340 -0.0455610923295473
atom -3.0584533038183115 5.4426797079127178 27.3734295831822436 Zr
    velocity -0.1169463914263654 0.0898415029089824 -0.1302758504017681
atom 2.0885466961816905 5.4426797079127178 27.3734295831822436 Zr
    velocity -0.2406922953959948 -0.2115791771784330 0.3052887145839793
atom 7.2355466961816877 5.4426797079127178 27.3734295831822436 Zr
    velocity 0.2291434928724238 -0.0635120915164556 0.2184117076221160
atom 12.3825466961816879 5.4426797079127178 27.3734295831822436 Zr
    velocity -0.1769353468818372 -0.5081233392566838 0.1354165900135204
atom 17.5295466961816864 5.4426797079127178 27.3734295831822436 Zr
    velocity 0.3415153562347310 0.3753801029922292 0.3002702001858103
atom 22.6765466961816884 5.4426797079127178 27.3734295831822436 Zr
    velocity -0.5636238763736415 0.0606090418822676 0.1999073022035762
atom -3.0584533038183115 10.6626797079127176 27.3734295831822436 Zr
    velocity 0.1180706084238511 -0.2242004340250194 0.5846832452634798
atom 2.0885466961816905 10.6626797079127176 27.3734295831822436 Zr
    velocity 0.5550321617347306 -0.1278216962630574 0.3241559559343281
atom 7.2355466961816877 10.6626797079127176 27.3734295831822436 Zr
    velocity -0.6987513619792675 0.6042587076325757 0.0012381620802780
atom 12.3825466961816879 10.6626797079127176 27.3734295831822436 Zr
    velocity -0.3265768470975525 -0.1969003994940728 -0.0030389965972535
atom 17.5295466961816864 10.6626797079127176 27.3734295831822436 Zr
    velocity 0.1680384207169509 0.1129898005815171 -0.2209276767681266
atom 22.6765466961816884 10.6626797079127176 27.3734295831822436 Zr
    velocity -0.4602986891495737 0.3445200844128429 0.0379367912447886
atom -3.0584533038183115 15.8826797079127182 27.3734295831822436 Zr
    velocity 0.1355042616354718 -0.0724591127889004 0.2217738469447793
atom 2.0885466961816905 15.8826797079127182 27.3734295831822436 Zr
    velocity 0.6581487998255870 -0.1095738501336831 0.0730783677960899
atom 7.2355466961816877 15.8826797079127182 27.3734295831822436 Zr
    velocity 0.2483512183617926 -0.2648723055378951 -0.3310246516921891
atom 12.3825466961816879 15.8826797079127182 27.3734295831822436 Zr
    velocity 0.1623163933863397 -0.1454376636764192 -0.1970964545689836
atom 17.5295466961816864 15.8826797079127182 27.3734295831822436 Zr
    velocity 0.0029750290940452 0.6227292269788817 0.3107400372742269
atom 22.6765466961816884 15.8826797079127182 27.3734295831822436 Zr
    velocity 0.3638799809530298 -0.5801904087511022 -0.4669329717920840
atom -3.0584533038183115 21.1026797079127206 27.3734295831822436 Zr
    velocity -0.1445051894667281 -0.3047476702740257 -0.0027601620988384
atom 2.0885466961816905 21.1026797079127206 27.3734295831822436 Zr
    velocity 0.0971529250658285 -0.2723450679528366 0.1827387913698882
atom 7.2355466961816877 21.1026797079127206 27.3734295831822436 Zr
    velocity -0.2330387954125291 0.5508860057328823 0.3696790077403506
atom 12.3825466961816879 21.1026797079127206 27.3734295831822436 Zr
    velocity -0.3193478095584997 -0.2144728405702406 -0.0416971281875434
atom 17.5295466961816864 21.1026797079127206 27.3734295831822436 Zr
    velocity 0.0749275879980378 0.0556437020989567 0.2778266964922346
atom 22.6765466961816884 21.1026797079127206 27.3734295831822436 Zr
    velocity -0.5306300705494955 -0.1657387261411751 0.3194031044315082
atom -3.0584533038183115 26.3226797079127195 27.3734295831822436 Zr
    velocity -0.0638097600902524 0.2341692139435839 -0.4145601936877206