#=======================================================
# FHI-aims file: 300_geometry.in.primitive.supercell_768.0010K
# Created using the Atomic Simulation Environment (ASE)
# Wed Aug 24 14:02:03 2022

# Additional information:
#  created from MB distrubtion
#  T = 10.0 K
#  quantum:             False
#  deterministic:       False
#  plus_minus:          False
#  gauge_eigenvectors:  False
#  Random seed:         170674089
#  Sample number:       1
#=======================================================
lattice_vector 20.5880000000000010 0.0000000000000000 0.0000000000000000 
lattice_vector 0.0000000000000000 20.8799999999999990 0.0000000000000000 
lattice_vector -3.4415149742171751 0.0000000000000000 21.0160793365993683 
atom 1.2434404139531583 0.2226797079127200 1.1033304124330396 Zr
    velocity -0.1262600085475507 0.1054587982931980 0.0813675400674890
atom 6.3904404139531588 0.2226797079127200 1.1033304124330396 Zr
    velocity -0.0749635246446788 0.3646337083256141 -0.0032472370611448
atom 11.5374404139531581 0.2226797079127200 1.1033304124330396 Zr
    velocity 0.0612531365401130 0.3299085797883038 -0.0582221674342497
atom 16.6844404139531584 0.2226797079127200 1.1033304124330396 Zr
    velocity -0.0931834241767077 0.2727714185206279 0.0596336609501364
atom 1.2434404139531583 5.4426797079127196 1.1033304124330396 Zr
    velocity -0.1521286239066579 -0.0181863229195959 -0.3473506429203364
atom 6.3904404139531588 5.4426797079127196 1.1033304124330396 Zr
    velocity -0.3356370588322796 -0.3847714824619071 0.8931293695806587
atom 11.5374404139531581 5.4426797079127196 1.1033304124330396 Zr
    velocity 0.3089900701184456 -0.0471294114376143 0.0414635651810351
atom 16.6844404139531584 5.4426797079127196 1.1033304124330396 Zr
    velocity -0.2664305290312721 0.3661820532214594 -0.2869697009607726
atom 1.2434404139531583 10.6626797079127211 1.1033304124330396 Zr
    velocity -0.4940898211599933 -0.2348080584134923 0.2049211281358899
atom 6.3904404139531588 10.6626797079127211 1.1033304124330396 Zr
    velocity 0.0131017909791422 -0.3520824050034555 -0.0116979735942512
atom 11.5374404139531581 10.6626797079127211 1.1033304124330396 Zr
    velocity -0.0582411979477696 0.2940804581480571 0.1889800271295214
atom 16.6844404139531584 10.6626797079127211 1.1033304124330396 Zr
    velocity -0.4371437110014231 -0.7200367432717267 -0.5108761694381004
atom 1.2434404139531583 15.8826797079127200 1.1033304124330396 Zr
    velocity 0.0636622982152356 -0.0857288307482657 0.4439444800333075
atom 6.3904404139531588 15.8826797079127200 1.1033304124330396 Zr
    velocity 0.3704446497711162 0.1349464739487011 -0.1759372335727469
atom 11.5374404139531581 15.8826797079127200 1.1033304124330396 Zr
    velocity 0.0238966906187032 0.0542158166312171 0.2590610405069569
atom 16.6844404139531584 15.8826797079127200 1.1033304124330396 Zr
    velocity -0.3012753929923552 -0.5518579643973553 -0.4458928486545006
atom 0.3830616703988644 0.2226797079127200 6.3573502465828824 Zr
    velocity -0.1399366646008596 0.2705911119230879 0.4760344665962918
atom 5.5300616703988652 0.2226797079127200 6.3573502465828824 Zr
    velocity 0.2699985734885391 0.1192309258079282 -0.3995522098079584
atom 10.6770616703988637 0.2226797079127200 6.3573502465828824 Zr
    velocity -0.1057369984321919 -0.0073903523903729 0.1106155648832663
atom 15.8240616703988621 0.2226797079127200 6.3573502465828824 Zr
    velocity -0.2700231674894377 -0.1134570377846877 -0.1654232402566127
atom 0.3830616703988644 5.4426797079127196 6.3573502465828824 Zr
    velocity 0.4735513979128761 0.0298348156619068 0.2561105227802390
atom 5.5300616703988652 5.4426797079127196 6.3573502465828824 Zr
    velocity -0.4292475744624312 0.1608215858226005 -0.1008779312782639
atom 10.6770616703988637 5.4426797079127196 6.3573502465828824 Zr
    velocity 0.1784822693141839 0.1718754753321988 -0.0091368317772748
atom 15.8240616703988621 5.4426797079127196 6.3573502465828824 Zr
    velocity 0.2817190160409536 0.0028321455699846 -0.0441976116664883
atom 0.3830616703988644 10.6626797079127211 6.3573502465828824 Zr
    velocity 0.0017576893038347 0.2848452633702488 -0.1587176048546589
atom 5.5300616703988652 10.6626797079127211 6.3573502465828824 Zr
    velocity -0.1353582938640612 -0.3533217842037065 0.1611695347015998
atom 10.6770616703988637 10.6626797079127211 6.3573502465828824 Zr
    velocity 0.1453050971582697 -0.0500483632001915 0.3006575821868587
atom 15.8240616703988621 10.6626797079127211 6.3573502465828824 Zr
    velocity 0.2109904389153465 0.6218621537523469 -0.0477658998166603
atom 0.3830616703988644 15.8826797079127200 6.3573502465828824 Zr
    velocity 0.2960881995991977 -0.1570550779043196 -0.0971542553790065
atom 5.5300616703988652 15.8826797079127200 6.3573502465828824 Zr
    velocity 0.2535286351728498 -0.0762241824124628 -0.0760836755140959
atom 10.6770616703988637 15.8826797079127200 6.3573502465828824 Zr
    velocity -0.0571201019081543 0.5118740104451014 0.2179011794812951
atom 15.8240616703988621 15.8826797079127200 6.3573502465828824 Zr
    velocity 0.2585185064865162 0.9147501834339858 -0.4263705727643388
atom -0.4773170731554294 0.2226797079127200 11.6113700807327245 Zr
    velocity -0.0221687484830782 -0.1353610217372509 -0.4909257076359310
atom 4.6696829268445734 0.2226797079127200 11.6113700807327245 Zr
    velocity 0.0040349156471906 -0.4549975745462129 0.3929354177133650
atom 9.8166829268445710 0.2226797079127200 11.6113700807327245 Zr
    velocity 0.7109846880197936 0.0646176316921258 -0.3496129123957423
atom 14.9636829268445695 0.2226797079127200 11.6113700807327245 Zr
    velocity -0.1377814081652192 0.1665717135611399 0.2423283549712342
atom -0.4773170731554294 5.4426797079127196 11.6113700807327245 Zr
    velocity -0.1961282632353200 0.2273387157395491 0.1735317839938010
atom 4.6696829268445734 5.4426797079127196 11.6113700807327245 Zr
    velocity -0.7937794117648350 0.3566345282866542 0.1243134556753890
atom 9.8166829268445710 5.4426797079127196 11.6113700807327245 Zr
    velocity -0.1152250263973519 -0.2635416137334308 0.5198970275732662
atom 14.9636829268445695 5.4426797079127196 11.6113700807327245 Zr
    velocity 0.2174961906659564 0.4253166379485045 -0.3933069588405654
atom -0.4773170731554294 10.6626797079127211 11.6113700807327245 Zr
    velocity 0.0699248388735953 -0.1791075739499478 -0.4261447681278447
atom 4.6696829268445734 10.6626797079127211 11.6113700807327245 Zr
    velocity 0.0383305860618399 0.4848262390324192 -0.0835386631346177
atom 9.8166829268445710 10.6626797079127211 11.6113700807327245 Zr
    velocity 0.0831620331630337 0.1940645183052179 -0.1703537161862615
atom 14.9636829268445695 10.6626797079127211 11.6113700807327245 Zr
    velocity 0.3595807422708098 -0.1276481206143138 0.3758242092178321
atom -0.4773170731554294 15.8826797079127200 11.6113700807327245 Zr
    velocity 0.0581881772682414 0.4542954308710676 -0.0517199127214423
atom 4.6696829268445734 15.8826797079127200 11.6113700807327245 Zr
    velocity -0.3190075165894077 0.3605595144793088 -0.5841871059949926
atom 9.8166829268445710 15.8826797079127200 11.6113700807327245 Zr
    velocity -0.2217185013177481 -0.1825449486351705 -0.2164108758567035
atom 14.9636829268445695 15.8826797079127200 11.6113700807327245 Zr
    velocity 0.0659032396379523 -0.1326359611138749 0.1017410773990102
atom -1.3376958167097233 0.2226797079127200 16.8653899148825666 Zr
    velocity -0.1451372712795113 -0.0374354376109857 -0.4726865383358263
atom 3.8093041832902776 0.2226797079127200 16.8653899148825666 Zr
    velocity 0.0672288050770840 -0.0613306701579337 -0.2986764393861384
atom 8.9563041832902766 0.2226797079127200 16.8653899148825666 Zr
    velocity -0.9338106556845931 0.0433434513375465 0.2600594758062805
atom 14.1033041832902750 0.2226797079127200 16.8653899148825666 Zr
    velocity 0.2479449501787697 -0.3435744457550746 -0.3277005863057347
atom -1.3376958167097233 5.4426797079127196 16.8653899148825666 Zr
    velocity 0.3365887474861456 -0.1459576163135346 -0.2851724585983980
atom 3.8093041832902776 5.4426797079127196 16.8653899148825666 Zr
    velocity -0.0253242389176733 0.0846950524275112 0.4928605694794600
atom 8.9563041832902766 5.4426797079127196 16.8653899148825666 Zr
    velocity -0.1642081221780042 -0.4009494027794118 0.4388658417559917
atom 14.1033041832902750 5.4426797079127196 16.8653899148825666 Zr
    velocity -0.6087810007442203 -0.1004787004100192 0.0820036806504572
atom -1.3376958167097233 10.6626797079127211 16.8653899148825666 Zr
    velocity -0.1867234481577345 -0.5958799326206579 0.2306391290344289
atom 3.8093041832902776 10.6626797079127211 16.8653899148825666 Zr
    velocity 0.2349259674863547 -0.5340785548485422 0.1009279938487562
atom 8.9563041832902766 10.6626797079127211 16.8653899148825666 Zr
    velocity -0.1652587110934637 0.2178610596736343 0.1907352423853352
atom 14.1033041832902750 10.6626797079127211 16.8653899148825666 Zr
    velocity -0.2990516327378052 -0.0047353480608783 -0.4488349542414006
atom -1.3376958167097233 15.8826797079127200 16.8653899148825666 Zr
    velocity -0.2998502923311076 -0.3194439204214388 -0.0808321461851215
atom 3.8093041832902776 15.8826797079127200 16.8653899148825666 Zr
    velocity -0.6532476598925849 -0.0860505727066758 0.0425929650048062
atom 8.9563041832902766 15.8826797079127200 16.8653899148825666 Zr
    velocity 0.2751269160445075 -0.1306292700316299 -0.1066566257914504
atom 14.1033041832902750 15.8826797079127200 16.8653899148825666 Zr
    velocity -0.0370104344931507 0.1049814102743080 -0.2669333903582929
atom 3.0431805370682485 4.9973202920872817 4.1506894952730802 Zr
    velocity -0.4154100475552328 0.3057509840458580 0.2711130091655832
atom 8.1901805370682474 4.9973202920872817 4.1506894952730802 Zr
    velocity 0.1610900766519437 0.0659388477583596 -0.6823802900518228
atom 13.3371805370682459 4.9973202920872817 4.1506894952730802 Zr
    velocity 0.4823530292884178 0.1017988590285242 -0.3971934120435222
atom 18.4841805370682479 4.9973202920872817 4.1506894952730802 Zr
    velocity -0.2023679613962431 -0.1943418744819244 0.3513779007352701
atom 3.0431805370682485 10.2173202920872814 4.1506894952730802 Zr
    velocity 0.5516321404534288 0.3814646710914094 -0.1983921434812745
atom 8.1901805370682474 10.2173202920872814 4.1506894952730802 Zr
    velocity -0.1309857603890715 -0.1972803707015219 -0.4351491398008381
atom 13.3371805370682459 10.2173202920872814 4.1506894952730802 Zr
    velocity 0.6119378776801629 -0.0677648167824264 -0.1403840868205022
atom 18.4841805370682479 10.2173202920872814 4.1506894952730802 Zr
    velocity -0.1934546902294177 0.2211390571077732 0.0347303301789009
atom 3.0431805370682485 15.4373202920872803 4.1506894952730802 Zr
    velocity -0.5496659422326460 -0.2533961562282271 -0.3449937768274669
atom 8.1901805370682474 15.4373202920872803 4.1506894952730802 Zr
    velocity 0.8724507074802350 -0.2497428133596908 0.1597691727732874
atom 13.3371805370682459 15.4373202920872803 4.1506894952730802 Zr
    velocity -0.0702103763527662 0.0880165021882039 0.2894623194470640
atom 18.4841805370682479 15.4373202920872803 4.1506894952730802 Zr
    velocity -0.3916782401721973 0.1284054900507675 -0.0017514687848758
atom 3.0431805370682485 20.6573202920872809 4.1506894952730802 Zr
    velocity 0.2878266281174279 -0.0426125807205810 0.2469100828069874
atom 8.1901805370682474 20.6573202920872809 4.1506894952730802 Zr
    velocity 0.2108664577366365 0.1502200870445324 0.3815342551439945
atom 13.3371805370682459 20.6573202920872809 4.1506894952730802 Zr
    velocity 0.2685720532865754 0.2667061199051479 0.0789721237923300
atom 18.4841805370682479 20.6573202920872809 4.1506894952730802 Zr
    velocity -0.0922702960291696 -0.3646877654164428 0.5230775881738439
atom 2.1828017935139523 4.9973202920872817 9.4047093294229196 Zr
    velocity -0.1369986513693038 0.0160945171160198 -0.1400314160498957
atom 7.3298017935139539 4.9973202920872817 9.4047093294229196 Zr
    velocity -0.1787973910907517 -0.4773187537466154 -0.6527499363165898
atom 12.4768017935139515 4.9973202920872817 9.4047093294229196 Zr
    velocity 0.1276014136333036 -0.2388914135137315 -0.1642339058328768
atom 17.6238017935139553 4.9973202920872817 9.4047093294229196 Zr
    velocity 0.1547072967852884 0.5708588033044742 0.5819935723727430
atom 2.1828017935139523 10.2173202920872814 9.4047093294229196 Zr
    velocity -0.4520312266140318 -0.0863821755219690 -0.3223366157195052
atom 7.3298017935139539 10.2173202920872814 9.4047093294229196 Zr
    velocity -0.5452670176710478 -0.1313852292808070 0.0368825494986597
atom 12.4768017935139515 10.2173202920872814 9.4047093294229196 Zr
    velocity -0.3127045624869185 -0.1411092832836262 0.2548410836012278
atom 17.6238017935139553 10.2173202920872814 9.4047093294229196 Zr
    velocity 0.3684032922271109 -0.2122554264048077 -0.1226670675144699
atom 2.1828017935139523 15.4373202920872803 9.4047093294229196 Zr
    velocity -0.2108573783587843 0.2225153014049245 0.3388518941733181
atom 7.3298017935139539 15.4373202920872803 9.4047093294229196 Zr
    velocity 0.1023490248938245 0.0912090146509026 0.4262819206971736
atom 12.4768017935139515 15.4373202920872803 9.4047093294229196 Zr
    velocity 0.2945746045665813 -0.3544466230985018 0.0362927629118518
atom 17.6238017935139553 15.4373202920872803 9.4047093294229196 Zr
    velocity 0.1587912951330140 0.1633392298890528 0.0343778196107167
atom 2.1828017935139523 20.6573202920872809 9.4047093294229196 Zr
    velocity -0.0986000248443218 0.2125696347899703 -0.4570545276185329
atom 7.3298017935139539 20.6573202920872809 9.4047093294229196 Zr
    velocity -0.0668027630919947 -0.3059777585016324 0.4087870810780875
atom 12.4768017935139515 20.6573202920872809 9.4047093294229196 Zr
    velocity -0.3090818084333358 -0.5884030984381685 0.4433968787252693
atom 17.6238017935139553 20.6573202920872809 9.4047093294229196 Zr
    velocity 0.5333590471880499 -0.3712395833108723 -0.2828921746260393
atom 1.3224230499596583 4.9973202920872817 14.6587291635727635 Zr
    velocity 0.4228061290454272 0.0034971662519560 0.3820321373411144
atom 6.4694230499596594 4.9973202920872817 14.6587291635727635 Zr
    velocity 0.0777586976778339 0.4439894345583434 -0.1777874804504306
atom 11.6164230499596588 4.9973202920872817 14.6587291635727635 Zr
    velocity -0.1075164138132313 0.2711783508084140 0.5276867552816852
atom 16.7634230499596590 4.9973202920872817 14.6587291635727635 Zr
    velocity 0.0581787166199495 -0.3278319883964536 -0.3041579724301237
atom 1.3224230499596583 10.2173202920872814 14.6587291635727635 Zr
    velocity 0.5571395004329301 -0.0931420067870005 0.3376532104232752
atom 6.4694230499596594 10.2173202920872814 14.6587291635727635 Zr
    velocity 0.0820837278192432 0.3469063121433353 -0.2017656997846463
atom 11.6164230499596588 10.2173202920872814 14.6587291635727635 Zr
    velocity 0.0363118447756455 0.2255190335251326 0.2857679049672697
atom 16.7634230499596590 10.2173202920872814 14.6587291635727635 Zr
    velocity 0.3380295176486924 0.5966182771999380 0.3647624827410021
atom 1.3224230499596583 15.4373202920872803 14.6587291635727635 Zr
    velocity -0.1742599302571522 -0.5695403108047622 0.4051719395781622
atom 6.4694230499596594 15.4373202920872803 14.6587291635727635 Zr
    velocity 0.0912135837855070 0.0993457863186605 -0.2721983431491763
atom 11.6164230499596588 15.4373202920872803 14.6587291635727635 Zr
    velocity -0.2278175158039079 0.2282343861741975 -0.3102069137620567
atom 16.7634230499596590 15.4373202920872803 14.6587291635727635 Zr
    velocity 0.4627084130773019 0.0295937044026228 -0.1881895766718095
atom 1.3224230499596583 20.6573202920872809 14.6587291635727635 Zr
    velocity 0.1169504131850189 -0.1083871070004238 0.0871374713637257
atom 6.4694230499596594 20.6573202920872809 14.6587291635727635 Zr
    velocity -0.1441676789134650 0.4798879401466049 0.3650314863190786
atom 11.6164230499596588 20.6573202920872809 14.6587291635727635 Zr
    velocity -0.3661756903655416 0.2558163761280332 -0.0445989516096435
atom 16.7634230499596590 20.6573202920872809 14.6587291635727635 Zr
    velocity 0.8807609200732073 0.3087041697258399 0.2635965135553341
atom 0.4620443064053672 4.9973202920872817 19.9127489977226055 Zr
    velocity 0.1602096679156054 0.0562242339933956 0.0125788527268331
atom 5.6090443064053659 4.9973202920872817 19.9127489977226055 Zr
    velocity -0.3532917861636854 -0.0136196876780769 0.0223856069495713
atom 10.7560443064053644 4.9973202920872817 19.9127489977226055 Zr
    velocity -0.3054607732407364 -0.0040555338093573 0.0266639835659383
atom 15.9030443064053664 4.9973202920872817 19.9127489977226055 Zr
    velocity -0.0634728209275221 0.0530767018380608 -0.0025858904084005
atom 0.4620443064053672 10.2173202920872814 19.9127489977226055 Zr
    velocity 0.3310993496609156 -0.4667589079829431 -0.2610567677678143
atom 5.6090443064053659 10.2173202920872814 19.9127489977226055 Zr
    velocity -0.1149770731239255 -0.1176072204656780 -0.5942687140678746
atom 10.7560443064053644 10.2173202920872814 19.9127489977226055 Zr
    velocity -0.1855496507189745 0.1789278866411371 0.0597396053168383
atom 15.9030443064053664 10.2173202920872814 19.9127489977226055 Zr
    velocity 0.1167846380048260 0.2510835027553411 0.1843011345874816
atom 0.4620443064053672 15.4373202920872803 19.9127489977226055 Zr
    velocity -0.2798105459746010 0.2424032175908544 0.2974916836927977
atom 5.6090443064053659 15.4373202920872803 19.9127489977226055 Zr
    velocity -0.1363066039173484 -0.1576643267669477 -0.1665950490535448
atom 10.7560443064053644 15.4373202920872803 19.9127489977226055 Zr
    velocity 0.0851888417827592 0.1373827896175682 -0.2275006524402135
atom 15.9030443064053664 15.4373202920872803 19.9127489977226055 Zr
    velocity 0.3205506658519050 0.4996540680295997 -0.0408072811922508
atom 0.4620443064053672 20.6573202920872809 19.9127489977226055 Zr
    velocity -0.0416593734293344 -0.1506552512321309 -0.0950382273353010
atom 5.6090443064053659 20.6573202920872809 19.9127489977226055 Zr
    velocity -0.1495408004720002 -0.0996754705402616 0.3062301810318609
atom 10.7560443064053644 20.6573202920872809 19.9127489977226055 Zr
    velocity 0.1209332179248922 -0.3726822923806870 0.3934253395508460
atom 15.9030443064053664 20.6573202920872809 19.9127489977226055 Zr
    velocity 0.0349164338052361 0.0428920521896725 -0.1500964748555863
atom 3.4733699088453927 2.8326797079127224 1.5236795781981591 Zr
    velocity -0.1241654865035301 -0.2142334835699493 -0.2634565462401631
atom 8.6203699088453938 2.8326797079127224 1.5236795781981591 Zr
    velocity -0.4356394354795416 -0.2636811872551731 0.2085221028312336
atom 13.7673699088453922 2.8326797079127224 1.5236795781981591 Zr
    velocity 0.0492849852847519 0.0119433106072353 0.1477435538268851
atom 18.9143699088453943 2.8326797079127224 1.5236795781981591 Zr
    velocity -0.0395602976346106 0.2108245327336704 -0.1983198485910533
atom 3.4733699088453927 8.0526797079127199 1.5236795781981591 Zr
    velocity 0.2831256747594258 0.0065088904021737 -0.3308516254843946
atom 8.6203699088453938 8.0526797079127199 1.5236795781981591 Zr
    velocity 0.2399627957178683 0.4211046828116151 0.2333286049333321
atom 13.7673699088453922 8.0526797079127199 1.5236795781981591 Zr
    velocity -0.1628722397347463 -0.2198121385987779 -0.4690834929353819
atom 18.9143699088453943 8.0526797079127199 1.5236795781981591 Zr
    velocity 0.1184808197000445 -0.4686596918459573 0.2084993392060558
atom 3.4733699088453927 13.2726797079127206 1.5236795781981591 Zr
    velocity 0.0956809840055252 -0.2650231517698742 -0.2210153204638346
atom 8.6203699088453938 13.2726797079127206 1.5236795781981591 Zr
    velocity 0.2231704723662487 0.0752831401635443 0.3890349250093225
atom 13.7673699088453922 13.2726797079127206 1.5236795781981591 Zr
    velocity 0.6424106172691827 -0.0320072075100671 -0.3653313856383055
atom 18.9143699088453943 13.2726797079127206 1.5236795781981591 Zr
    velocity 0.6703937600333340 -0.2366021921177988 0.1905641082113960
atom 3.4733699088453927 18.4926797079127212 1.5236795781981591 Zr
    velocity -0.0908633386855783 0.3702752544066650 0.0710269199583090
atom 8.6203699088453938 18.4926797079127212 1.5236795781981591 Zr
    velocity 0.4456080531050225 -0.1513560243430533 -0.0285334753758566
atom 13.7673699088453922 18.4926797079127212 1.5236795781981591 Zr
    velocity -0.0032172520497178 -0.2175447314049811 0.4112592196701910
atom 18.9143699088453943 18.4926797079127212 1.5236795781981591 Zr
    velocity 0.5151911316131704 0.5956175844180985 -0.0954255097643510
atom 2.6129911652910986 2.8326797079127224 6.7776994123480012 Zr
    velocity 0.1279998903347069 -0.4615579038676283 0.2573822834826782
atom 7.7599911652911002 2.8326797079127224 6.7776994123480012 Zr
    velocity -0.2677622652938150 -0.1802199452378450 0.1854812236118556
atom 12.9069911652910996 2.8326797079127224 6.7776994123480012 Zr
    velocity -0.0086584968925427 -0.4242104731882405 -0.0079305952689865
atom 18.0539911652911016 2.8326797079127224 6.7776994123480012 Zr
    velocity -0.0642594968305907 -0.5645512259147641 0.0633373124894611
atom 2.6129911652910986 8.0526797079127199 6.7776994123480012 Zr
    velocity -0.2016980789921022 -0.3257863488592008 -0.1083240659175869
atom 7.7599911652911002 8.0526797079127199 6.7776994123480012 Zr
    velocity -0.0558856199736301 -0.0966312764455754 0.1560983607934221
atom 12.9069911652910996 8.0526797079127199 6.7776994123480012 Zr
    velocity -0.0616278098447939 0.2716021501671873 -0.0131608787184722
atom 18.0539911652911016 8.0526797079127199 6.7776994123480012 Zr
    velocity 0.2068570310957914 0.5838664334021977 0.5091233015052732
atom 2.6129911652910986 13.2726797079127206 6.7776994123480012 Zr
    velocity -0.0599501963413683 0.0201473481287154 -0.5739986598410308
atom 7.7599911652911002 13.2726797079127206 6.7776994123480012 Zr
    velocity -0.6324574892208873 0.2697865984229463 0.3131668106166355
atom 12.9069911652910996 13.2726797079127206 6.7776994123480012 Zr
    velocity 0.3413410088644599 -0.3644100882195178 -0.5357980727160735
atom 18.0539911652911016 13.2726797079127206 6.7776994123480012 Zr
    velocity -0.1640631365820700 -0.5127288463720046 0.5973478571626347
atom 2.6129911652910986 18.4926797079127212 6.7776994123480012 Zr
    velocity -0.0428416718037753 -0.0302883136710483 0.1125584719431586
atom 7.7599911652911002 18.4926797079127212 6.7776994123480012 Zr
    velocity -0.1658895860935270 0.1245110023022894 0.1749184443532348
atom 12.9069911652910996 18.4926797079127212 6.7776994123480012 Zr
    velocity -0.1723355806145336 -0.3546276340702278 0.5239882557060908
atom 18.0539911652911016 18.4926797079127212 6.7776994123480012 Zr
    velocity -0.1348832820076267 0.1838640873270534 -0.6141084930625714
atom 1.7526124217368049 2.8326797079127224 12.0317192464978433 Zr
    velocity -0.2517133676430073 -0.2231901973901290 0.0120029859325410
atom 6.8996124217368067 2.8326797079127224 12.0317192464978433 Zr
    velocity 0.3142598075550983 -0.1304744210077982 -0.0743975933715190
atom 12.0466124217368051 2.8326797079127224 12.0317192464978433 Zr
    velocity 0.3258635051827197 0.3248700330875744 0.2247104528585334
atom 17.1936124217368054 2.8326797079127224 12.0317192464978433 Zr
    velocity 0.4762157176670743 -0.1278170490191751 -0.4282739443361273
atom 1.7526124217368049 8.0526797079127199 12.0317192464978433 Zr
    velocity 0.2939593585167276 -0.1898334897783439 0.3713582041168226
atom 6.8996124217368067 8.0526797079127199 12.0317192464978433 Zr
    velocity -0.0617865792286905 -0.0358079382411462 0.1223286417403813
atom 12.0466124217368051 8.0526797079127199 12.0317192464978433 Zr
    velocity -0.0494875186508410 0.1518118617183610 -0.1520301047561813
atom 17.1936124217368054 8.0526797079127199 12.0317192464978433 Zr
    velocity 0.1650528120203455 0.2859236147692868 0.0970694179221389
atom 1.7526124217368049 13.2726797079127206 12.0317192464978433 Zr
    velocity 0.1845083486718310 -0.4403482423872656 -0.1784882048433424
atom 6.8996124217368067 13.2726797079127206 12.0317192464978433 Zr
    velocity 0.1295156932795476 0.1145967421429497 -0.0808753814815246
atom 12.0466124217368051 13.2726797079127206 12.0317192464978433 Zr
    velocity 0.1466258783508987 -0.4655372542488079 -0.3271406767792449
atom 17.1936124217368054 13.2726797079127206 12.0317192464978433 Zr
    velocity -0.0493211564498092 0.0133778460231177 0.2994675249301267
atom 1.7526124217368049 18.4926797079127212 12.0317192464978433 Zr
    velocity -0.0712068807723002 0.3575687593112435 -0.1874660875398714
atom 6.8996124217368067 18.4926797079127212 12.0317192464978433 Zr
    velocity -0.3951608217456144 -0.2913001246067048 0.2527584305510727
atom 12.0466124217368051 18.4926797079127212 12.0317192464978433 Zr
    velocity 0.1478711281382716 -0.2682150552563853 -0.0423944556661680
atom 17.1936124217368054 18.4926797079127212 12.0317192464978433 Zr
    velocity -0.1195186789343351 0.1241577566986928 -0.0752420363126735
atom 0.8922336781825110 2.8326797079127224 17.2857390806476872 Zr
    velocity -0.1748679529815786 -0.0611626398259337 0.2261529367877662
atom 6.0392336781825122 2.8326797079127224 17.2857390806476872 Zr
    velocity 0.2343089872462168 -0.1808671874913690 -0.0728715302821723
atom 11.1862336781825107 2.8326797079127224 17.2857390806476872 Zr
    velocity -0.1506974980226924 -0.0142432379915334 -0.5211977359853922
atom 16.3332336781825127 2.8326797079127224 17.2857390806476872 Zr
    velocity -0.1194233574880855 0.4205366281300522 -0.2320940408553412
atom 0.8922336781825110 8.0526797079127199 17.2857390806476872 Zr
    velocity -0.1305132522655320 0.2738075614385457 -0.2130859347868546
atom 6.0392336781825122 8.0526797079127199 17.2857390806476872 Zr
    velocity -0.4324029335181357 -0.1725605416438231 0.0429100474380599
atom 11.1862336781825107 8.0526797079127199 17.2857390806476872 Zr
    velocity 0.3232910183459727 -0.2691035725594055 -0.6597595621114639
atom 16.3332336781825127 8.0526797079127199 17.2857390806476872 Zr
    velocity -0.2483953550694206 0.5541052356497826 0.0402096845906238
atom 0.8922336781825110 13.2726797079127206 17.2857390806476872 Zr
    velocity 0.1546562093769631 -0.2620177283674575 -0.2178737586299644
atom 6.0392336781825122 13.2726797079127206 17.2857390806476872 Zr
    velocity 0.0564879117311875 0.0403574926862633 -0.1527764570797562
atom 11.1862336781825107 13.2726797079127206 17.2857390806476872 Zr
    velocity 0.4339606400497159 -0.7242369621300920 0.2428391926387842
atom 16.3332336781825127 13.2726797079127206 17.2857390806476872 Zr
    velocity -0.1935953182894540 0.0236401728852902 0.1021749342187130
atom 0.8922336781825110 18.4926797079127212 17.2857390806476872 Zr
    velocity -0.4355126453402553 -0.0881384848194083 0.0530596639470994
atom 6.0392336781825122 18.4926797079127212 17.2857390806476872 Zr
    velocity -0.2564411565156782 -0.1239454350581184 0.4623303510110344
atom 11.1862336781825107 18.4926797079127212 17.2857390806476872 Zr
    velocity 0.0687497603295842 0.2466688652556635 0.0073382648180616
atom 16.3332336781825127 18.4926797079127212 17.2857390806476872 Zr
    velocity -0.1419794838404021 0.0707488558599744 -0.3157989419540604
atom 0.8132510421760114 2.3873202920872800 3.7303403295079605 Zr
    velocity -0.3620259847806075 0.1421409392238092 0.0270918090263494
atom 5.9602510421760124 2.3873202920872800 3.7303403295079605 Zr
    velocity 0.1858255275507064 0.1633396398476826 -0.2668152854662362
atom 11.1072510421760118 2.3873202920872800 3.7303403295079605 Zr
    velocity 0.3261787013630130 -0.3773746789712275 0.0231996620701668
atom 16.2542510421760085 2.3873202920872800 3.7303403295079605 Zr
    velocity -0.1969277307507849 -0.2345313525161369 0.2541071666838075
atom 0.8132510421760114 7.6073202920872793 3.7303403295079605 Zr
    velocity 0.0450600495624831 0.0502270361371525 -0.3308285502589215
atom 5.9602510421760124 7.6073202920872793 3.7303403295079605 Zr
    velocity 0.1993013870258003 0.0439074330633102 0.1573779020618694
atom 11.1072510421760118 7.6073202920872793 3.7303403295079605 Zr
    velocity 0.0473314843392319 -0.1171551995330383 0.1858594438207140
atom 16.2542510421760085 7.6073202920872793 3.7303403295079605 Zr
    velocity -0.2792258859502958 -0.5406437448500793 0.4258487803871104
atom 0.8132510421760114 12.8273202920872791 3.7303403295079605 Zr
    velocity 0.1686828998641533 0.4582164315375722 0.0635608984035884
atom 5.9602510421760124 12.8273202920872791 3.7303403295079605 Zr
    velocity 0.2797988632075603 0.2157933588517428 0.1793048454071275
atom 11.1072510421760118 12.8273202920872791 3.7303403295079605 Zr
    velocity -0.4257457851161533 0.2872770598426392 -0.0306211211714118
atom 16.2542510421760085 12.8273202920872791 3.7303403295079605 Zr
    velocity -0.1573650616988469 -0.4124730687249961 -0.1120366362996964
atom 0.8132510421760114 18.0473202920872779 3.7303403295079605 Zr
    velocity 0.0327905391510188 0.4674336528112034 0.2119188975727654
atom 5.9602510421760124 18.0473202920872779 3.7303403295079605 Zr
    velocity 0.3272082787185004 0.2356518219049853 0.0333263915487751
atom 11.1072510421760118 18.0473202920872779 3.7303403295079605 Zr
    velocity 0.5846534952536494 -0.3812788988448610 -0.0894149696422842
atom 16.2542510421760085 18.0473202920872779 3.7303403295079605 Zr
    velocity -0.1538786439077718 -0.8068144477869909 0.6281769944519315
atom -0.0471277013782825 2.3873202920872800 8.9843601636578025 Zr
    velocity 0.0564498451655855 0.3322123684066284 0.2694368531317677
atom 5.0998722986217180 2.3873202920872800 8.9843601636578025 Zr
    velocity -0.2080938391361649 0.0091663871687154 -0.2193072072496255
atom 10.2468722986217173 2.3873202920872800 8.9843601636578025 Zr
    velocity -0.0756697032393279 0.0364739825849387 0.1234212342529278
atom 15.3938722986217158 2.3873202920872800 8.9843601636578025 Zr
    velocity 0.7772101579782955 -0.1975196811317514 -0.2032425277425040