#=======================================================
# FHI-aims file: 300_geometry.in.primitive.supercell_324.0010K
# Created using the Atomic Simulation Environment (ASE)
# Wed Aug 24 14:01:59 2022

# Additional information:
#  created from MB distrubtion
#  T = 10.0 K
#  quantum:             False
#  deterministic:       False
#  plus_minus:          False
#  gauge_eigenvectors:  False
#  Random seed:         904145066
#  Sample number:       1
#=======================================================
lattice_vector 15.4410000000000007 0.0000000000000000 0.0000000000000000 
lattice_vector 0.0000000000000000 15.6600000000000001 0.0000000000000000 
lattice_vector -2.5811362306628816 0.0000000000000000 15.7620595024495262 
atom 1.2434404139531590 0.2226797079127200 1.1033304124330392 Zr
    velocity -0.1865254670016482 0.0224101186405307 -0.0660621236759204
atom 6.3904404139531588 0.2226797079127200 1.1033304124330392 Zr
    velocity -0.1730423154912113 0.0470396699560403 -0.0256896508811354
atom 11.5374404139531581 0.2226797079127200 1.1033304124330392 Zr
    velocity 0.3180858445508000 0.0308602909590254 0.3049751411263752
atom 1.2434404139531590 5.4426797079127196 1.1033304124330392 Zr
    velocity -0.2067065911363986 0.7515952202521488 0.1728567099896242
atom 6.3904404139531588 5.4426797079127196 1.1033304124330392 Zr
    velocity -0.3504898016111300 -0.1358991120170772 -0.5807523485955963
atom 11.5374404139531581 5.4426797079127196 1.1033304124330392 Zr
    velocity -0.3397641998599143 -0.1016604493440950 0.3973086819818087
atom 1.2434404139531590 10.6626797079127194 1.1033304124330392 Zr
    velocity 0.0660153631676545 -0.2900780820792495 -0.1702460201844428
atom 6.3904404139531588 10.6626797079127194 1.1033304124330392 Zr
    velocity 0.3258492799467689 0.3106301484692322 0.0712188080260017
atom 11.5374404139531581 10.6626797079127194 1.1033304124330392 Zr
    velocity 0.1146952828036234 0.1553985441484589 -0.4634836218811296
atom 0.3830616703988650 0.2226797079127200 6.3573502465828824 Zr
    velocity 0.1938285710426256 0.0324077498308725 0.4340390838663258
atom 5.5300616703988652 0.2226797079127200 6.3573502465828824 Zr
    velocity -0.2097611233125961 -0.2152512363576810 -0.7428428813146154
atom 10.6770616703988637 0.2226797079127200 6.3573502465828824 Zr
    velocity 0.2873519554097535 0.0324413842173457 0.3036764357609862
atom 0.3830616703988650 5.4426797079127196 6.3573502465828824 Zr
    velocity -0.1392999849334829 0.3376035438935265 0.2967856176316995
atom 5.5300616703988652 5.4426797079127196 6.3573502465828824 Zr
    velocity -0.1074488652688586 0.0249689562157746 0.3042271487202640
atom 10.6770616703988637 5.4426797079127196 6.3573502465828824 Zr
    velocity 0.0990141228302374 0.4075671868478369 -0.2454257226578259
atom 0.3830616703988650 10.6626797079127194 6.3573502465828824 Zr
    velocity 0.5112220239339925 -0.4590959948088335 -0.0774225816967773
atom 5.5300616703988652 10.6626797079127194 6.3573502465828824 Zr
    velocity -0.2275957482424285 -0.2403501239123005 -0.0384091762473930
atom 10.6770616703988637 10.6626797079127194 6.3573502465828824 Zr
    velocity 0.0581771038884725 0.1846410633640197 0.1684657859392401
atom -0.4773170731554288 0.2226797079127200 11.6113700807327245 Zr
    velocity 0.2371035695693112 -0.3679708325461416 -0.0716685594053422
atom 4.6696829268445725 0.2226797079127200 11.6113700807327245 Zr
    velocity 0.7802425698320113 -0.0464855702011604 -0.3832004703740141
atom 9.8166829268445710 0.2226797079127200 11.6113700807327245 Zr
    velocity -0.0680309551437161 0.0306977807529334 0.4667050121637324
atom -0.4773170731554288 5.4426797079127196 11.6113700807327245 Zr
    velocity -0.3161503874308371 0.1041599365410025 -0.3208037536616076
atom 4.6696829268445725 5.4426797079127196 11.6113700807327245 Zr
    velocity -0.3225471683888358 0.3491584397678947 0.1848547342127195
atom 9.8166829268445710 5.4426797079127196 11.6113700807327245 Zr
    velocity -0.0446500937689602 0.6177826225652727 0.3411408936579939
atom -0.4773170731554288 10.6626797079127194 11.6113700807327245 Zr
    velocity 0.5983395503300518 0.1623572991791721 0.0240525707221686
atom 4.6696829268445725 10.6626797079127194 11.6113700807327245 Zr
    velocity -0.1473835779186967 -0.0406908665736588 -0.1545853196205829
atom 9.8166829268445710 10.6626797079127194 11.6113700807327245 Zr
    velocity 0.3370310432674754 -0.4219099264517883 0.0365622248620206
atom 3.0431805370682485 4.9973202920872808 4.1506894952730793 Zr
    velocity -0.0896297292503792 0.3191867598938483 -0.1054651491812312
atom 8.1901805370682457 4.9973202920872808 4.1506894952730793 Zr
    velocity -0.0443042148554354 0.3561201508705112 -0.2998388392900463
atom 13.3371805370682441 4.9973202920872808 4.1506894952730793 Zr
    velocity 0.0446653644269571 0.3941012823870179 0.3738918215297113
atom 3.0431805370682485 10.2173202920872832 4.1506894952730793 Zr
    velocity -0.2097163397902323 0.5394904896559287 -0.3552010439937717
atom 8.1901805370682457 10.2173202920872832 4.1506894952730793 Zr
    velocity 0.1865343002909510 -0.0265465409959587 0.0265432792570277
atom 13.3371805370682441 10.2173202920872832 4.1506894952730793 Zr
    velocity 0.2251600518877006 0.2963635527270882 -0.0257670023771212
atom 3.0431805370682485 15.4373202920872838 4.1506894952730793 Zr
    velocity -0.1043107696111802 0.1538718647568973 0.6862635340939394
atom 8.1901805370682457 15.4373202920872838 4.1506894952730793 Zr
    velocity 0.8591012149654494 -0.0326656132556827 0.1965889931389081
atom 13.3371805370682441 15.4373202920872838 4.1506894952730793 Zr
    velocity -0.2124786109502799 0.1434419632209641 -0.2831467060220009
atom 2.1828017935139545 4.9973202920872808 9.4047093294229214 Zr
    velocity 0.1860698459712102 0.1370951453069373 -0.3384893149644998
atom 7.3298017935139512 4.9973202920872808 9.4047093294229214 Zr
    velocity 0.1081379874051824 0.2787705499561010 0.2598973174017222
atom 12.4768017935139497 4.9973202920872808 9.4047093294229214 Zr
    velocity 0.2959921254223080 0.2670744275077165 -0.3327470725354451
atom 2.1828017935139545 10.2173202920872832 9.4047093294229214 Zr
    velocity -0.1335416427388197 -0.1998283465396856 0.3968139189256446
atom 7.3298017935139512 10.2173202920872832 9.4047093294229214 Zr
    velocity -0.1023222807710112 -0.3160165847985118 0.2105067054384225
atom 12.4768017935139497 10.2173202920872832 9.4047093294229214 Zr
    velocity -0.2537367345219026 0.3629820952050785 -0.7388738264564907
atom 2.1828017935139545 15.4373202920872838 9.4047093294229214 Zr
    velocity 0.1326344749848338 -0.3932797759401497 -0.1834130745426565
atom 7.3298017935139512 15.4373202920872838 9.4047093294229214 Zr
    velocity -0.2407227432711621 -0.1172319679730177 -0.1467343169307359
atom 12.4768017935139497 15.4373202920872838 9.4047093294229214 Zr
    velocity -0.2849984628904954 -0.0035574605946371 0.5718521919599474
atom 1.3224230499596608 4.9973202920872808 14.6587291635727635 Zr
    velocity 0.3507138999590387 0.2270027307240993 0.0191955311780639
atom 6.4694230499596577 4.9973202920872808 14.6587291635727635 Zr
    velocity 0.1895516983501765 -0.0144349424928478 -0.0032928630093946
atom 11.6164230499596588 4.9973202920872808 14.6587291635727635 Zr
    velocity -0.5589868577220076 -0.1246529279617111 -0.2921499688448650
atom 1.3224230499596608 10.2173202920872832 14.6587291635727635 Zr
    velocity -0.2281860995140035 -0.3381109466953827 0.3990505643505556
atom 6.4694230499596577 10.2173202920872832 14.6587291635727635 Zr
    velocity 0.1657099169836403 0.5165983679953937 -0.2517565140346659
atom 11.6164230499596588 10.2173202920872832 14.6587291635727635 Zr
    velocity -0.1695889000962015 0.1212564703658093 0.2173059818849593
atom 1.3224230499596608 15.4373202920872838 14.6587291635727635 Zr
    velocity -0.2873207739854884 -0.0682108466225747 0.5268974837125324
atom 6.4694230499596577 15.4373202920872838 14.6587291635727635 Zr
    velocity -0.2719619898776928 0.0344110564402815 0.0099019138161891
atom 11.6164230499596588 15.4373202920872838 14.6587291635727635 Zr
    velocity -0.1769455072442991 -0.2186726571722208 -0.0770849231421979
atom 3.4733699088453918 2.8326797079127206 1.5236795781981589 Zr
    velocity -0.6898057319502096 -0.4774012810864693 -0.3090199559017894
atom 8.6203699088453920 2.8326797079127206 1.5236795781981589 Zr
    velocity -0.2750228729861502 0.2020080410307319 -0.2180454477917106
atom 13.7673699088453905 2.8326797079127206 1.5236795781981589 Zr
    velocity 0.3537345419594677 0.2776480561320097 0.4201046725198277
atom 3.4733699088453918 8.0526797079127199 1.5236795781981589 Zr
    velocity 0.0381405232338973 -0.0365204860915720 -0.5914258205570894
atom 8.6203699088453920 8.0526797079127199 1.5236795781981589 Zr
    velocity -0.0190034570860677 -0.2864383562615808 -0.4570717791250148
atom 13.7673699088453905 8.0526797079127199 1.5236795781981589 Zr
    velocity 0.2750598271610781 0.0387952860814817 0.0376100978765038
atom 3.4733699088453918 13.2726797079127206 1.5236795781981589 Zr
    velocity 0.2458362288748637 0.5804411694074831 -0.0866861188768075
atom 8.6203699088453920 13.2726797079127206 1.5236795781981589 Zr
    velocity -0.0928258170244304 -0.1028352262715585 -0.0978006588228784
atom 13.7673699088453905 13.2726797079127206 1.5236795781981589 Zr
    velocity -0.4461534117890482 0.2073921609828438 0.2927621176569808
atom 2.6129911652910978 2.8326797079127206 6.7776994123480021 Zr
    velocity 0.7001286036895558 0.1008894535725738 0.3029831496662487
atom 7.7599911652910984 2.8326797079127206 6.7776994123480021 Zr
    velocity 0.5287789897864921 0.1704889876184021 0.0024982208173015
atom 12.9069911652910942 2.8326797079127206 6.7776994123480021 Zr
    velocity -0.0828198750224577 -0.1343395391469106 0.0283224836669735
atom 2.6129911652910978 8.0526797079127199 6.7776994123480021 Zr
    velocity -0.1607432722684710 -0.3538248775659531 -0.0030096329953447
atom 7.7599911652910984 8.0526797079127199 6.7776994123480021 Zr
    velocity -0.2408620792552799 -0.2678247455437043 0.2557772306037212
atom 12.9069911652910942 8.0526797079127199 6.7776994123480021 Zr
    velocity -0.1593027407270314 -0.1348783375916704 0.4330838376170357
atom 2.6129911652910978 13.2726797079127206 6.7776994123480021 Zr
    velocity 0.4483472317753767 -0.4587435017107010 -0.0658825264240155
atom 7.7599911652910984 13.2726797079127206 6.7776994123480021 Zr
    velocity 0.5204498380161946 -0.4502741973832847 -0.0409109132376767
atom 12.9069911652910942 13.2726797079127206 6.7776994123480021 Zr
    velocity 0.0048328720064531 0.1117127233745598 0.3560189597350944
atom 1.7526124217368040 2.8326797079127206 12.0317192464978415 Zr
    velocity -0.3934476402014346 0.5261242148095163 -0.1180674609443014
atom 6.8996124217368049 2.8326797079127206 12.0317192464978415 Zr
    velocity -0.2647786305328484 -0.5026321539307552 -0.4273198466044308
atom 12.0466124217368034 2.8326797079127206 12.0317192464978415 Zr
    velocity 0.6890287821599876 0.0774507842862452 0.1721226135850116
atom 1.7526124217368040 8.0526797079127199 12.0317192464978415 Zr
    velocity -0.0816534724761845 0.5241424627924447 0.1473292305683546
atom 6.8996124217368049 8.0526797079127199 12.0317192464978415 Zr
    velocity -0.2428459335388009 0.1329803606764532 -0.0513653150097422
atom 12.0466124217368034 8.0526797079127199 12.0317192464978415 Zr
    velocity -0.6528803684423780 -0.2498406795334261 0.6230300007988759
atom 1.7526124217368040 13.2726797079127206 12.0317192464978415 Zr
    velocity -0.2195171465742451 -0.8443802074502075 0.1038092616235283
atom 6.8996124217368049 13.2726797079127206 12.0317192464978415 Zr
    velocity -0.3831327261676929 -0.1674155074772960 -0.4308158945817718
atom 12.0466124217368034 13.2726797079127206 12.0317192464978415 Zr
    velocity -0.0221777326538822 0.2775269791630955 -0.3610438983742635
atom 0.8132510421760122 2.3873202920872787 3.7303403295079591 Zr
    velocity -0.0029441111912621 -0.2101672924130050 0.1696414559324822
atom 5.9602510421760124 2.3873202920872787 3.7303403295079591 Zr
    velocity 0.0542657844625617 -0.0906724106503007 -0.0562706340487465
atom 11.1072510421760118 2.3873202920872787 3.7303403295079591 Zr
    velocity -0.3012266605943995 0.0251494636356983 0.7355457852737208
atom 0.8132510421760122 7.6073202920872802 3.7303403295079591 Zr
    velocity 0.0497487771080353 -0.1091955157536232 -0.6426917790144382
atom 5.9602510421760124 7.6073202920872802 3.7303403295079591 Zr
    velocity 0.2862577984467285 -0.4214363438426902 -0.2008589106551310
atom 11.1072510421760118 7.6073202920872802 3.7303403295079591 Zr
    velocity 0.1433256097766918 -0.3949237061619698 -0.0130487122550172
atom 0.8132510421760122 12.8273202920872809 3.7303403295079591 Zr
    velocity 0.0295508860351393 -0.2999390710328936 0.2704282472288829
atom 5.9602510421760124 12.8273202920872809 3.7303403295079591 Zr
    velocity 0.1546349960084993 -0.7185456805063051 -0.4769447699676442
atom 11.1072510421760118 12.8273202920872809 3.7303403295079591 Zr
    velocity -0.4574884343627870 -0.0574589658751601 -0.0249156238190737
atom -0.0471277013782814 2.3873202920872787 8.9843601636577990 Zr
    velocity 0.0607233696260047 0.7004887964363263 -0.1876806540838187
atom 5.0998722986217189 2.3873202920872787 8.9843601636577990 Zr
    velocity -0.0377417988777447 0.2293657980955129 0.1854806638243423
atom 10.2468722986217173 2.3873202920872787 8.9843601636577990 Zr
    velocity 0.1630105424502996 0.3862590590342003 0.0818968256299705
atom -0.0471277013782814 7.6073202920872802 8.9843601636577990 Zr
    velocity 0.1190441506674440 0.0593742165458482 -0.4932305292238360
atom 5.0998722986217189 7.6073202920872802 8.9843601636577990 Zr
    velocity -0.2382747399920062 0.4178662249362022 -0.4878565658119587
atom 10.2468722986217173 7.6073202920872802 8.9843601636577990 Zr
    velocity 0.2141093768756777 -0.0870208419195511 -0.4163457019057839
atom -0.0471277013782814 12.8273202920872809 8.9843601636577990 Zr
    velocity 0.0788270897157339 -0.6807979983694034 0.4266134421768806
atom 5.0998722986217189 12.8273202920872809 8.9843601636577990 Zr
    velocity 0.1802036443680459 0.0244617159459825 -0.5006788032595079
atom 10.2468722986217173 12.8273202920872809 8.9843601636577990 Zr
    velocity -0.0976228960547515 0.1375112506915080 0.3661538321092120
atom -0.9075064449325754 2.3873202920872787 14.2383799978076429 Zr
    velocity 0.0456690751059071 -0.0085575866206970 -0.2428563191589051
atom 4.2394935550674244 2.3873202920872787 14.2383799978076429 Zr
    velocity -0.0542828350333157 0.0610120300767664 -0.0606711224839408
atom 9.3864935550674247 2.3873202920872787 14.2383799978076429 Zr
    velocity 0.4412308764686687 0.0630705510639892 0.3186142908123200
atom -0.9075064449325754 7.6073202920872802 14.2383799978076429 Zr
    velocity 0.2438337659312212 0.2723469220620088 -0.0998589953198610
atom 4.2394935550674244 7.6073202920872802 14.2383799978076429 Zr
    velocity 0.3237745124102073 -0.1678488019736081 -0.0462611715824382
atom 9.3864935550674247 7.6073202920872802 14.2383799978076429 Zr
    velocity -0.0154616836756509 -0.6404029752078126 0.0445509093716221
atom -0.9075064449325754 12.8273202920872809 14.2383799978076429 Zr
    velocity -0.1160338073458613 -0.2612895889504480 0.1064094661747375
atom 4.2394935550674244 12.8273202920872809 14.2383799978076429 Zr
    velocity -0.1145073292701918 -0.2052114963907895 -0.0302091783604399
atom 9.3864935550674247 12.8273202920872809 14.2383799978076429 Zr
    velocity -0.0575990324315301 0.0483020273174075 -0.0547147577282282
atom 0.0627057521779769 1.7482162241599200 1.8004395366248871 O
    velocity 0.3952522588246281 -1.2591617290915271 -1.1774017519414899
atom 5.2097057521779755 1.7482162241599200 1.8004395366248871 O
    velocity -0.6011007828847877 0.5024120910844871 -0.3399186384636944
atom 10.3567057521779766 1.7482162241599200 1.8004395366248871 O
    velocity 0.8223589359082797 -0.2502252524328810 -0.6322107202532080
atom 0.0627057521779769 6.9682162241599217 1.8004395366248871 O
    velocity -0.6045667470968615 0.8760773391255062 -0.1157528570811960
atom 5.2097057521779755 6.9682162241599217 1.8004395366248871 O
    velocity -0.1781193877566926 0.2635455239528073 -0.9527646193044463
atom 10.3567057521779766 6.9682162241599217 1.8004395366248871 O
    velocity 0.6593010960645974 -0.4279042951526772 0.3279140341558040
atom 0.0627057521779769 12.1882162241599197 1.8004395366248871 O
    velocity 0.6853513347564844 0.3867897326598151 0.3847741399638136
atom 5.2097057521779755 12.1882162241599197 1.8004395366248871 O
    velocity -0.1482080045411553 -0.6660683099395419 0.2872452674638675
atom 10.3567057521779766 12.1882162241599197 1.8004395366248871 O
    velocity -0.9477939192165876 -0.0344958345114494 0.5826835759796485
atom -0.7976729913763168 1.7482162241599200 7.0544593707747287 O
    velocity 0.0278556332749804 -0.7263838377035509 -0.2018768775448571
atom 4.3493270086236828 1.7482162241599200 7.0544593707747287 O
    velocity 0.9949233636104692 -1.4406647520294449 0.2854577935675519
atom 9.4963270086236822 1.7482162241599200 7.0544593707747287 O
    velocity 1.0393184516987934 -0.4468732282721304 -0.0621840033072518
atom -0.7976729913763168 6.9682162241599217 7.0544593707747287 O
    velocity 0.3885588672180881 -0.3331418094400503 -0.5635385661517922
atom 4.3493270086236828 6.9682162241599217 7.0544593707747287 O
    velocity -0.0639567426901140 0.2483065280501872 -0.6583946781174418
atom 9.4963270086236822 6.9682162241599217 7.0544593707747287 O
    velocity 0.2049866223779822 1.2592667848796393 0.5654635807212681
atom -0.7976729913763168 12.1882162241599197 7.0544593707747287 O
    velocity -0.6094971330593165 -0.4721694660964713 1.1149464664816608
atom 4.3493270086236828 12.1882162241599197 7.0544593707747287 O
    velocity -0.1416327771845425 0.7781121654419285 -0.2217232624957378
atom 9.4963270086236822 12.1882162241599197 7.0544593707747287 O
    velocity 0.1550503599659694 -0.1362218663356164 -0.7587494077220083
atom -1.6580517349306108 1.7482162241599200 12.3084792049245717 O
    velocity 0.4911464459078217 -0.2689385215449928 0.3221384272955046
atom 3.4889482650693879 1.7482162241599200 12.3084792049245717 O
    velocity -0.7436845785827413 0.8943368824162826 0.4693884975461162
atom 8.6359482650693895 1.7482162241599200 12.3084792049245717 O
    velocity 0.8184883007222721 -0.8417262089430515 -0.3949062672741486
atom -1.6580517349306108 6.9682162241599217 12.3084792049245717 O
    velocity -1.7652055551318830 0.4759287223317641 -0.8343212168212233
atom 3.4889482650693879 6.9682162241599217 12.3084792049245717 O
    velocity -0.8306144923081107 0.5309621242456437 -0.7897756616327536
atom 8.6359482650693895 6.9682162241599217 12.3084792049245717 O
    velocity 1.1367587832579151 0.8272641224356242 0.7557237094036143
atom -1.6580517349306108 12.1882162241599197 12.3084792049245717 O
    velocity -0.0235347219058230 -0.0961925358128831 -0.8222490952361248
atom 3.4889482650693879 12.1882162241599197 12.3084792049245717 O
    velocity 0.0310400272064414 0.1754746968690990 1.1774945393320333
atom 8.6359482650693895 12.1882162241599197 12.3084792049245717 O
    velocity -1.5439649513779736 0.2232784624718375 0.3015793478447544
atom 4.2239151988434269 3.4717837758400814 3.4535803710812343 O
    velocity -0.5445080949386197 -0.5288799399886919 -0.6095726646531580
atom 9.3709151988434272 3.4717837758400814 3.4535803710812343 O
    velocity -0.0651209634923550 -0.5962591783641955 0.2657652605836195
atom 14.5179151988434274 3.4717837758400814 3.4535803710812343 O
    velocity -0.9848187429180308 -0.6026047092305216 -0.1536726558905765
atom 4.2239151988434269 8.6917837758400793 3.4535803710812343 O
    velocity 0.6041198046811878 0.1105617129399668 0.6972092990844013
atom 9.3709151988434272 8.6917837758400793 3.4535803710812343 O
    velocity -1.0307304569098001 0.6410518450751312 0.5234193203243154
atom 14.5179151988434274 8.6917837758400793 3.4535803710812343 O
    velocity -0.3429717180687402 -0.8442330431567378 -1.6576296072176981
atom 4.2239151988434269 13.9117837758400800 3.4535803710812343 O
    velocity 1.0430614961915510 1.6562619887764289 -0.2751043337218688
atom 9.3709151988434272 13.9117837758400800 3.4535803710812343 O
    velocity 0.2929534989700103 -0.2886296179562788 0.7150257953719016
atom 14.5179151988434274 13.9117837758400800 3.4535803710812343 O
    velocity -0.3835922364407764 0.0873055932865421 -0.9943265291032799
atom 3.3635364552891329 3.4717837758400814 8.7076002052310741 O
    velocity -1.6719063275108281 0.4776826845232830 0.6450404738343432
atom 8.5105364552891327 3.4717837758400814 8.7076002052310741 O
    velocity 0.6857403210724696 -1.1159924337423925 -0.1233919972353813
atom 13.6575364552891330 3.4717837758400814 8.7076002052310741 O
    velocity 0.5710587864221984 0.8816589602130718 0.6398882035116495
atom 3.3635364552891329 8.6917837758400793 8.7076002052310741 O
    velocity 0.5672121302860411 -0.8795565970090192 0.3597375057476050
atom 8.5105364552891327 8.6917837758400793 8.7076002052310741 O
    velocity -1.1098039678890299 0.5810751262257476 0.3488997108888912
atom 13.6575364552891330 8.6917837758400793 8.7076002052310741 O
    velocity 0.0803960325430823 -0.8822669148001073 0.6234041288075242
atom 3.3635364552891329 13.9117837758400800 8.7076002052310741 O
    velocity -0.2912833332583394 -0.3903647835050446 -0.0920197921174942
atom 8.5105364552891327 13.9117837758400800 8.7076002052310741 O
    velocity -0.8401065436427627 0.0193732991555373 -0.2915444923088701
atom 13.6575364552891330 13.9117837758400800 8.7076002052310741 O
    velocity -0.3969005109576478 -0.0183217173241957 2.2456437768922699
atom 2.5031577117348389 3.4717837758400814 13.9616200393809180 O
    velocity 1.3631657432326849 0.6341766790198772 -0.5666458811903626
atom 7.6501577117348392 3.4717837758400814 13.9616200393809180 O
    velocity 1.5440757511980503 0.0180797537977933 -0.0755856643008924
atom 12.7971577117348421 3.4717837758400814 13.9616200393809180 O
    velocity -0.5171430777610557 0.8697090642753792 0.6395116417578335
atom 2.5031577117348389 8.6917837758400793 13.9616200393809180 O
    velocity 0.0977009645320287 0.0820451700528439 1.2512916833197356
atom 7.6501577117348392 8.6917837758400793 13.9616200393809180 O
    velocity 1.0035931220842729 0.0139108144493789 -0.9503111021284387
atom 12.7971577117348421 8.6917837758400793 13.9616200393809180 O
    velocity 0.4817679184460723 -0.1070228682639613 0.6928644257980529
atom 2.5031577117348389 13.9117837758400800 13.9616200393809180 O
    velocity 1.6720934484534642 -0.4197073969132992 -0.0176138797485265
atom 7.6501577117348392 13.9117837758400800 13.9616200393809180 O
    velocity -0.2468769789494787 0.7672448487002181 0.0612267660080436
atom 12.7971577117348421 13.9117837758400800 13.9616200393809180 O
    velocity 0.0367863351610873 0.6026154491136685 0.2577426613595916
atom 4.6541045706205750 4.3582162241599205 0.8265704540063128 O
    velocity 0.7858872841396747 0.4303674795885533 1.0498458291156139
atom 9.8011045706205735 4.3582162241599205 0.8265704540063128 O
    velocity 0.7202732335984584 0.6389725125249777 -0.9871033165020965
atom 14.9481045706205737 4.3582162241599205 0.8265704540063128 O
    velocity 0.0535483699476681 -0.1886442677653297 -0.2013303383662645
atom 4.6541045706205750 9.5782162241599202 0.8265704540063128 O
    velocity -0.3568848601726446 1.4645652430006952 -0.3595358057918371
atom 9.8011045706205735 9.5782162241599202 0.8265704540063128 O
    velocity -0.7174327369098199 -0.2281436297266106 -0.6592833478931257
atom 14.9481045706205737 9.5782162241599202 0.8265704540063128 O
    velocity 0.2878833942751818 -0.2976561022074121 -0.1383712567767827
atom 4.6541045706205750 14.7982162241599191 0.8265704540063128 O
    velocity -0.6771941225090287 -1.0398156595132302 -0.1443450625840090
atom 9.8011045706205735 14.7982162241599191 0.8265704540063128 O
    velocity 1.0522205212022442 -0.1643467104292898 1.2000208099804193
atom 14.9481045706205737 14.7982162241599191 0.8265704540063128 O
    velocity 0.7369871840254257 1.9454362558760407 0.6568977232603320
atom 3.7937258270662815 4.3582162241599205 6.0805902881561540 O
    velocity -0.2269018272494627 1.2830908434729298 -1.7617732685088738
atom 8.9407258270662808 4.3582162241599205 6.0805902881561540 O
    velocity 0.1451459900030926 0.2250348745378984 -1.2868025064377329
atom 14.0877258270662811 4.3582162241599205 6.0805902881561540 O
    velocity 0.2378195345880459 0.0094184052618952 0.6941953921851922
atom 3.7937258270662815 9.5782162241599202 6.0805902881561540 O
    velocity 0.4274211228731226 -0.2834965712744537 0.0017023649903562
atom 8.9407258270662808 9.5782162241599202 6.0805902881561540 O
    velocity 0.1066278482594261 -1.0089053511990851 -1.5626869519140709
atom 14.0877258270662811 9.5782162241599202 6.0805902881561540 O
    velocity -0.0753043249908862 -0.3201671083630971 0.2064549044912926
atom 3.7937258270662815 14.7982162241599191 6.0805902881561540 O
    velocity 0.2538226304720720 -0.4781845483869460 0.4128187776211785
atom 8.9407258270662808 14.7982162241599191 6.0805902881561540 O
    velocity 0.0965486034807092 -0.2763233477131672 0.3309809074923778
atom 14.0877258270662811 14.7982162241599191 6.0805902881561540 O
    velocity 0.0277561626626543 0.6745287711051512 -0.3738268350033678
atom 2.9333470835119861 4.3582162241599205 11.3346101223059943 O
    velocity -1.2386982544782892 -0.3542687514932729 0.0497845796384879
atom 8.0803470835119864 4.3582162241599205 11.3346101223059943 O
    velocity 1.3104697770751692 -0.2276094294148084 -0.6239746292107887
atom 13.2273470835119866 4.3582162241599205 11.3346101223059943 O
    velocity 0.6720803579131606 0.6858627475040922 -1.1868574969114050
atom 2.9333470835119861 9.5782162241599202 11.3346101223059943 O
    velocity -0.9222645148514687 0.3608091849071687 -0.2470758869196030
atom 8.0803470835119864 9.5782162241599202 11.3346101223059943 O
    velocity 0.6455850775074248 -0.9186088766575692 -0.3607446608055917
atom 13.2273470835119866 9.5782162241599202 11.3346101223059943 O
    velocity 0.0501533663411171 1.2273155800044233 -0.3814873461196203
atom 2.9333470835119861 14.7982162241599191 11.3346101223059943 O
    velocity 0.1667457744772392 0.1279191177562775 0.0038466647783485
atom 8.0803470835119864 14.7982162241599191 11.3346101223059943 O
    velocity -0.6043276032662405 -0.2753440676627647 0.3576437619789554
atom 13.2273470835119866 14.7982162241599191 11.3346101223059943 O
    velocity -0.8998235662955204 0.0244378498413892 -0.6860767112462909
atom -0.3674836195991701 0.8617837758400805 4.4274494536998086 O
    velocity -1.3559600238632226 0.9076020864456654 0.4726030854989517
atom 4.7795163804008283 0.8617837758400805 4.4274494536998086 O
    velocity 0.2993586642716303 0.7348717151316950 0.0167981836838035
atom 9.9265163804008303 0.8617837758400805 4.4274494536998086 O
    velocity -0.1117857433367410 1.3962104479007063 -0.1021679277843233
atom -0.3674836195991701 6.0817837758400799 4.4274494536998086 O
    velocity 1.3785275359521574 -1.0762833168224482 -0.0939804782840359
atom 4.7795163804008283 6.0817837758400799 4.4274494536998086 O
    velocity 0.3645379086110354 -0.0660433550387527 0.5671690756254480
atom 9.9265163804008303 6.0817837758400799 4.4274494536998086 O
    velocity 0.2525011425623196 0.6498205964572296 0.5575924023498720
atom -0.3674836195991701 11.3017837758400788 4.4274494536998086 O
    velocity 0.6874591664897783 -0.2146172181184537 0.4091307045228180
atom 4.7795163804008283 11.3017837758400788 4.4274494536998086 O
    velocity 0.5968697839955225 0.7348353760296602 -0.1949563176816830
atom 9.9265163804008303 11.3017837758400788 4.4274494536998086 O
    velocity -1.3585945693728179 0.4157956912784433 -0.7910622748025162
atom -1.2278623631534651 0.8617837758400805 9.6814692878496480 O
    velocity -0.8258975418819052 0.6797758757030029 -0.4164148250213679
atom 3.9191376368465347 0.8617837758400805 9.6814692878496480 O
    velocity 0.3163506307099286 -0.8362422182766105 -1.1409396721284781
atom 9.0661376368465358 0.8617837758400805 9.6814692878496480 O
    velocity 0.0500248153928345 -0.7445095943904457 0.1482948258480376
atom -1.2278623631534651 6.0817837758400799 9.6814692878496480 O
    velocity -0.5319410803991077 -0.1136765520874424 -1.4091061519010721
atom 3.9191376368465347 6.0817837758400799 9.6814692878496480 O
    velocity -0.7666401683310790 0.6315052717388218 1.5942514046211778
atom 9.0661376368465358 6.0817837758400799 9.6814692878496480 O
    velocity -0.5658478970855989 0.4698037455272048 1.2006462439321399
atom -1.2278623631534651 11.3017837758400788 9.6814692878496480 O
    velocity 1.0554291386967904 0.2075689783794748 0.3298915029896170
atom 3.9191376368465347 11.3017837758400788 9.6814692878496480 O
    velocity 0.1900557752290780 0.5544874924048403 0.5876154983390816
atom 9.0661376368465358 11.3017837758400788 9.6814692878496480 O
    velocity 0.8872397611545124 -0.8493836645682047 1.2326525549688807
atom -2.0882411067077591 0.8617837758400805 14.9354891219994919 O
    velocity 0.7535280325441926 -0.2603223136903490 0.0007267106215267
atom 3.0587588932922412 0.8617837758400805 14.9354891219994919 O
    velocity -0.4098802462429054 -0.1267586370369452 -0.5586066155057482
atom 8.2057588932922396 0.8617837758400805 14.9354891219994919 O
    velocity 1.5759076815436690 1.1350440221218707 0.1124598883379355
atom -2.0882411067077591 6.0817837758400799 14.9354891219994919 O
    velocity -0.4022031815299538 0.4419847469464288 0.2299710518333517
atom 3.0587588932922412 6.0817837758400799 14.9354891219994919 O
    velocity -0.7291651686873138 0.5843939983019668 -0.1948748678744497
atom 8.2057588932922396 6.0817837758400799 14.9354891219994919 O
    velocity 0.0636664011255488 -0.6860270850095648 -1.4183115804473860
atom -2.0882411067077591 11.3017837758400788 14.9354891219994919 O