#=======================================================
# FHI-aims file: 300_geometry.in.primitive.supercell_8748.0010K
# Created using the Atomic Simulation Environment (ASE)
# Wed Aug 24 14:02:30 2022

# Additional information:
#  created from MB distrubtion
#  T = 10.0 K
#  quantum:             False
#  deterministic:       False
#  plus_minus:          False
#  gauge_eigenvectors:  False
#  Random seed:         1187659695
#  Sample number:       1
#=======================================================
lattice_vector 46.3230000000000004 0.0000000000000000 0.0000000000000000 
lattice_vector 0.0000000000000000 46.9799999999999969 0.0000000000000000 
lattice_vector -7.7434086919886438 0.0000000000000000 47.2861785073485805 
atom 1.2434404139531601 0.2226797079127184 1.1033304124330408 Zr
    velocity 0.1625813568961780 -0.0061847316422021 -0.1543201537432224
atom 6.3904404139531596 0.2226797079127184 1.1033304124330408 Zr
    velocity -0.0701334087717053 0.0686335584238043 0.3477182277633342
atom 11.5374404139531546 0.2226797079127184 1.1033304124330408 Zr
    velocity 0.4286689979131080 -0.0018082065563062 -0.5520474295174443
atom 16.6844404139531512 0.2226797079127184 1.1033304124330408 Zr
    velocity -0.4833287816820600 0.0960822803417019 -0.2332496314618702
atom 21.8314404139531568 0.2226797079127184 1.1033304124330408 Zr
    velocity -0.2426654124998674 0.0777808130487460 0.0494358716597513
atom 26.9784404139531553 0.2226797079127184 1.1033304124330408 Zr
    velocity 0.0797255424668536 0.2422760330565476 -0.0429243107485707
atom 32.1254404139531573 0.2226797079127184 1.1033304124330408 Zr
    velocity -0.5463829355240195 0.2304524748109184 0.4163430342588478
atom 37.2724404139531558 0.2226797079127184 1.1033304124330408 Zr
    velocity 0.2071413779165789 -0.1557863334320058 0.2354023603473551
atom 42.4194404139531542 0.2226797079127184 1.1033304124330408 Zr
    velocity -0.0698412859708780 -0.1407946623687061 0.5015390003129314
atom 1.2434404139531601 5.4426797079127178 1.1033304124330408 Zr
    velocity 0.6988854967769427 -0.1447902466106031 -0.3558410459666739
atom 6.3904404139531596 5.4426797079127178 1.1033304124330408 Zr
    velocity 0.2410194753473987 -0.1717656271990221 -0.0168969860018333
atom 11.5374404139531546 5.4426797079127178 1.1033304124330408 Zr
    velocity 0.5874568263620172 0.3215547440128994 0.1084797328763158
atom 16.6844404139531512 5.4426797079127178 1.1033304124330408 Zr
    velocity -0.1011758247456616 0.0893996113470644 0.0376300555440574
atom 21.8314404139531568 5.4426797079127178 1.1033304124330408 Zr
    velocity 0.0087271813054200 -0.2504231660125363 -0.2679411910636501
atom 26.9784404139531553 5.4426797079127178 1.1033304124330408 Zr
    velocity -0.9014541813202240 0.1888917063602344 0.3761203656736566
atom 32.1254404139531573 5.4426797079127178 1.1033304124330408 Zr
    velocity 0.3007263033730254 0.4660078498935822 -0.1681401864564535
atom 37.2724404139531558 5.4426797079127178 1.1033304124330408 Zr
    velocity 0.1529109043743024 0.5943741621351615 -0.3487541767862654
atom 42.4194404139531542 5.4426797079127178 1.1033304124330408 Zr
    velocity -0.4098339221971354 -0.2468791601219863 -0.3306970877951128
atom 1.2434404139531601 10.6626797079127158 1.1033304124330408 Zr
    velocity 0.4236402067351598 -0.0467105930214076 0.0982135691788070
atom 6.3904404139531596 10.6626797079127158 1.1033304124330408 Zr
    velocity 0.4354451290995932 0.1085772328315940 0.0458982326062430
atom 11.5374404139531546 10.6626797079127158 1.1033304124330408 Zr
    velocity -0.3792173361489230 -0.1847936330286694 0.0538646485065491
atom 16.6844404139531512 10.6626797079127158 1.1033304124330408 Zr
    velocity 0.2711195400912096 0.2168601057240435 0.4460053454074799
atom 21.8314404139531568 10.6626797079127158 1.1033304124330408 Zr
    velocity -0.3831360755233678 -0.1344610004468389 -0.1602036983205296
atom 26.9784404139531553 10.6626797079127158 1.1033304124330408 Zr
    velocity -0.3727633817362396 0.5939258565162654 0.1232373448537069
atom 32.1254404139531573 10.6626797079127158 1.1033304124330408 Zr
    velocity -0.2533704436522719 -0.8129783918804580 0.4063520691836222
atom 37.2724404139531558 10.6626797079127158 1.1033304124330408 Zr
    velocity 0.0212641023801575 0.2228946352908433 -0.1239267671861313
atom 42.4194404139531542 10.6626797079127158 1.1033304124330408 Zr
    velocity 0.2187966014991798 0.1222467063801044 -0.0353185607955818
atom 1.2434404139531601 15.8826797079127200 1.1033304124330408 Zr
    velocity 0.1689763566641401 -0.0039671995921823 -0.1544320981049595
atom 6.3904404139531596 15.8826797079127200 1.1033304124330408 Zr
    velocity 0.0744648650439807 -0.1113524068142482 -0.2000881874104598
atom 11.5374404139531546 15.8826797079127200 1.1033304124330408 Zr
    velocity -0.2690204372912690 0.0347249320514742 0.1587338472722554
atom 16.6844404139531512 15.8826797079127200 1.1033304124330408 Zr
    velocity 0.0843928865299533 0.0963640296794395 0.2546344429470070
atom 21.8314404139531568 15.8826797079127200 1.1033304124330408 Zr
    velocity -0.7416222143449216 -0.4100262469763676 0.3290218184599136
atom 26.9784404139531553 15.8826797079127200 1.1033304124330408 Zr
    velocity -0.2658082207800595 -0.2814616895736541 -0.3220053728053950
atom 32.1254404139531573 15.8826797079127200 1.1033304124330408 Zr
    velocity -0.2059307544302542 -0.2768007938182120 -0.3253194574157284
atom 37.2724404139531558 15.8826797079127200 1.1033304124330408 Zr
    velocity -0.2425744697759884 -0.0361342689851390 0.0883911606986679
atom 42.4194404139531542 15.8826797079127200 1.1033304124330408 Zr
    velocity -0.3563166060870314 -0.3285123453208492 0.0716149400521543
atom 1.2434404139531601 21.1026797079127206 1.1033304124330408 Zr
    velocity -0.2259409667695302 -0.0202610084008990 0.4600700204554257
atom 6.3904404139531596 21.1026797079127206 1.1033304124330408 Zr
    velocity 0.1882369443274667 0.1471219963200308 -0.5166312536226723
atom 11.5374404139531546 21.1026797079127206 1.1033304124330408 Zr
    velocity -0.0080262910176283 0.4376526813931411 0.0039520258608930
atom 16.6844404139531512 21.1026797079127206 1.1033304124330408 Zr
    velocity 0.0180533512005594 0.3616176267401850 0.0601516161925664
atom 21.8314404139531568 21.1026797079127206 1.1033304124330408 Zr
    velocity 0.0740801080149792 0.3306306816380642 -0.1940188190666193
atom 26.9784404139531553 21.1026797079127206 1.1033304124330408 Zr
    velocity 0.1595154595717118 0.4612293688893270 -0.2101118054924687
atom 32.1254404139531573 21.1026797079127206 1.1033304124330408 Zr
    velocity 0.3724211629101746 0.4613892942257520 -0.3501738967570405
atom 37.2724404139531558 21.1026797079127206 1.1033304124330408 Zr
    velocity 0.0042300898508295 -0.0313073687473211 0.2761780688529853
atom 42.4194404139531542 21.1026797079127206 1.1033304124330408 Zr
    velocity -0.0473261367139688 0.1155054200502625 -0.5833997357290720
atom 1.2434404139531601 26.3226797079127195 1.1033304124330408 Zr
    velocity 0.4390595702810599 0.8984266497897643 -0.1620750962380714
atom 6.3904404139531596 26.3226797079127195 1.1033304124330408 Zr
    velocity 0.0388701679853057 -0.1514934582274395 -0.3242581032394868
atom 11.5374404139531546 26.3226797079127195 1.1033304124330408 Zr
    velocity -0.1181666150192293 -0.5049510808249569 -0.2109844397866715
atom 16.6844404139531512 26.3226797079127195 1.1033304124330408 Zr
    velocity -0.3008611650785603 -0.2225383470592516 0.2736204554227212
atom 21.8314404139531568 26.3226797079127195 1.1033304124330408 Zr
    velocity -0.2719418991056470 0.1078488302758743 -0.1784050631401175
atom 26.9784404139531553 26.3226797079127195 1.1033304124330408 Zr
    velocity 0.0358199705556291 0.0536005288676605 0.2598906309349098
atom 32.1254404139531573 26.3226797079127195 1.1033304124330408 Zr
    velocity -0.0923905349185943 -0.4391051860257517 0.4296410231928685
atom 37.2724404139531558 26.3226797079127195 1.1033304124330408 Zr
    velocity 0.5228524049030083 -0.2237643717471640 0.0476252676936256
atom 42.4194404139531542 26.3226797079127195 1.1033304124330408 Zr
    velocity -0.1780631156355917 0.2658244514405700 -0.4670455281032564
atom 1.2434404139531601 31.5426797079127148 1.1033304124330408 Zr
    velocity -0.3219270001597317 -0.3904551778851936 0.6208587701348699
atom 6.3904404139531596 31.5426797079127148 1.1033304124330408 Zr
    velocity -0.1746607051233539 -0.3513825282166137 -0.1010288999316366
atom 11.5374404139531546 31.5426797079127148 1.1033304124330408 Zr
    velocity -0.2566150716783423 0.1226808691622531 -0.2169991471837197
atom 16.6844404139531512 31.5426797079127148 1.1033304124330408 Zr
    velocity 0.2793237657326392 -0.1214500212527950 0.2450439444534383
atom 21.8314404139531568 31.5426797079127148 1.1033304124330408 Zr
    velocity -0.2743716324039330 0.0714756129169945 -0.1419423730826998
atom 26.9784404139531553 31.5426797079127148 1.1033304124330408 Zr
    velocity 0.2820933081358788 -0.6702377985210466 -0.0815963159323831
atom 32.1254404139531573 31.5426797079127148 1.1033304124330408 Zr
    velocity -0.1311497481862975 0.2086975189983741 0.1659143218901651
atom 37.2724404139531558 31.5426797079127148 1.1033304124330408 Zr
    velocity 0.1041597737324699 -0.1617991419845540 -0.2617479078703883
atom 42.4194404139531542 31.5426797079127148 1.1033304124330408 Zr
    velocity -0.0203312823246922 -0.2510441201579740 -0.3229644550100870
atom 1.2434404139531601 36.7626797079127172 1.1033304124330408 Zr
    velocity -0.0588640332197456 -0.1433715379865007 0.2573339332554553
atom 6.3904404139531596 36.7626797079127172 1.1033304124330408 Zr
    velocity -0.0920672364993772 -0.6977655286285629 0.0397464103940711
atom 11.5374404139531546 36.7626797079127172 1.1033304124330408 Zr
    velocity -0.1133185586958821 -0.1676307538157081 -0.0440814398772114
atom 16.6844404139531512 36.7626797079127172 1.1033304124330408 Zr
    velocity 0.4291661382923883 0.1782839682133390 0.1315741749484646
atom 21.8314404139531568 36.7626797079127172 1.1033304124330408 Zr
    velocity -0.2211445381193375 -0.3730720050333264 0.2147483203201086
atom 26.9784404139531553 36.7626797079127172 1.1033304124330408 Zr
    velocity -0.5644937603675240 -0.0263955729390812 -0.1010113675890163
atom 32.1254404139531573 36.7626797079127172 1.1033304124330408 Zr
    velocity -0.0991529572548077 -0.0350524314133091 0.1073557610137001
atom 37.2724404139531558 36.7626797079127172 1.1033304124330408 Zr
    velocity 0.1518817818438354 -0.4730908589806789 -0.0915749921994830
atom 42.4194404139531542 36.7626797079127172 1.1033304124330408 Zr
    velocity -0.3323335571644817 0.1819858666225288 -0.7992930163074935
atom 1.2434404139531601 41.9826797079127161 1.1033304124330408 Zr
    velocity 0.0728617848900386 0.4973089726397872 0.1860145085387996
atom 6.3904404139531596 41.9826797079127161 1.1033304124330408 Zr
    velocity 0.1520851859617405 -0.1584273426790752 0.2348959437321066
atom 11.5374404139531546 41.9826797079127161 1.1033304124330408 Zr
    velocity 0.3324400263546946 0.0552800232387215 0.3842966551314253
atom 16.6844404139531512 41.9826797079127161 1.1033304124330408 Zr
    velocity 0.0069531467389591 -0.3069937825071414 -0.4168577685846689
atom 21.8314404139531568 41.9826797079127161 1.1033304124330408 Zr
    velocity -0.2723627248752331 0.3903655534228420 -0.0311312761660473
atom 26.9784404139531553 41.9826797079127161 1.1033304124330408 Zr
    velocity 0.0074187980124234 -0.1627271398094659 0.2968894083717022
atom 32.1254404139531573 41.9826797079127161 1.1033304124330408 Zr
    velocity -0.2014539725329063 -0.0093195243813898 0.0642568894502330
atom 37.2724404139531558 41.9826797079127161 1.1033304124330408 Zr
    velocity 0.6710411861301389 0.4376621979445225 -0.2361405997557951
atom 42.4194404139531542 41.9826797079127161 1.1033304124330408 Zr
    velocity -0.3188446901004701 -0.0374736809777842 0.4544897974297654
atom 0.3830616703988665 0.2226797079127184 6.3573502465828824 Zr
    velocity -0.6247902944635855 -0.0846745357386451 0.1758929109552478
atom 5.5300616703988661 0.2226797079127184 6.3573502465828824 Zr
    velocity -0.1689767798166248 -0.3165174936649456 -0.0886974771413405
atom 10.6770616703988601 0.2226797079127184 6.3573502465828824 Zr
    velocity -0.6268500849715445 0.4323200732217992 0.2869840147832667
atom 15.8240616703988586 0.2226797079127184 6.3573502465828824 Zr
    velocity 0.0772189389802913 -0.0191879340793982 -0.3506631329398897
atom 20.9710616703988642 0.2226797079127184 6.3573502465828824 Zr
    velocity -0.2003095389073338 0.1178285283412428 0.7614850834295600
atom 26.1180616703988626 0.2226797079127184 6.3573502465828824 Zr
    velocity -0.1970650732419941 -0.4150647919840700 -0.3357355903623687
atom 31.2650616703988646 0.2226797079127184 6.3573502465828824 Zr
    velocity 0.6732434758217667 -0.1718900543949207 0.5101865876154981
atom 36.4120616703988631 0.2226797079127184 6.3573502465828824 Zr
    velocity -0.1682129647446134 -0.1021861195937875 -0.1439714000093491
atom 41.5590616703988616 0.2226797079127184 6.3573502465828824 Zr
    velocity -0.1922260863727813 0.2296143157914320 0.5052366628670915
atom 0.3830616703988665 5.4426797079127178 6.3573502465828824 Zr
    velocity -0.7923416014333977 -0.1565046723101096 -0.2047928868736388
atom 5.5300616703988661 5.4426797079127178 6.3573502465828824 Zr
    velocity 0.4025991948963702 0.0714964803196259 0.1259519853798185
atom 10.6770616703988601 5.4426797079127178 6.3573502465828824 Zr
    velocity -0.2434836441728635 0.0923656563437538 -0.2345384562422929
atom 15.8240616703988586 5.4426797079127178 6.3573502465828824 Zr
    velocity -0.6204800677549311 0.0457692066558083 0.0761155956592708
atom 20.9710616703988642 5.4426797079127178 6.3573502465828824 Zr
    velocity -0.0745515942031065 0.0566543484737015 -0.0686591522738522
atom 26.1180616703988626 5.4426797079127178 6.3573502465828824 Zr
    velocity -0.2239157358808241 -0.9259352314415797 -0.0282478084133722
atom 31.2650616703988646 5.4426797079127178 6.3573502465828824 Zr
    velocity 0.2496651059674062 -0.1374722434142883 0.7739301659607920
atom 36.4120616703988631 5.4426797079127178 6.3573502465828824 Zr
    velocity -0.2412933025250515 0.1257744907673621 -0.1420160554904193
atom 41.5590616703988616 5.4426797079127178 6.3573502465828824 Zr
    velocity 0.0329095518479558 0.1790168915336817 -0.2925248700243852
atom 0.3830616703988665 10.6626797079127158 6.3573502465828824 Zr
    velocity 0.5370877037438750 -0.3554152619014466 0.2569615277471682
atom 5.5300616703988661 10.6626797079127158 6.3573502465828824 Zr
    velocity 0.1863954875155655 -0.1992793436342627 0.2455034967606596
atom 10.6770616703988601 10.6626797079127158 6.3573502465828824 Zr
    velocity 0.3503749806203874 0.1408506837061840 -0.4624699168428483
atom 15.8240616703988586 10.6626797079127158 6.3573502465828824 Zr
    velocity 0.4372630348707219 -0.2388236173547726 0.5455399290062809
atom 20.9710616703988642 10.6626797079127158 6.3573502465828824 Zr
    velocity 0.1002513555236085 0.1682115805356332 0.3455513199496150
atom 26.1180616703988626 10.6626797079127158 6.3573502465828824 Zr
    velocity -0.0118025472895518 0.5411172079905470 -0.2659071473577712
atom 31.2650616703988646 10.6626797079127158 6.3573502465828824 Zr
    velocity 0.2514274110951076 0.2349382443706706 -0.3493556812797237
atom 36.4120616703988631 10.6626797079127158 6.3573502465828824 Zr
    velocity 0.1887384567389940 -0.1389548080761827 -0.1989815558725194
atom 41.5590616703988616 10.6626797079127158 6.3573502465828824 Zr
    velocity -0.2153144084169791 0.2270697099469291 -0.4223490183526240
atom 0.3830616703988665 15.8826797079127200 6.3573502465828824 Zr
    velocity -0.3883788900429492 -0.2072248647145326 0.0905398685951615
atom 5.5300616703988661 15.8826797079127200 6.3573502465828824 Zr
    velocity -0.3193999290262224 -0.3883217554122213 -0.3328417414330394
atom 10.6770616703988601 15.8826797079127200 6.3573502465828824 Zr
    velocity 0.3435570256292695 0.1464455822352757 -0.2330457724243495
atom 15.8240616703988586 15.8826797079127200 6.3573502465828824 Zr
    velocity -0.2940816545682919 0.1840487016531298 0.1682231521468866
atom 20.9710616703988642 15.8826797079127200 6.3573502465828824 Zr
    velocity 0.3024796393455875 0.0339059668816056 -0.1406141314387960
atom 26.1180616703988626 15.8826797079127200 6.3573502465828824 Zr
    velocity 0.0517354301662023 0.1470172469037680 -0.3156710788923252
atom 31.2650616703988646 15.8826797079127200 6.3573502465828824 Zr
    velocity -0.0637065074690152 -0.2110635763671954 0.3990624640624222
atom 36.4120616703988631 15.8826797079127200 6.3573502465828824 Zr
    velocity 0.2879187243901745 0.5128912302299092 -0.4582272831606280
atom 41.5590616703988616 15.8826797079127200 6.3573502465828824 Zr
    velocity -0.2158247568726289 -0.1538477884087705 0.3189804805160010
atom 0.3830616703988665 21.1026797079127206 6.3573502465828824 Zr
    velocity -0.0020125163463973 0.1705917009502483 -0.0110600445863592
atom 5.5300616703988661 21.1026797079127206 6.3573502465828824 Zr
    velocity 0.0694349178925968 -0.1649419300752013 0.1627007741041008
atom 10.6770616703988601 21.1026797079127206 6.3573502465828824 Zr
    velocity 0.0462611961051687 0.5156801021722748 -0.1884133520813437
atom 15.8240616703988586 21.1026797079127206 6.3573502465828824 Zr
    velocity 0.3379634759620766 -0.5566933689132787 -0.1412218615772305
atom 20.9710616703988642 21.1026797079127206 6.3573502465828824 Zr
    velocity 0.2467662680009293 -0.1247829282769234 -0.3081040056516658
atom 26.1180616703988626 21.1026797079127206 6.3573502465828824 Zr
    velocity 0.1748791417760297 0.2051104747346808 -0.0344157131701527
atom 31.2650616703988646 21.1026797079127206 6.3573502465828824 Zr
    velocity -0.0179392665095240 -0.3238459423058407 0.3757946246879471
atom 36.4120616703988631 21.1026797079127206 6.3573502465828824 Zr
    velocity 0.1415071372567420 -0.2224435516007820 -0.1594593786554352
atom 41.5590616703988616 21.1026797079127206 6.3573502465828824 Zr
    velocity 0.1379612351293221 -0.2278171618516658 0.3787103115102133
atom 0.3830616703988665 26.3226797079127195 6.3573502465828824 Zr
    velocity -0.5067664987902084 -0.1957566198824434 -0.1187938111138093
atom 5.5300616703988661 26.3226797079127195 6.3573502465828824 Zr
    velocity 0.1579809546026968 -0.7508698067746169 -0.4576922700831710
atom 10.6770616703988601 26.3226797079127195 6.3573502465828824 Zr
    velocity -0.2562933653006979 -0.3203636224437195 -0.1439672208765730
atom 15.8240616703988586 26.3226797079127195 6.3573502465828824 Zr
    velocity 0.2133934970923641 -0.6396490196560699 -0.3087239079106816
atom 20.9710616703988642 26.3226797079127195 6.3573502465828824 Zr
    velocity 0.4952460699959439 0.0555668991535550 0.6711862726063476
atom 26.1180616703988626 26.3226797079127195 6.3573502465828824 Zr
    velocity 0.2453195481470816 -0.1034341310272255 0.0489308925451957
atom 31.2650616703988646 26.3226797079127195 6.3573502465828824 Zr
    velocity 0.2994793531323039 -0.1275086704863901 0.0662286301190412
atom 36.4120616703988631 26.3226797079127195 6.3573502465828824 Zr
    velocity -0.2792996609733100 0.1471538267668919 -0.2552489489891542
atom 41.5590616703988616 26.3226797079127195 6.3573502465828824 Zr
    velocity 0.0431258596458983 0.2994368537539148 0.0871720897951177
atom 0.3830616703988665 31.5426797079127148 6.3573502465828824 Zr
    velocity 0.0791917544580868 0.9852851936607659 0.0552837427362509
atom 5.5300616703988661 31.5426797079127148 6.3573502465828824 Zr
    velocity 0.6518971106368919 -0.2698543549340156 -0.2944962230629403
atom 10.6770616703988601 31.5426797079127148 6.3573502465828824 Zr
    velocity -0.0242364704953006 0.4050814487160674 0.1574599172104775
atom 15.8240616703988586 31.5426797079127148 6.3573502465828824 Zr
    velocity 0.3545667463911382 0.0775075114257259 -0.1657457072262980
atom 20.9710616703988642 31.5426797079127148 6.3573502465828824 Zr
    velocity -0.2182324295101563 -0.5092790595070231 0.3479824285792584
atom 26.1180616703988626 31.5426797079127148 6.3573502465828824 Zr
    velocity 0.2232866203964807 -0.3904793454711791 0.1075370973163027
atom 31.2650616703988646 31.5426797079127148 6.3573502465828824 Zr
    velocity 0.0370363088096113 -0.3424891280938885 0.1350649399979114
atom 36.4120616703988631 31.5426797079127148 6.3573502465828824 Zr
    velocity -0.6287694400452335 -0.2124845692822487 -0.2260886788501897
atom 41.5590616703988616 31.5426797079127148 6.3573502465828824 Zr
    velocity -0.1956245080856459 -0.0829706752859390 0.3615605182348133
atom 0.3830616703988665 36.7626797079127172 6.3573502465828824 Zr
    velocity 0.4996762606350397 0.4055488991861370 0.5987763667890752
atom 5.5300616703988661 36.7626797079127172 6.3573502465828824 Zr
    velocity -0.0687977717483370 0.2664068469980275 0.2024673023349094
atom 10.6770616703988601 36.7626797079127172 6.3573502465828824 Zr
    velocity -0.3063603528218846 0.2663570949265806 0.2931990813405044
atom 15.8240616703988586 36.7626797079127172 6.3573502465828824 Zr
    velocity -0.3707998264859609 0.5624387490660504 0.0616890579615462
atom 20.9710616703988642 36.7626797079127172 6.3573502465828824 Zr
    velocity 0.4184429581369490 0.0660304432485089 0.0145311345249929
atom 26.1180616703988626 36.7626797079127172 6.3573502465828824 Zr
    velocity -0.0163394401098053 -0.0991949536401834 0.0372041806078913
atom 31.2650616703988646 36.7626797079127172 6.3573502465828824 Zr
    velocity -0.5457619332873713 0.2997576974173148 -0.0059597607046239
atom 36.4120616703988631 36.7626797079127172 6.3573502465828824 Zr
    velocity 0.2276948059090464 -0.0502320124829617 0.4275475588378297
atom 41.5590616703988616 36.7626797079127172 6.3573502465828824 Zr
    velocity 0.1201688030272599 -0.3153200251005283 -0.5134901254560575
atom 0.3830616703988665 41.9826797079127161 6.3573502465828824 Zr
    velocity 0.1661731194217459 -0.8574028896592528 0.4891346037984786
atom 5.5300616703988661 41.9826797079127161 6.3573502465828824 Zr
    velocity 0.2662269638764022 -0.4444851262529120 0.3676940080934663
atom 10.6770616703988601 41.9826797079127161 6.3573502465828824 Zr
    velocity 0.2760022265612057 -0.5064738950321834 0.0823094440895295
atom 15.8240616703988586 41.9826797079127161 6.3573502465828824 Zr
    velocity 0.0493358459549472 -0.2785846349536779 -0.8473865967809119
atom 20.9710616703988642 41.9826797079127161 6.3573502465828824 Zr
    velocity -0.1252008934059265 0.0647377600790210 0.1654627108482050
atom 26.1180616703988626 41.9826797079127161 6.3573502465828824 Zr
    velocity 0.4261203616282074 -0.0626336222512308 -0.1445295153994809
atom 31.2650616703988646 41.9826797079127161 6.3573502465828824 Zr
    velocity -0.3907199493234663 -0.0018789501119945 -0.0287440705636991
atom 36.4120616703988631 41.9826797079127161 6.3573502465828824 Zr
    velocity -0.0330915751767260 -0.4055117278780652 0.0035857845958606
atom 41.5590616703988616 41.9826797079127161 6.3573502465828824 Zr
    velocity 0.2967455504176867 -0.5953320345652739 0.7980848430090643
atom -0.4773170731554273 0.2226797079127184 11.6113700807327245 Zr
    velocity 0.2788820418188467 -0.0281289569191220 -0.1707018751432889
atom 4.6696829268445725 0.2226797079127184 11.6113700807327245 Zr
    velocity -0.6411757967087068 -0.3252491282284622 -0.1135275097719793
atom 9.8166829268445674 0.2226797079127184 11.6113700807327245 Zr
    velocity -0.5091458495825579 -0.0433069783610561 0.0816684302157032
atom 14.9636829268445659 0.2226797079127184 11.6113700807327245 Zr
    velocity 0.1194394540495553 -0.1353610314721402 0.0227459949822212
atom 20.1106829268445715 0.2226797079127184 11.6113700807327245 Zr
    velocity 0.1205699649575499 0.0747233919650366 0.1856025092807584
atom 25.2576829268445699 0.2226797079127184 11.6113700807327245 Zr
    velocity -0.1277672040918391 0.2383993147060760 -0.5030551196390142
atom 30.4046829268445720 0.2226797079127184 11.6113700807327245 Zr
    velocity 0.2547046517955800 0.7861357298105599 0.3283824717711671
atom 35.5516829268445704 0.2226797079127184 11.6113700807327245 Zr
    velocity 0.0214595047474021 -0.6763984604074619 0.1841826413614504
atom 40.6986829268445689 0.2226797079127184 11.6113700807327245 Zr
    velocity 0.3418901905509720 0.0997062006541984 -0.1479499296572953
atom -0.4773170731554273 5.4426797079127178 11.6113700807327245 Zr
    velocity 0.2945668394894136 -0.2239946787713188 -0.1427747967000099
atom 4.6696829268445725 5.4426797079127178 11.6113700807327245 Zr
    velocity 0.1705746014081394 -0.0359041689901177 0.1922745360873681
atom 9.8166829268445674 5.4426797079127178 11.6113700807327245 Zr
    velocity -0.0231851222290636 0.2108029859549405 -0.0393660027039755
atom 14.9636829268445659 5.4426797079127178 11.6113700807327245 Zr
    velocity 0.2629387594266103 0.3047192614841231 0.0211249841477955
atom 20.1106829268445715 5.4426797079127178 11.6113700807327245 Zr
    velocity -0.1356596349119397 0.0865233732979311 0.0398679458955791
atom 25.2576829268445699 5.4426797079127178 11.6113700807327245 Zr
    velocity -0.5481527316031652 -0.0614126636106157 0.1831252706744680
atom 30.4046829268445720 5.4426797079127178 11.6113700807327245 Zr
    velocity -0.2235183868937416 0.1331167081471145 -0.4352847126446571
atom 35.5516829268445704 5.4426797079127178 11.6113700807327245 Zr
    velocity -0.2064475656263262 -0.0855534577160653 0.4270988484514179
atom 40.6986829268445689 5.4426797079127178 11.6113700807327245 Zr
    velocity 0.0415849957289972 0.1388857765543184 0.2146665103076900
atom -0.4773170731554273 10.6626797079127158 11.6113700807327245 Zr
    velocity 0.4089625797765151 0.2418952270869965 -0.0340027511548667
atom 4.6696829268445725 10.6626797079127158 11.6113700807327245 Zr
    velocity -0.4112432220770862 0.6924337564625114 -0.0701258013929001
atom 9.8166829268445674 10.6626797079127158 11.6113700807327245 Zr
    velocity -0.1612349665483975 0.4077422915861925 -0.4324677112350591
atom 14.9636829268445659 10.6626797079127158 11.6113700807327245 Zr
    velocity -0.1398096960460422 0.0161313486885410 -0.3198556691330056
atom 20.1106829268445715 10.6626797079127158 11.6113700807327245 Zr
    velocity -0.1595636995406753 -0.0462583426568580 -0.0746993086799071
atom 25.2576829268445699 10.6626797079127158 11.6113700807327245 Zr
    velocity -0.1002032898458609 0.2768963866320931 -0.0685123950444499
atom 30.4046829268445720 10.6626797079127158 11.6113700807327245 Zr
    velocity -0.2613213772613711 0.3312710087110584 -0.4093721000791170
atom 35.5516829268445704 10.6626797079127158 11.6113700807327245 Zr
    velocity -0.3154003242094664 -0.3348326842021214 0.2343686753330022
atom 40.6986829268445689 10.6626797079127158 11.6113700807327245 Zr
    velocity 0.5367006709172036 -0.7907642441364046 -0.3960764022698478
atom -0.4773170731554273 15.8826797079127200 11.6113700807327245 Zr
    velocity 0.2880385887073888 -0.2555800722609498 -0.3129818309531135
atom 4.6696829268445725 15.8826797079127200 11.6113700807327245 Zr
    velocity 0.0245430765738729 -0.2135323227074762 -0.0108683901201928
atom 9.8166829268445674 15.8826797079127200 11.6113700807327245 Zr
    velocity -0.7382550988313427 0.1594478264739848 -0.1011775966816151
atom 14.9636829268445659 15.8826797079127200 11.6113700807327245 Zr
    velocity -0.0993025292352119 -0.1185337579402940 0.1681482993422587
atom 20.1106829268445715 15.8826797079127200 11.6113700807327245 Zr
    velocity -0.0742106751028106 0.3566521409602252 -0.0857077028621790
atom 25.2576829268445699 15.8826797079127200 11.6113700807327245 Zr
    velocity -0.0681368204425483 0.1347010726834474 -0.6745606582034624
atom 30.4046829268445720 15.8826797079127200 11.6113700807327245 Zr
    velocity -0.2041783857025145 0.0254524754906014 -0.0427050486851229
atom 35.5516829268445704 15.8826797079127200 11.6113700807327245 Zr
    velocity -0.0568964186393956 -0.0408225171882410 0.2395772786078120
atom 40.6986829268445689 15.8826797079127200 11.6113700807327245 Zr
    velocity -0.2410515827281502 -0.1923732660299011 -0.2625068929795128
atom -0.4773170731554273 21.1026797079127206 11.6113700807327245 Zr
    velocity -0.0971995982653005 -0.1039896204829610 0.1262290054864460
atom 4.6696829268445725 21.1026797079127206 11.6113700807327245 Zr
    velocity -0.2469966119302176 0.7615805553701313 -0.4467777179173639
atom 9.8166829268445674 21.1026797079127206 11.6113700807327245 Zr
    velocity 0.5642342692274268 0.1057305609460518 -0.0070107117527875
atom 14.9636829268445659 21.1026797079127206 11.6113700807327245 Zr
    velocity 0.2988435569222642 0.2887650140647250 -0.0853602780592243
atom 20.1106829268445715 21.1026797079127206 11.6113700807327245 Zr
    velocity -0.2416783331418418 0.1147703714462363 -0.1164999629345089
atom 25.2576829268445699 21.1026797079127206 11.6113700807327245 Zr
    velocity 0.1118816200548470 0.1284440593379169 0.0633389926609115
atom 30.4046829268445720 21.1026797079127206 11.6113700807327245 Zr
    velocity 0.3124572436740226 0.7816182427691942 -0.4019795010769073
atom 35.5516829268445704 21.1026797079127206 11.6113700807327245 Zr
    velocity 0.3535201081536410 0.1004955729853698 0.4796085078964226
atom 40.6986829268445689 21.1026797079127206 11.6113700807327245 Zr
    velocity -0.6957794859181454 0.5120031500154780 0.0299898936298533
atom -0.4773170731554273 26.3226797079127195 11.6113700807327245 Zr
    velocity -0.3912187811599069 -0.4084676484574427 -0.0551566872066948
atom 4.6696829268445725 26.3226797079127195 11.6113700807327245 Zr
    velocity 0.0487959114972034 -0.3751900140975351 -0.2221590034995185
atom 9.8166829268445674 26.3226797079127195 11.6113700807327245 Zr
    velocity 0.6000381973153275 0.3472974008961907 -0.2976271271875947
atom 14.9636829268445659 26.3226797079127195 11.6113700807327245 Zr
    velocity -0.0464717615135992 -0.2833857718365481 -0.1218086847550651
atom 20.1106829268445715 26.3226797079127195 11.6113700807327245 Zr