#=======================================================
# FHI-aims file: 300_geometry.in.primitive.supercell_96.0010K
# Created using the Atomic Simulation Environment (ASE)
# Wed Aug 24 14:01:49 2022

# Additional information:
#  created from MB distrubtion
#  T = 10.0 K
#  quantum:             False
#  deterministic:       False
#  plus_minus:          False
#  gauge_eigenvectors:  False
#  Random seed:         287449314
#  Sample number:       1
#=======================================================
lattice_vector 10.2940000000000005 0.0000000000000000 0.0000000000000000 
lattice_vector 0.0000000000000000 10.4399999999999995 0.0000000000000000 
lattice_vector -1.7207574871085876 0.0000000000000000 10.5080396682996842 
atom 1.2434404139531583 0.2226797079127200 1.1033304124330396 Zr
    velocity 0.2717751294895741 0.3459426472007810 0.2418862263164752
atom 6.3904404139531588 0.2226797079127200 1.1033304124330396 Zr
    velocity -0.4720004396643000 -0.1471084146355690 0.7079837840658676
atom 1.2434404139531583 5.4426797079127196 1.1033304124330396 Zr
    velocity -0.0032110899265248 0.0101064727828084 -0.3713977202167494
atom 6.3904404139531588 5.4426797079127196 1.1033304124330396 Zr
    velocity 0.2005934218948610 -0.3748536154258112 0.3048436858919944
atom 0.3830616703988644 0.2226797079127200 6.3573502465828824 Zr
    velocity 0.0051717040354374 -0.2206629988930728 -0.2971829412891851
atom 5.5300616703988652 0.2226797079127200 6.3573502465828824 Zr
    velocity 0.4518949557397908 -0.0669518796728077 0.4808420600081551
atom 0.3830616703988644 5.4426797079127196 6.3573502465828824 Zr
    velocity -0.1024715793310157 -0.2272885337931564 0.2431188488128070
atom 5.5300616703988652 5.4426797079127196 6.3573502465828824 Zr
    velocity -0.2548872226083010 0.0338143743938671 -0.5743674734833318
atom 3.0431805370682472 4.9973202920872808 4.1506894952730802 Zr
    velocity -0.0460029796156429 -0.1258749063486273 -0.0835647507290526
atom 8.1901805370682474 4.9973202920872808 4.1506894952730802 Zr
    velocity -0.3282578073420788 0.3901682789416960 -0.0315022175741274
atom 3.0431805370682472 10.2173202920872814 4.1506894952730802 Zr
    velocity 0.0812665685834027 0.4192348565875575 0.1416820930951764
atom 8.1901805370682474 10.2173202920872814 4.1506894952730802 Zr
    velocity 0.0318603657257003 -0.4745659863598476 0.0603235195549948
atom 2.1828017935139532 4.9973202920872808 9.4047093294229214 Zr
    velocity -0.3717016366298296 0.1674332086987649 -0.1310873727381590
atom 7.3298017935139539 4.9973202920872808 9.4047093294229214 Zr
    velocity -0.3378724883230974 0.0010666058905421 -0.0237244029246937
atom 2.1828017935139532 10.2173202920872814 9.4047093294229214 Zr
    velocity -0.0426042313088496 0.0613038927109695 0.2848505708152320
atom 7.3298017935139539 10.2173202920872814 9.4047093294229214 Zr
    velocity 0.1564038800815531 0.3885004578316378 0.2932209028466173
atom 3.4733699088453913 2.8326797079127211 1.5236795781981602 Zr
    velocity -0.4781113950358017 -0.3516870637185718 -0.2964906328711413
atom 8.6203699088453920 2.8326797079127211 1.5236795781981602 Zr
    velocity -0.3128614937127396 0.4017411078742110 0.0570403332058464
atom 3.4733699088453913 8.0526797079127199 1.5236795781981602 Zr
    velocity -0.0095375546382966 0.4051390794000238 0.0104482236965487
atom 8.6203699088453920 8.0526797079127199 1.5236795781981602 Zr
    velocity -0.2086437256434968 -0.3410566464719327 -0.0487081859796284
atom 2.6129911652910978 2.8326797079127211 6.7776994123480021 Zr
    velocity 0.0424043442547852 0.0166261523579410 -0.4790968196355266
atom 7.7599911652910984 2.8326797079127211 6.7776994123480021 Zr
    velocity -0.3752820272139794 0.1058704397935042 -0.4191542965981535
atom 2.6129911652910978 8.0526797079127199 6.7776994123480021 Zr
    velocity 0.2202232729282197 0.3987681722729945 -0.1047678438645021
atom 7.7599911652910984 8.0526797079127199 6.7776994123480021 Zr
    velocity 0.1457622867408802 0.1554142962263693 -0.5856460933359896
atom 0.8132510421760115 2.3873202920872800 3.7303403295079596 Zr
    velocity -0.2275472455260964 0.1892806184786299 0.1136237908554514
atom 5.9602510421760124 2.3873202920872800 3.7303403295079596 Zr
    velocity -0.1486882044911529 -0.0224316047705110 -0.2908095995266917
atom 0.8132510421760115 7.6073202920872793 3.7303403295079596 Zr
    velocity 0.6885938610546561 -0.4628114543145130 0.1932960798492087
atom 5.9602510421760124 7.6073202920872793 3.7303403295079596 Zr
    velocity 0.0562032269887135 -0.0207181442675715 -0.0009392705086546
atom -0.0471277013782823 2.3873202920872800 8.9843601636578025 Zr
    velocity -0.5842016695459904 -0.3848161307490032 0.2259012052703414
atom 5.0998722986217171 2.3873202920872800 8.9843601636578025 Zr
    velocity -0.2625740204056142 0.4443576538832446 -0.3125340590275887
atom -0.0471277013782823 7.6073202920872793 8.9843601636578025 Zr
    velocity 0.4500071440395996 0.1115272284878288 0.2438066079146937
atom 5.0998722986217171 7.6073202920872793 8.9843601636578025 Zr
    velocity -0.0337125036437129 -0.1989690573746803 -0.1712462677271659
atom 0.0627057521779765 1.7482162241599197 1.8004395366248866 O
    velocity -0.2230070437404454 -0.7461150341681241 0.6997510032942603
atom 5.2097057521779764 1.7482162241599197 1.8004395366248866 O
    velocity -0.1792665718716027 0.5673628276629754 0.3294932915963610
atom 0.0627057521779765 6.9682162241599199 1.8004395366248866 O
    velocity 0.4068506922841301 0.0854943025993646 0.5102398978917799
atom 5.2097057521779764 6.9682162241599199 1.8004395366248866 O
    velocity -0.5866116911001480 -0.2494054733886659 0.4148172267128232
atom -0.7976729913763174 1.7482162241599197 7.0544593707747296 O
    velocity -1.4299119866449737 -1.0892435651847008 -0.2701945374466217
atom 4.3493270086236828 1.7482162241599197 7.0544593707747296 O
    velocity 0.5859513175141424 -0.2085974114050936 0.4542998636082570
atom -0.7976729913763174 6.9682162241599199 7.0544593707747296 O
    velocity 0.9790639698633740 0.1911018924203881 0.3731591555182060
atom 4.3493270086236828 6.9682162241599199 7.0544593707747296 O
    velocity -0.7049464236544090 -0.6224841948384828 0.2680645701302785
atom 4.2239151988434269 3.4717837758400809 3.4535803710812329 O
    velocity 0.2252529409009500 -0.0901387491475418 0.3896413372264996
atom 9.3709151988434272 3.4717837758400809 3.4535803710812329 O
    velocity -1.2577383291006923 1.1880188437739843 1.1786287143840233
atom 4.2239151988434269 8.6917837758400793 3.4535803710812329 O
    velocity -0.6168067423410487 -0.0511534456304040 -0.1537008500426979
atom 9.3709151988434272 8.6917837758400793 3.4535803710812329 O
    velocity 2.2138202186205680 -0.4641324519361777 0.4310698706428112
atom 3.3635364552891329 3.4717837758400809 8.7076002052310759 O
    velocity -0.6594119250886593 0.3837705707691712 -0.2307169474527107
atom 8.5105364552891327 3.4717837758400809 8.7076002052310759 O
    velocity -0.1232136994332540 -0.2354382085239675 1.1166399324979743
atom 3.3635364552891329 8.6917837758400793 8.7076002052310759 O
    velocity 0.8830149714580795 0.3647713035696939 0.6042547241551119
atom 8.5105364552891327 8.6917837758400793 8.7076002052310759 O
    velocity 0.0755217854113591 0.4572467335036378 -0.0978255408764397
atom 4.6541045706205750 4.3582162241599196 0.8265704540063122 O
    velocity 0.2366568901857308 -0.4897733274674190 0.3011970880075081
atom 9.8011045706205735 4.3582162241599196 0.8265704540063122 O
    velocity 0.6879900161126258 1.1302820195424990 -0.1312914553523430
atom 4.6541045706205750 9.5782162241599202 0.8265704540063122 O
    velocity -0.6149522007896628 -0.6415952093590985 -1.0193594505919930
atom 9.8011045706205735 9.5782162241599202 0.8265704540063122 O
    velocity 0.6867754654031187 0.6532439752262376 0.0619226638277458
atom 3.7937258270662815 4.3582162241599196 6.0805902881561549 O
    velocity -0.8182730079142766 -0.3114267973260768 0.5480988827760890
atom 8.9407258270662808 4.3582162241599196 6.0805902881561549 O
    velocity -0.5382198448222214 0.0282280746277458 -0.3985695753858850
atom 3.7937258270662815 9.5782162241599202 6.0805902881561549 O
    velocity -0.6507171679278581 -0.4778320526170216 0.9662115550520206
atom 8.9407258270662808 9.5782162241599202 6.0805902881561549 O
    velocity 1.4841819191888186 0.4384704165650398 0.4677646272426224
atom -0.3674836195991707 0.8617837758400799 4.4274494536998095 O
    velocity 0.0850268119648388 0.1117447149448148 -0.4000217559574899
atom 4.7795163804008292 0.8617837758400799 4.4274494536998095 O
    velocity -0.1017311288963708 0.2753775622469098 -0.4236875526578256
atom -0.3674836195991707 6.0817837758400799 4.4274494536998095 O
    velocity -0.0976131332395235 -0.3352462700351626 -0.6520130525218837
atom 4.7795163804008292 6.0817837758400799 4.4274494536998095 O
    velocity -0.4455772295638621 0.8220879553375534 0.6674082412215759
atom -1.2278623631534640 0.8617837758400799 9.6814692878496498 O
    velocity 0.5778544242404940 -0.4042839602510957 -1.1244925330618305
atom 3.9191376368465360 0.8617837758400799 9.6814692878496498 O
    velocity 2.3119754904654122 -0.1999629050996613 -1.6536658899644505
atom -1.2278623631534640 6.0817837758400799 9.6814692878496498 O
    velocity 0.3737955535730937 -1.9518769225801995 -0.1342131648335044
atom 3.9191376368465360 6.0817837758400799 9.6814692878496498 O
    velocity 0.3914099496867814 -0.0114149409355381 0.0799512207259975
atom 1.8998770282560045 3.9537873603777611 2.5177746390324351 O
    velocity 0.5961418340309546 0.5564752653725442 0.0061889627128974
atom 7.0468770282560058 3.9537873603777611 2.5177746390324351 O
    velocity -1.3573813006991653 0.7131665625482863 1.0928756398030683
atom 1.8998770282560045 9.1737873603777604 2.5177746390324351 O
    velocity 0.6287401915808163 -0.5984462443811219 -0.4779280851373854
atom 7.0468770282560058 9.1737873603777604 2.5177746390324351 O
    velocity 0.3380312973015490 -0.8007908959314218 0.0099990893833868
atom 1.0394982847017107 3.9537873603777611 7.7717944731822772 O
    velocity -0.4511511503214843 -0.8998984730726419 1.5051204173679429
atom 6.1864982847017114 3.9537873603777611 7.7717944731822772 O
    velocity 0.1767880094123113 1.1019419925120857 -0.5790394613640892
atom 1.0394982847017107 9.1737873603777604 7.7717944731822772 O
    velocity 0.6828431598327968 -0.9689682578651633 0.3408516905018140
atom 6.1864982847017114 9.1737873603777604 7.7717944731822772 O
    velocity -0.0721133186082579 -0.2951353430937403 0.7664257260403918
atom 2.3867439227653979 1.2662126396222400 2.7362452686736853 O
    velocity -0.6271366234193427 0.0271181419628068 -1.1769310654216532
atom 7.5337439227653977 1.2662126396222400 2.7362452686736853 O
    velocity -0.7981682341219990 0.1095664710559796 0.7079858326500845
atom 2.3867439227653979 6.4862126396222406 2.7362452686736853 O
    velocity 1.3747774902001686 -0.2488438134798810 0.2491008092630508
atom 7.5337439227653977 6.4862126396222406 2.7362452686736853 O
    velocity 0.3320615598688351 -0.3076999686824091 -0.1204112022568510
atom 1.5263651792111042 1.2662126396222400 7.9902651028235283 O
    velocity 0.8917923082401610 0.5665195060417411 0.2096054755417989
atom 6.6733651792111042 1.2662126396222400 7.9902651028235283 O
    velocity -0.0339004287565894 -0.1650783327997767 0.9813977968298763
atom 1.5263651792111042 6.4862126396222406 7.9902651028235283 O
    velocity 1.0318366113196418 0.5157586120889136 -0.7873177678637632
atom 6.6733651792111042 6.4862126396222406 7.9902651028235283 O
    velocity 0.8665972864310576 -0.0435708950784999 -0.3119836096000264
atom 2.8169332945425456 1.3437873603777599 0.1092353515987636 O
    velocity 1.0664095227438017 0.6464049113789267 -0.0878928546185076
atom 7.9639332945425458 1.3437873603777599 0.1092353515987636 O
    velocity 0.8042830518023476 1.4712285997704080 -0.3618764331133026
atom 2.8169332945425456 6.5637873603777592 0.1092353515987636 O
    velocity -0.1654346608427833 0.7966300556708171 -1.6464517290261849
atom 7.9639332945425458 6.5637873603777592 0.1092353515987636 O
    velocity 0.0381524347714499 0.0251097187119083 0.3678404816463178
atom 1.9565545509882516 1.3437873603777599 5.3632551857486064 O
    velocity -0.6623405147525014 0.0351918567525692 -0.1857046195866505
atom 7.1035545509882523 1.3437873603777599 5.3632551857486064 O
    velocity -0.5290342716006842 -1.4574846754573882 -0.0987212951768430
atom 1.9565545509882516 6.5637873603777592 5.3632551857486064 O
    velocity 1.3233441021294376 -0.0511050028348776 -1.3914253165173138
atom 7.1035545509882523 6.5637873603777592 5.3632551857486064 O
    velocity 0.2319292381685266 -1.1730624904822251 -0.7835190656936313
atom 1.4696876564788579 3.8762126396222412 5.1447845561073589 O
    velocity -0.1451616125130791 0.3229948019467602 -0.1744197273952595
atom 6.6166876564788586 3.8762126396222412 5.1447845561073589 O
    velocity 0.5995672843531475 -0.3942709866105510 -0.7449277881807913
atom 1.4696876564788579 9.0962126396222409 5.1447845561073589 O
    velocity 0.8131451280878627 -0.0888386548660284 1.4516946281591483
atom 6.6166876564788586 9.0962126396222409 5.1447845561073589 O
    velocity -0.0975316828845796 -0.1249628551395499 0.1333820829386631
atom 0.6093089129245642 3.8762126396222412 10.3988043902572009 O
    velocity 0.8077938341977701 -0.4820797611817905 1.6287599783615299
atom 5.7563089129245641 3.8762126396222412 10.3988043902572009 O
    velocity 0.3357018869949369 -1.8568114888673759 0.6652965677412978
atom 0.6093089129245642 9.0962126396222409 10.3988043902572009 O
    velocity -0.2072352824322774 0.7719928900825909 -0.7363481853892558
atom 5.7563089129245641 9.0962126396222409 10.3988043902572009 O
    velocity -0.6985015057775337 0.6076605593760225 -0.0930322986913251
