#=======================================================
# FHI-aims file: 300_geometry.in.primitive.supercell_4116.0010K
# Created using the Atomic Simulation Environment (ASE)
# Wed Aug 24 14:02:13 2022

# Additional information:
#  created from MB distrubtion
#  T = 10.0 K
#  quantum:             False
#  deterministic:       False
#  plus_minus:          False
#  gauge_eigenvectors:  False
#  Random seed:         838941755
#  Sample number:       1
#=======================================================
lattice_vector 36.0290000000000035 0.0000000000000000 0.0000000000000000 
lattice_vector 0.0000000000000000 36.5399999999999991 0.0000000000000000 
lattice_vector -6.0226512048800567 0.0000000000000000 36.7781388390488928 
atom 1.2434404139531596 0.2226797079127184 1.1033304124330412 Zr
    velocity -0.3079763412915972 0.0274130751276342 -0.0731869172885032
atom 6.3904404139531579 0.2226797079127184 1.1033304124330412 Zr
    velocity -0.1459555077614410 -0.5473862583024387 0.4026675101975701
atom 11.5374404139531563 0.2226797079127184 1.1033304124330412 Zr
    velocity 0.1643471470893913 -0.3015782487219735 0.3355764101798320
atom 16.6844404139531512 0.2226797079127184 1.1033304124330412 Zr
    velocity 0.1733425874775056 0.3808485009413068 -0.1801141323302757
atom 21.8314404139531497 0.2226797079127184 1.1033304124330412 Zr
    velocity 0.4656789891958046 0.2021432980354098 0.1119447674058665
atom 26.9784404139531517 0.2226797079127184 1.1033304124330412 Zr
    velocity 0.2050321631743775 -0.0253935800920021 -0.3967664733709769
atom 32.1254404139531573 0.2226797079127184 1.1033304124330412 Zr
    velocity 0.4672288817016702 -0.5440844332547765 0.0356826957048236
atom 1.2434404139531596 5.4426797079127196 1.1033304124330412 Zr
    velocity 0.1763539924936417 -0.0018019148067996 -0.2859814270914424
atom 6.3904404139531579 5.4426797079127196 1.1033304124330412 Zr
    velocity -0.2600258790993601 -0.6750826788575929 -0.1912628480193927
atom 11.5374404139531563 5.4426797079127196 1.1033304124330412 Zr
    velocity 0.0475333532784192 -0.2322278017177124 -0.0172898756443920
atom 16.6844404139531512 5.4426797079127196 1.1033304124330412 Zr
    velocity -0.2368618628300548 -0.2539659599902087 -0.0473652338210768
atom 21.8314404139531497 5.4426797079127196 1.1033304124330412 Zr
    velocity -0.4731357251965561 0.0866422961055604 0.1327348393168429
atom 26.9784404139531517 5.4426797079127196 1.1033304124330412 Zr
    velocity 0.1583687111635027 -0.3554379545278990 -0.0086653235630429
atom 32.1254404139531573 5.4426797079127196 1.1033304124330412 Zr
    velocity -0.1652799666584416 -0.0951894084812957 -0.0549417446500973
atom 1.2434404139531596 10.6626797079127211 1.1033304124330412 Zr
    velocity -0.4526198520783192 -0.1657261391239722 -0.1062336540543069
atom 6.3904404139531579 10.6626797079127211 1.1033304124330412 Zr
    velocity 0.0396464185423277 0.3553791191991524 -0.0780181046544605
atom 11.5374404139531563 10.6626797079127211 1.1033304124330412 Zr
    velocity 0.2137037859007124 -0.3964518786623643 -0.5070032692052237
atom 16.6844404139531512 10.6626797079127211 1.1033304124330412 Zr
    velocity 0.1669686385066839 -0.1878622645384471 0.2239814333153678
atom 21.8314404139531497 10.6626797079127211 1.1033304124330412 Zr
    velocity -0.3087176236228393 0.1067679930028249 0.3168498058673940
atom 26.9784404139531517 10.6626797079127211 1.1033304124330412 Zr
    velocity -0.3550452091089267 -0.0470276064784168 -0.2660022283001556
atom 32.1254404139531573 10.6626797079127211 1.1033304124330412 Zr
    velocity 0.0768914903029691 -0.1386512440861366 0.2770366477347030
atom 1.2434404139531596 15.8826797079127182 1.1033304124330412 Zr
    velocity -0.3264315755299455 -0.0285251762785045 -0.1618039610409290
atom 6.3904404139531579 15.8826797079127182 1.1033304124330412 Zr
    velocity -0.4594993233352702 0.2361798597596794 0.1587958600332721
atom 11.5374404139531563 15.8826797079127182 1.1033304124330412 Zr
    velocity -0.3468147698235538 0.0353060786596006 -0.2546331217199239
atom 16.6844404139531512 15.8826797079127182 1.1033304124330412 Zr
    velocity -0.0287036728851548 -0.4288681278042736 0.1782650596449669
atom 21.8314404139531497 15.8826797079127182 1.1033304124330412 Zr
    velocity 0.1741758730879352 -0.4079283018961158 -0.0229462832149014
atom 26.9784404139531517 15.8826797079127182 1.1033304124330412 Zr
    velocity -0.2099542309745653 0.0558977674996308 -0.2170199115238599
atom 32.1254404139531573 15.8826797079127182 1.1033304124330412 Zr
    velocity -0.4716727297051354 0.0598642531708219 0.4520143397289514
atom 1.2434404139531596 21.1026797079127171 1.1033304124330412 Zr
    velocity -0.2291569952730974 0.4218533182053412 0.1568015133049306
atom 6.3904404139531579 21.1026797079127171 1.1033304124330412 Zr
    velocity -0.1550829926981072 0.0671283915986672 0.2904563534674997
atom 11.5374404139531563 21.1026797079127171 1.1033304124330412 Zr
    velocity -0.0410839802487640 -0.3713766454985338 0.3119164326273545
atom 16.6844404139531512 21.1026797079127171 1.1033304124330412 Zr
    velocity -0.0125339337085256 -0.0990587066818787 -0.4370927427285901
atom 21.8314404139531497 21.1026797079127171 1.1033304124330412 Zr
    velocity 0.1316507634404353 -0.0106203177050598 -0.0839713501050890
atom 26.9784404139531517 21.1026797079127171 1.1033304124330412 Zr
    velocity -0.3063817402911644 0.0864869607876128 0.0116530757909815
atom 32.1254404139531573 21.1026797079127171 1.1033304124330412 Zr
    velocity -0.1199707458849903 0.2592786696893112 0.0996682759888099
atom 1.2434404139531596 26.3226797079127195 1.1033304124330412 Zr
    velocity 0.0237777104637765 -0.2019373492939076 0.1334221315300873
atom 6.3904404139531579 26.3226797079127195 1.1033304124330412 Zr
    velocity -0.0295477259265086 0.3123036521941856 0.2345272794308344
atom 11.5374404139531563 26.3226797079127195 1.1033304124330412 Zr
    velocity 0.5273611467000791 0.0695184951966566 -0.4434307479436984
atom 16.6844404139531512 26.3226797079127195 1.1033304124330412 Zr
    velocity 0.3324624017799649 0.4884096528206142 0.3516034172197524
atom 21.8314404139531497 26.3226797079127195 1.1033304124330412 Zr
    velocity -0.1900017096957102 0.3053218269238547 0.2882470078765350
atom 26.9784404139531517 26.3226797079127195 1.1033304124330412 Zr
    velocity 0.1126684297859212 0.1734691140823946 -0.2152702155083622
atom 32.1254404139531573 26.3226797079127195 1.1033304124330412 Zr
    velocity -0.1829131328347275 0.1045806654122843 -0.3752165404333439
atom 1.2434404139531596 31.5426797079127184 1.1033304124330412 Zr
    velocity -0.2019962236743311 0.3909763701989505 0.2153571635296440
atom 6.3904404139531579 31.5426797079127184 1.1033304124330412 Zr
    velocity 0.1383982526282850 -0.1862828235979911 -0.2507195191302987
atom 11.5374404139531563 31.5426797079127184 1.1033304124330412 Zr
    velocity 0.1852450493918588 -0.1201175129648837 -0.1633541292817665
atom 16.6844404139531512 31.5426797079127184 1.1033304124330412 Zr
    velocity 0.4093375549081888 -0.0328893216792653 -0.0819135631414807
atom 21.8314404139531497 31.5426797079127184 1.1033304124330412 Zr
    velocity -0.1826419260951635 -0.2365288441630210 0.4086407404137913
atom 26.9784404139531517 31.5426797079127184 1.1033304124330412 Zr
    velocity -0.0833537755602873 -0.2427807884160351 -0.0867604025299883
atom 32.1254404139531573 31.5426797079127184 1.1033304124330412 Zr
    velocity 0.0126393051569511 0.0674358802889249 0.0680818913713765
atom 0.3830616703988661 0.2226797079127184 6.3573502465828806 Zr
    velocity -0.2046043211051867 0.1452103002369445 -0.1705471218712651
atom 5.5300616703988643 0.2226797079127184 6.3573502465828806 Zr
    velocity 0.1521153628882506 -0.5612743317709797 -0.0765811312217564
atom 10.6770616703988637 0.2226797079127184 6.3573502465828806 Zr
    velocity 0.1124122380393600 -0.1420534545000587 -0.0161972573722930
atom 15.8240616703988604 0.2226797079127184 6.3573502465828806 Zr
    velocity 0.1486356626702610 -0.2196598108159795 -0.1362080024205014
atom 20.9710616703988570 0.2226797079127184 6.3573502465828806 Zr
    velocity -0.3623320156930400 0.3275302169553101 0.0185921851963997
atom 26.1180616703988591 0.2226797079127184 6.3573502465828806 Zr
    velocity 0.0095709114837677 -0.1124974427201147 -0.3056271104416802
atom 31.2650616703988646 0.2226797079127184 6.3573502465828806 Zr
    velocity 0.1143711200426390 0.0495701378990524 -0.2869617415331225
atom 0.3830616703988661 5.4426797079127196 6.3573502465828806 Zr
    velocity 0.2326711764630022 -0.1538837500986185 0.0035819715865352
atom 5.5300616703988643 5.4426797079127196 6.3573502465828806 Zr
    velocity -0.1995598545040898 0.0615987127875230 0.4880971360212095
atom 10.6770616703988637 5.4426797079127196 6.3573502465828806 Zr
    velocity 0.2022792453237204 -0.0980967906908085 0.4292775608620565
atom 15.8240616703988604 5.4426797079127196 6.3573502465828806 Zr
    velocity -0.1545326160760261 -0.1263098451130800 0.0832122780217593
atom 20.9710616703988570 5.4426797079127196 6.3573502465828806 Zr
    velocity 0.9024184090209195 0.1701254489954975 0.1078887189883155
atom 26.1180616703988591 5.4426797079127196 6.3573502465828806 Zr
    velocity -0.0121499203296252 0.3813746196157897 -0.2100873142663850
atom 31.2650616703988646 5.4426797079127196 6.3573502465828806 Zr
    velocity -0.1818270625107668 -0.0136451384514374 0.1749984644848571
atom 0.3830616703988661 10.6626797079127211 6.3573502465828806 Zr
    velocity 0.6257065931594813 0.0681711504277905 -0.1834723286087696
atom 5.5300616703988643 10.6626797079127211 6.3573502465828806 Zr
    velocity -0.0698149736195830 -0.0536545563795565 -0.1293233740458951
atom 10.6770616703988637 10.6626797079127211 6.3573502465828806 Zr
    velocity -0.1235300215337787 -0.0634130564856370 -0.4181455844288351
atom 15.8240616703988604 10.6626797079127211 6.3573502465828806 Zr
    velocity 0.2187585919842442 -0.3451973541367733 -0.3268297612075414
atom 20.9710616703988570 10.6626797079127211 6.3573502465828806 Zr
    velocity -0.2713280710602307 0.8721773971066749 -0.1382517931362975
atom 26.1180616703988591 10.6626797079127211 6.3573502465828806 Zr
    velocity -0.3808405147429229 -0.4206562078123946 0.3861733943980835
atom 31.2650616703988646 10.6626797079127211 6.3573502465828806 Zr
    velocity -0.3437466246321662 0.0392065427888361 0.1833001455711289
atom 0.3830616703988661 15.8826797079127182 6.3573502465828806 Zr
    velocity 0.0136397094424742 -0.1608046211431959 0.0496310963041095
atom 5.5300616703988643 15.8826797079127182 6.3573502465828806 Zr
    velocity -0.1211687795841241 0.6293519705351911 0.1013893221170253
atom 10.6770616703988637 15.8826797079127182 6.3573502465828806 Zr
    velocity -0.6103298554046244 0.3295844087236248 -0.1061384407095661
atom 15.8240616703988604 15.8826797079127182 6.3573502465828806 Zr
    velocity -0.0735202672029499 -0.4051529445341530 0.1427301060901165
atom 20.9710616703988570 15.8826797079127182 6.3573502465828806 Zr
    velocity 0.3526767569169802 -0.1504780904370834 -0.1251614171781874
atom 26.1180616703988591 15.8826797079127182 6.3573502465828806 Zr
    velocity 0.2652440380768994 -0.1148121419250060 0.6115367670217327
atom 31.2650616703988646 15.8826797079127182 6.3573502465828806 Zr
    velocity -0.5028613334401016 -0.2628974510367232 0.1181230893625529
atom 0.3830616703988661 21.1026797079127171 6.3573502465828806 Zr
    velocity 0.1636843244836696 -0.4888879849485145 -0.0933126826616293
atom 5.5300616703988643 21.1026797079127171 6.3573502465828806 Zr
    velocity -0.4256834234918979 -0.2581531641455213 0.0764435475879271
atom 10.6770616703988637 21.1026797079127171 6.3573502465828806 Zr
    velocity -0.3142812138406360 0.2744134766282463 -0.2781092343537058
atom 15.8240616703988604 21.1026797079127171 6.3573502465828806 Zr
    velocity -0.1554067758891618 0.2961740314645777 -0.2237298330989715
atom 20.9710616703988570 21.1026797079127171 6.3573502465828806 Zr
    velocity 0.6936855420806751 -0.4176556900241101 -0.2156820044120770
atom 26.1180616703988591 21.1026797079127171 6.3573502465828806 Zr
    velocity 0.5309787784771257 -0.0268024040900337 0.1628330790906457
atom 31.2650616703988646 21.1026797079127171 6.3573502465828806 Zr
    velocity 0.1011294193934764 -0.1561737415336008 0.2701572103202352
atom 0.3830616703988661 26.3226797079127195 6.3573502465828806 Zr
    velocity 0.1723081646816604 0.2502470973370887 -0.3689886665516286
atom 5.5300616703988643 26.3226797079127195 6.3573502465828806 Zr
    velocity 0.5705070282589779 0.2456038200474554 0.1093752335549119
atom 10.6770616703988637 26.3226797079127195 6.3573502465828806 Zr
    velocity -0.1234657110523057 0.2619715439451918 -0.4434386985228091
atom 15.8240616703988604 26.3226797079127195 6.3573502465828806 Zr
    velocity -0.6334392599573919 -0.0081136772760376 -0.2421876876219249
atom 20.9710616703988570 26.3226797079127195 6.3573502465828806 Zr
    velocity 0.4628285661612864 0.1250222005013125 -0.0765067341977239
atom 26.1180616703988591 26.3226797079127195 6.3573502465828806 Zr
    velocity -0.0593707550808611 -0.2170446934127178 0.3178224338381825
atom 31.2650616703988646 26.3226797079127195 6.3573502465828806 Zr
    velocity 0.1960370970974346 0.1120431999625461 0.1185724091041382
atom 0.3830616703988661 31.5426797079127184 6.3573502465828806 Zr
    velocity 0.1888716176211430 0.1528825467177769 0.0710774632974667
atom 5.5300616703988643 31.5426797079127184 6.3573502465828806 Zr
    velocity -0.2942835432473355 -0.4056094025890255 0.3331907512920233
atom 10.6770616703988637 31.5426797079127184 6.3573502465828806 Zr
    velocity -0.2660874283764248 -0.1030007418954541 -0.2170663590146752
atom 15.8240616703988604 31.5426797079127184 6.3573502465828806 Zr
    velocity 0.0268976158696873 0.3713907628806304 -0.5499478875580702
atom 20.9710616703988570 31.5426797079127184 6.3573502465828806 Zr
    velocity 0.4071260849331634 -0.0887928418268321 0.4364065301122176
atom 26.1180616703988591 31.5426797079127184 6.3573502465828806 Zr
    velocity -0.1467719427906642 0.3485136784992182 -0.1533951274465572
atom 31.2650616703988646 31.5426797079127184 6.3573502465828806 Zr
    velocity -0.0378372037368876 -0.3003368780967364 0.0497787757909351
atom -0.4773170731554274 0.2226797079127184 11.6113700807327209 Zr
    velocity -0.0253062918558514 -0.1503882558498992 -0.2412188415242739
atom 4.6696829268445708 0.2226797079127184 11.6113700807327209 Zr
    velocity 0.4329934481454377 -0.5356934137505628 -0.1197454696287388
atom 9.8166829268445692 0.2226797079127184 11.6113700807327209 Zr
    velocity -0.0607710119133814 -0.4155130301761258 -0.5781635600822272
atom 14.9636829268445659 0.2226797079127184 11.6113700807327209 Zr
    velocity -0.6480345024446241 -0.0486556303163082 -0.1739674810334262
atom 20.1106829268445644 0.2226797079127184 11.6113700807327209 Zr
    velocity 0.1385555646465971 -0.2037848148314060 -0.5207409556628343
atom 25.2576829268445664 0.2226797079127184 11.6113700807327209 Zr
    velocity -0.2220150895354479 -0.1172931642507351 -0.3696829692698478
atom 30.4046829268445720 0.2226797079127184 11.6113700807327209 Zr
    velocity 0.5774945765096002 0.1130897243124804 0.5562672814569025
atom -0.4773170731554274 5.4426797079127196 11.6113700807327209 Zr
    velocity 0.4223823217977589 0.0636981752770482 -0.0779280940413148
atom 4.6696829268445708 5.4426797079127196 11.6113700807327209 Zr
    velocity -0.3730853173086514 0.1177175222704253 0.3800849216457484
atom 9.8166829268445692 5.4426797079127196 11.6113700807327209 Zr
    velocity -0.2959700128135370 0.1610229625351154 -0.0806811528184465
atom 14.9636829268445659 5.4426797079127196 11.6113700807327209 Zr
    velocity -0.2925224234950524 0.4273792462614238 0.1678763321723975
atom 20.1106829268445644 5.4426797079127196 11.6113700807327209 Zr
    velocity 0.9266834378692034 -0.1858808526915114 -0.4643545169181175
atom 25.2576829268445664 5.4426797079127196 11.6113700807327209 Zr
    velocity -0.5905599234416968 0.1174880395665894 0.3964083427048918
atom 30.4046829268445720 5.4426797079127196 11.6113700807327209 Zr
    velocity -0.1470591351096837 0.1442880260244233 -0.1138187952361634
atom -0.4773170731554274 10.6626797079127211 11.6113700807327209 Zr
    velocity 0.0454490110500022 -0.0095565560969513 0.7985607226791107
atom 4.6696829268445708 10.6626797079127211 11.6113700807327209 Zr
    velocity 0.1030503179030765 0.3700606146437609 -0.4393453670190356
atom 9.8166829268445692 10.6626797079127211 11.6113700807327209 Zr
    velocity -0.0111135123750328 0.1722499214078361 -0.3923801938299801
atom 14.9636829268445659 10.6626797079127211 11.6113700807327209 Zr
    velocity 0.1402580996606361 0.6249840960815394 0.2247642949621880
atom 20.1106829268445644 10.6626797079127211 11.6113700807327209 Zr
    velocity 0.0825794191497128 0.0232883938848759 0.0267025747383851
atom 25.2576829268445664 10.6626797079127211 11.6113700807327209 Zr
    velocity 0.0706899046169295 -0.1684815978611594 0.0927213509415577
atom 30.4046829268445720 10.6626797079127211 11.6113700807327209 Zr
    velocity -0.1344714239355919 0.0672869530850163 -0.0882687719661530
atom -0.4773170731554274 15.8826797079127182 11.6113700807327209 Zr
    velocity -0.0750053767484114 -0.2203119082228757 0.3023145683876474
atom 4.6696829268445708 15.8826797079127182 11.6113700807327209 Zr
    velocity -0.5736460214387470 -0.2886128097520508 -0.3222074438371771
atom 9.8166829268445692 15.8826797079127182 11.6113700807327209 Zr
    velocity 0.1950219762534445 -0.0406744551457219 0.4517442032777259
atom 14.9636829268445659 15.8826797079127182 11.6113700807327209 Zr
    velocity -0.2773457710909096 -0.5979478166485817 -0.2362928243214648
atom 20.1106829268445644 15.8826797079127182 11.6113700807327209 Zr
    velocity -0.0697174683491487 -0.1088295926653360 0.2634361030060561
atom 25.2576829268445664 15.8826797079127182 11.6113700807327209 Zr
    velocity 0.0482331268588727 -0.3724600161051558 -0.2528676928124555
atom 30.4046829268445720 15.8826797079127182 11.6113700807327209 Zr
    velocity 0.2504505749771487 0.0330672068405752 -0.3100200740548709
atom -0.4773170731554274 21.1026797079127171 11.6113700807327209 Zr
    velocity -0.4079332968007315 0.3613436254158058 -0.1510707628612533
atom 4.6696829268445708 21.1026797079127171 11.6113700807327209 Zr
    velocity -0.3360061903274498 -0.1581333191928714 -0.3283252358813444
atom 9.8166829268445692 21.1026797079127171 11.6113700807327209 Zr
    velocity 0.1240213481201486 -0.3807896825720027 -0.0028152894311044
atom 14.9636829268445659 21.1026797079127171 11.6113700807327209 Zr
    velocity -0.4177456971188187 -0.0499336359200257 0.1750891124596924
atom 20.1106829268445644 21.1026797079127171 11.6113700807327209 Zr
    velocity -0.4003273635541640 -0.0498110411460991 -0.0030905870896610
atom 25.2576829268445664 21.1026797079127171 11.6113700807327209 Zr
    velocity -0.2358103812961042 0.1198594206949115 -0.1455363400665899
atom 30.4046829268445720 21.1026797079127171 11.6113700807327209 Zr
    velocity -0.2938977148491747 0.0272817055701404 0.0184984829328114
atom -0.4773170731554274 26.3226797079127195 11.6113700807327209 Zr
    velocity -0.2580818300031151 -0.1809943563279551 -0.0184876277230415
atom 4.6696829268445708 26.3226797079127195 11.6113700807327209 Zr
    velocity -0.0486064179535436 0.0276243121686416 0.1488694516362309
atom 9.8166829268445692 26.3226797079127195 11.6113700807327209 Zr
    velocity 0.0499107206573687 -0.5257853930812135 -0.1368202866515412
atom 14.9636829268445659 26.3226797079127195 11.6113700807327209 Zr
    velocity -0.1616586489586165 -0.5344937834095103 -0.0631077342523966
atom 20.1106829268445644 26.3226797079127195 11.6113700807327209 Zr
    velocity -0.2497485114435537 0.1848178703001756 0.0119008512887030
atom 25.2576829268445664 26.3226797079127195 11.6113700807327209 Zr
    velocity -0.6355755290512389 0.0024366041453689 -0.4137343143588388
atom 30.4046829268445720 26.3226797079127195 11.6113700807327209 Zr
    velocity -0.3880237285197166 -0.5373197425581057 0.2024487694581955
atom -0.4773170731554274 31.5426797079127184 11.6113700807327209 Zr
    velocity 0.0592694290593577 -0.8915067802904959 0.0716342500473482
atom 4.6696829268445708 31.5426797079127184 11.6113700807327209 Zr
    velocity -0.1054040720949172 0.4847491300345862 -0.3746942116443555
atom 9.8166829268445692 31.5426797079127184 11.6113700807327209 Zr
    velocity -0.1915724733635690 0.0291146453044182 -0.3780064368111303
atom 14.9636829268445659 31.5426797079127184 11.6113700807327209 Zr
    velocity -0.2474283162757875 -0.0377747863234662 0.1556624179657537
atom 20.1106829268445644 31.5426797079127184 11.6113700807327209 Zr
    velocity -0.1049424730381639 0.1232662011751279 0.1916036280993374
atom 25.2576829268445664 31.5426797079127184 11.6113700807327209 Zr
    velocity -0.1713213815235519 -0.1350440460418774 0.4175505103639306
atom 30.4046829268445720 31.5426797079127184 11.6113700807327209 Zr
    velocity -0.3026607526371989 -0.5936732465958150 -0.4715160269929780
atom -1.3376958167097244 0.2226797079127184 16.8653899148825595 Zr
    velocity 0.2167824500660401 -0.4239575649472347 0.1153867022341443
atom 3.8093041832902776 0.2226797079127184 16.8653899148825595 Zr
    velocity 0.1916088071733140 -0.3159222513500537 -0.0531237625788553
atom 8.9563041832902766 0.2226797079127184 16.8653899148825595 Zr
    velocity -0.1209284536965133 -0.0791769873576938 -0.1755709240114122
atom 14.1033041832902732 0.2226797079127184 16.8653899148825595 Zr
    velocity 0.2967172784937874 -0.2517243367650496 -0.1657181817217460
atom 19.2503041832902717 0.2226797079127184 16.8653899148825595 Zr
    velocity 0.2803531965719720 0.0024502438709839 0.1196653162544427
atom 24.3973041832902737 0.2226797079127184 16.8653899148825595 Zr
    velocity 0.0388498678248158 -0.1817213221638363 0.0782248663826096
atom 29.5443041832902793 0.2226797079127184 16.8653899148825595 Zr
    velocity 0.1438535509574443 0.3679723537669413 0.1816702018539213
atom -1.3376958167097244 5.4426797079127196 16.8653899148825595 Zr
    velocity -0.0409669348083050 -0.0320033416147601 -0.1993949150773056
atom 3.8093041832902776 5.4426797079127196 16.8653899148825595 Zr
    velocity -0.1097976210322361 0.1333776820018855 0.2417148143924304
atom 8.9563041832902766 5.4426797079127196 16.8653899148825595 Zr
    velocity 0.0165852331625053 0.1686919329848325 -0.5153652467997692
atom 14.1033041832902732 5.4426797079127196 16.8653899148825595 Zr
    velocity 0.1843489638658447 0.0046920838132366 0.1485424760537465
atom 19.2503041832902717 5.4426797079127196 16.8653899148825595 Zr
    velocity -0.5710989227996111 0.1881079954157324 -0.0997183884161801
atom 24.3973041832902737 5.4426797079127196 16.8653899148825595 Zr
    velocity 0.1422142534359341 -0.2257264600038266 0.2485175439210912
atom 29.5443041832902793 5.4426797079127196 16.8653899148825595 Zr
    velocity -0.4020131916102917 0.2295494506149836 -0.1703858994371660
atom -1.3376958167097244 10.6626797079127211 16.8653899148825595 Zr
    velocity 0.0975602561769849 -0.1962308337053733 0.0087956877548927
atom 3.8093041832902776 10.6626797079127211 16.8653899148825595 Zr
    velocity -0.5743817318477314 0.0966208146008176 -0.0856636854016488
atom 8.9563041832902766 10.6626797079127211 16.8653899148825595 Zr
    velocity -0.4596830059592276 0.2132882931431876 -0.0322599929334777
atom 14.1033041832902732 10.6626797079127211 16.8653899148825595 Zr
    velocity 0.2710113287163904 -0.0874881778640810 -0.1664517863583660
atom 19.2503041832902717 10.6626797079127211 16.8653899148825595 Zr
    velocity -0.4185735346857947 -0.4456822227272086 0.4053780998638124
atom 24.3973041832902737 10.6626797079127211 16.8653899148825595 Zr
    velocity -0.0889993364250092 0.1476819430396343 0.3882251301549174
atom 29.5443041832902793 10.6626797079127211 16.8653899148825595 Zr
    velocity -0.0903536394386395 -0.0043201366067123 0.4918300573456590
atom -1.3376958167097244 15.8826797079127182 16.8653899148825595 Zr
    velocity 0.6088161263937591 0.4542270513356225 -0.2711856793008289
atom 3.8093041832902776 15.8826797079127182 16.8653899148825595 Zr
    velocity 0.4225683943909584 0.3235501011185800 0.2076010179789185
atom 8.9563041832902766 15.8826797079127182 16.8653899148825595 Zr
    velocity 0.2814399945500896 -0.3056269388150387 0.0920126282583450
atom 14.1033041832902732 15.8826797079127182 16.8653899148825595 Zr
    velocity 0.4460647941734142 0.1841140220174330 0.0413706275372091
atom 19.2503041832902717 15.8826797079127182 16.8653899148825595 Zr
    velocity -0.1295880255317506 0.4613054471529489 -0.0550312117963794
atom 24.3973041832902737 15.8826797079127182 16.8653899148825595 Zr
    velocity -0.3019607249418577 0.4395490708668033 -0.1011532001481725
atom 29.5443041832902793 15.8826797079127182 16.8653899148825595 Zr
    velocity 0.3400862268459496 0.0963289142872593 -0.4915998499591113
atom -1.3376958167097244 21.1026797079127171 16.8653899148825595 Zr
    velocity 0.6450546931345589 0.3092143821093691 0.2869867184855037
atom 3.8093041832902776 21.1026797079127171 16.8653899148825595 Zr
    velocity 0.3097872271352231 -0.6030986717639394 -0.3330215109472570
atom 8.9563041832902766 21.1026797079127171 16.8653899148825595 Zr
    velocity -0.0635232561411050 0.3309763652170516 0.0592398393293739
atom 14.1033041832902732 21.1026797079127171 16.8653899148825595 Zr
    velocity 0.4051614944251640 0.0607168178367976 -0.0960216930783396
atom 19.2503041832902717 21.1026797079127171 16.8653899148825595 Zr
    velocity -0.3770907792013801 -0.8332018843501123 0.1441429515655320
atom 24.3973041832902737 21.1026797079127171 16.8653899148825595 Zr
    velocity -0.2199147866619837 -0.3559790735176905 -0.7592730663779478
atom 29.5443041832902793 21.1026797079127171 16.8653899148825595 Zr
    velocity 0.0601410095028279 -0.0371117247651081 -0.1053300106829804
atom -1.3376958167097244 26.3226797079127195 16.8653899148825595 Zr
    velocity 0.0549569278602433 0.2295938075177023 -0.1906376197999532
atom 3.8093041832902776 26.3226797079127195 16.8653899148825595 Zr
    velocity 0.0637583654005122 -0.2895971232135038 0.2054002298244650
atom 8.9563041832902766 26.3226797079127195 16.8653899148825595 Zr
    velocity -0.0052958697773164 0.5043201044754736 -0.2172633536465932
atom 14.1033041832902732 26.3226797079127195 16.8653899148825595 Zr
    velocity -0.1786414574303544 -0.2869251940413169 -0.3989719354744917
atom 19.2503041832902717 26.3226797079127195 16.8653899148825595 Zr
    velocity 0.3314095482820790 -0.2594582285020087 0.1105231775954221
atom 24.3973041832902737 26.3226797079127195 16.8653899148825595 Zr
    velocity 0.0517317131666972 -0.3544911933723747 -0.5067680856177290
atom 29.5443041832902793 26.3226797079127195 16.8653899148825595 Zr
    velocity 0.4480156966559380 -0.1197243587509915 -0.2771324185650856
atom -1.3376958167097244 31.5426797079127184 16.8653899148825595 Zr
    velocity 0.2039025465714498 -0.4088666779264719 0.3867522453735254
atom 3.8093041832902776 31.5426797079127184 16.8653899148825595 Zr
    velocity 0.3439156572128479 0.1068345095543702 0.1472049551160736
atom 8.9563041832902766 31.5426797079127184 16.8653899148825595 Zr
    velocity -0.0602362520091621 -0.2248670793961352 -0.7795577886801147
atom 14.1033041832902732 31.5426797079127184 16.8653899148825595 Zr
    velocity 0.2456519266591596 0.5198227105997663 0.1432477766430001
atom 19.2503041832902717 31.5426797079127184 16.8653899148825595 Zr
    velocity -0.0662928340057380 -0.1076475705328932 0.0512350047201393
atom 24.3973041832902737 31.5426797079127184 16.8653899148825595 Zr
    velocity -0.3835582074504877 0.0489453847726170 -0.2329579820645615
atom 29.5443041832902793 31.5426797079127184 16.8653899148825595 Zr
    velocity -0.2741081829177923 -0.3189303494198023 0.2343546065282659
atom -2.1980745602640148 0.2226797079127184 22.1194097490324033 Zr
    velocity -0.0447639509684672 -0.9076544797476835 0.4197183103854617
atom 2.9489254397359832 0.2226797079127184 22.1194097490324033 Zr
    velocity 0.5438134141267978 -0.2204714690434942 0.3265943640696076
atom 8.0959254397359821 0.2226797079127184 22.1194097490324033 Zr
    velocity 0.2184526762232802 0.3663464326400129 0.5052246022322326
atom 13.2429254397359788 0.2226797079127184 22.1194097490324033 Zr
    velocity 0.0500519667597167 -0.3322541793303955 0.1907910464239528
atom 18.3899254397359755 0.2226797079127184 22.1194097490324033 Zr
    velocity -0.0804240623255802 -0.1230766492277260 0.2246176307290376
atom 23.5369254397359775 0.2226797079127184 22.1194097490324033 Zr
    velocity 0.0142556325058159 -0.6408091615028266 -0.4444946117451868
atom 28.6839254397359831 0.2226797079127184 22.1194097490324033 Zr
    velocity 0.3296288949005113 0.1092277016673828 -0.4014180303444040
atom -2.1980745602640148 5.4426797079127196 22.1194097490324033 Zr
    velocity -0.1484526257998381 -0.0572322395396501 -0.0236157190974420
atom 2.9489254397359832 5.4426797079127196 22.1194097490324033 Zr
    velocity -0.1360835122371548 -0.3369505614854860 -0.0528776845037616
atom 8.0959254397359821 5.4426797079127196 22.1194097490324033 Zr
    velocity 0.3770175365868991 -0.1450348946508348 0.4830605800504073
atom 13.2429254397359788 5.4426797079127196 22.1194097490324033 Zr
    velocity -0.1949730763818276 -0.5890907072445817 0.3599525221571607
atom 18.3899254397359755 5.4426797079127196 22.1194097490324033 Zr
    velocity 0.3786033899797143 0.1270135542743291 -0.8198319443793405
atom 23.5369254397359775 5.4426797079127196 22.1194097490324033 Zr
    velocity -0.1126531759087883 0.0240858472614951 -0.0766635697075366
atom 28.6839254397359831 5.4426797079127196 22.1194097490324033 Zr
    velocity 0.2534878913333586 0.0701584846334027 -0.0969618644663551
atom -2.1980745602640148 10.6626797079127211 22.1194097490324033 Zr
    velocity 0.0844407917294178 -0.1072752998998573 -0.2032132136435333