#=======================================================
# FHI-aims file: 300_geometry.in.primitive.supercell_6144.0010K
# Created using the Atomic Simulation Environment (ASE)
# Wed Aug 24 14:02:20 2022

# Additional information:
#  created from MB distrubtion
#  T = 10.0 K
#  quantum:             False
#  deterministic:       False
#  plus_minus:          False
#  gauge_eigenvectors:  False
#  Random seed:         838797417
#  Sample number:       1
#=======================================================
lattice_vector 41.1760000000000019 0.0000000000000000 0.0000000000000000 
lattice_vector 0.0000000000000000 41.7599999999999980 0.0000000000000000 
lattice_vector -6.8830299484343502 0.0000000000000000 42.0321586731987367 
atom 1.2434404139531583 0.2226797079127200 1.1033304124330396 Zr
    velocity 0.0262503472459246 -0.0671724365652464 0.1474260914012839
atom 6.3904404139531588 0.2226797079127200 1.1033304124330396 Zr
    velocity 0.3045229738023387 0.0535575481594991 0.5447927239011962
atom 11.5374404139531581 0.2226797079127200 1.1033304124330396 Zr
    velocity 0.3135446692362491 -0.0186964569188136 0.0140445447114207
atom 16.6844404139531584 0.2226797079127200 1.1033304124330396 Zr
    velocity 0.3074814596162933 0.0103688166639171 -0.1865946073868875
atom 21.8314404139531604 0.2226797079127200 1.1033304124330396 Zr
    velocity -0.3741193529410676 -0.4449135065369714 0.3390515412276811
atom 26.9784404139531588 0.2226797079127200 1.1033304124330396 Zr
    velocity -0.2294833202084024 -0.1696896901874818 0.1245139905098998
atom 32.1254404139531573 0.2226797079127200 1.1033304124330396 Zr
    velocity 0.4283613898743957 -0.1150412166533046 0.0040187143628712
atom 37.2724404139531558 0.2226797079127200 1.1033304124330396 Zr
    velocity -0.1554514875343113 -0.2074258628080896 0.5521765854976994
atom 1.2434404139531583 5.4426797079127196 1.1033304124330396 Zr
    velocity 0.7707125370442951 0.2263308073458223 0.1249794634202231
atom 6.3904404139531588 5.4426797079127196 1.1033304124330396 Zr
    velocity 0.2989627418360571 0.0363032292151313 -0.4558928710868599
atom 11.5374404139531581 5.4426797079127196 1.1033304124330396 Zr
    velocity -0.0680166296794800 0.0423731402827772 0.1869921676084617
atom 16.6844404139531584 5.4426797079127196 1.1033304124330396 Zr
    velocity -0.2712046220615042 0.0192757357016917 0.1755790688847755
atom 21.8314404139531604 5.4426797079127196 1.1033304124330396 Zr
    velocity -0.1371867587915500 0.4397221117885478 -0.2193392005816140
atom 26.9784404139531588 5.4426797079127196 1.1033304124330396 Zr
    velocity -0.0703909291810103 -0.0308383720750195 0.1818403146539224
atom 32.1254404139531573 5.4426797079127196 1.1033304124330396 Zr
    velocity -0.2235034389565909 0.4908829273313818 0.0976158018918164
atom 37.2724404139531558 5.4426797079127196 1.1033304124330396 Zr
    velocity -0.7879973435486363 0.2106695067778391 0.0140434315529075
atom 1.2434404139531583 10.6626797079127211 1.1033304124330396 Zr
    velocity -0.3134217864646608 0.2080187416938024 -0.0329073402728736
atom 6.3904404139531588 10.6626797079127211 1.1033304124330396 Zr
    velocity 0.1769343610766181 -0.0248811679117086 -0.2945374860968623
atom 11.5374404139531581 10.6626797079127211 1.1033304124330396 Zr
    velocity 0.4207767055390726 0.3014289477870777 -0.4690832881146078
atom 16.6844404139531584 10.6626797079127211 1.1033304124330396 Zr
    velocity 0.1082467220588873 0.1030874657699966 -0.2618145636693835
atom 21.8314404139531604 10.6626797079127211 1.1033304124330396 Zr
    velocity -0.1017027656900094 0.1407648408925402 0.1060813850397710
atom 26.9784404139531588 10.6626797079127211 1.1033304124330396 Zr
    velocity 0.1125865866047415 0.0375267349135567 0.2518546396410598
atom 32.1254404139531573 10.6626797079127211 1.1033304124330396 Zr
    velocity -0.4223288261681651 -0.0349701572817919 -0.1719823655106060
atom 37.2724404139531558 10.6626797079127211 1.1033304124330396 Zr
    velocity 0.0010344571510129 0.0386311669216209 -0.3917143167472475
atom 1.2434404139531583 15.8826797079127200 1.1033304124330396 Zr
    velocity -0.1941305710837457 0.4696504375613155 0.0633980709377386
atom 6.3904404139531588 15.8826797079127200 1.1033304124330396 Zr
    velocity 0.2092508965734371 0.3569365173600562 0.0589240745842417
atom 11.5374404139531581 15.8826797079127200 1.1033304124330396 Zr
    velocity 0.4537543563298558 0.2105569694421865 -0.0079707024382156
atom 16.6844404139531584 15.8826797079127200 1.1033304124330396 Zr
    velocity -0.2090517058637178 -0.1501452818881349 -0.2864614747357665
atom 21.8314404139531604 15.8826797079127200 1.1033304124330396 Zr
    velocity -0.2133065814274174 0.8968217698813358 0.2504609569808152
atom 26.9784404139531588 15.8826797079127200 1.1033304124330396 Zr
    velocity 0.0378058665040597 0.0903641175725438 -0.1719368011303087
atom 32.1254404139531573 15.8826797079127200 1.1033304124330396 Zr
    velocity 0.1322934055869109 0.0218696387495658 0.2400014655958783
atom 37.2724404139531558 15.8826797079127200 1.1033304124330396 Zr
    velocity -0.1433384882541654 -0.7202947284826066 -0.0809217141734873
atom 1.2434404139531583 21.1026797079127206 1.1033304124330396 Zr
    velocity 0.3240439995614436 -0.1905340814377827 -0.2029300116035169
atom 6.3904404139531588 21.1026797079127206 1.1033304124330396 Zr
    velocity -0.0425916883148555 -0.2771956668858930 0.0827485401647349
atom 11.5374404139531581 21.1026797079127206 1.1033304124330396 Zr
    velocity 0.2550878073616700 -0.0452229078842029 -0.1191026526707052
atom 16.6844404139531584 21.1026797079127206 1.1033304124330396 Zr
    velocity 0.2363577061296260 0.2514139020589934 -0.5810068131613905
atom 21.8314404139531604 21.1026797079127206 1.1033304124330396 Zr
    velocity -0.0064739516931633 0.0231090715705977 -0.2342272127931053
atom 26.9784404139531588 21.1026797079127206 1.1033304124330396 Zr
    velocity -0.3348994129537707 0.0844157324654147 -0.0458074461264530
atom 32.1254404139531573 21.1026797079127206 1.1033304124330396 Zr
    velocity -0.0629189113540282 0.6795514914773708 -0.3778893991941189
atom 37.2724404139531558 21.1026797079127206 1.1033304124330396 Zr
    velocity 0.0882065157647416 0.1397655307150576 0.3925322780814171
atom 1.2434404139531583 26.3226797079127195 1.1033304124330396 Zr
    velocity 0.0586593990803365 0.0604245237614866 -0.1560051280578191
atom 6.3904404139531588 26.3226797079127195 1.1033304124330396 Zr
    velocity 0.1829498450632172 0.5141854522623135 0.2472204641414918
atom 11.5374404139531581 26.3226797079127195 1.1033304124330396 Zr
    velocity 0.2821659408693252 0.0057515265057288 -0.0730954499962318
atom 16.6844404139531584 26.3226797079127195 1.1033304124330396 Zr
    velocity -0.0452983083471647 0.3722632217203634 -0.4415504481125355
atom 21.8314404139531604 26.3226797079127195 1.1033304124330396 Zr
    velocity 0.0159185167704159 0.1352255565985450 0.0003143859465192
atom 26.9784404139531588 26.3226797079127195 1.1033304124330396 Zr
    velocity -0.0303518635417874 -0.3621129467578494 0.0019070660450506
atom 32.1254404139531573 26.3226797079127195 1.1033304124330396 Zr
    velocity -0.3616004567778621 -0.1437415687075879 -0.6521675712149458
atom 37.2724404139531558 26.3226797079127195 1.1033304124330396 Zr
    velocity 0.1299811739182886 -0.3601907015421764 0.4949804380040123
atom 1.2434404139531583 31.5426797079127184 1.1033304124330396 Zr
    velocity 0.1575679787223633 -0.0857057627481829 0.1104466001034927
atom 6.3904404139531588 31.5426797079127184 1.1033304124330396 Zr
    velocity 0.0205348726226040 0.0608715337052378 -0.2786885305500463
atom 11.5374404139531581 31.5426797079127184 1.1033304124330396 Zr
    velocity 0.5321370126305783 -0.0661663593052054 0.0991149996519795
atom 16.6844404139531584 31.5426797079127184 1.1033304124330396 Zr
    velocity -0.0467393831024147 0.0463569213718839 -0.0071271973299935
atom 21.8314404139531604 31.5426797079127184 1.1033304124330396 Zr
    velocity 0.1994381827888904 -0.3141787530403714 -0.3195893216540072
atom 26.9784404139531588 31.5426797079127184 1.1033304124330396 Zr
    velocity -0.4681783682328788 0.1940105296677536 0.0012227019173286
atom 32.1254404139531573 31.5426797079127184 1.1033304124330396 Zr
    velocity -0.0831239039977047 0.2278136860827334 0.4514389466285075
atom 37.2724404139531558 31.5426797079127184 1.1033304124330396 Zr
    velocity 0.4815615443500160 0.3997216894721517 -0.1280606691094661
atom 1.2434404139531583 36.7626797079127172 1.1033304124330396 Zr
    velocity 0.1797129682744417 0.0437492173860592 0.2441865157151594
atom 6.3904404139531588 36.7626797079127172 1.1033304124330396 Zr
    velocity 0.1745968659954476 0.0408669536742889 -0.1915955559957314
atom 11.5374404139531581 36.7626797079127172 1.1033304124330396 Zr
    velocity 0.3518827895574480 0.1337287922801547 0.1977272096341208
atom 16.6844404139531584 36.7626797079127172 1.1033304124330396 Zr
    velocity -0.0068188241372468 0.0685720074059296 -0.0631226064798791
atom 21.8314404139531604 36.7626797079127172 1.1033304124330396 Zr
    velocity -0.1467894802053039 0.0301885972761794 -0.4703402824350075
atom 26.9784404139531588 36.7626797079127172 1.1033304124330396 Zr
    velocity 0.3814353576576920 0.0588685660729826 -0.0080392415980992
atom 32.1254404139531573 36.7626797079127172 1.1033304124330396 Zr
    velocity -0.3211833130789198 -0.1445083529323132 -0.2592539289535367
atom 37.2724404139531558 36.7626797079127172 1.1033304124330396 Zr
    velocity 0.0286842063847801 -0.3022793157821576 -0.0414235177688071
atom 0.3830616703988644 0.2226797079127200 6.3573502465828824 Zr
    velocity 0.1958074872158110 0.0279795401261215 0.1336544226466002
atom 5.5300616703988652 0.2226797079127200 6.3573502465828824 Zr
    velocity 0.0684832022218288 -0.1462598726659792 0.0146326426988997
atom 10.6770616703988637 0.2226797079127200 6.3573502465828824 Zr
    velocity -0.0028150221106163 -0.2929655904559118 0.3182754372948995
atom 15.8240616703988621 0.2226797079127200 6.3573502465828824 Zr
    velocity -0.2407478694602690 -0.3459098754630204 0.0203418474921263
atom 20.9710616703988642 0.2226797079127200 6.3573502465828824 Zr
    velocity 0.4643560269831338 0.0440779161491358 -0.2374231326965740
atom 26.1180616703988626 0.2226797079127200 6.3573502465828824 Zr
    velocity -0.3647308740008701 -0.1009131547649946 -0.4350167386430353
atom 31.2650616703988646 0.2226797079127200 6.3573502465828824 Zr
    velocity -0.0381650834354518 0.0815127669699523 -0.4660019753014777
atom 36.4120616703988631 0.2226797079127200 6.3573502465828824 Zr
    velocity 0.2930988866055616 0.0306092610425721 -0.5183214902328347
atom 0.3830616703988644 5.4426797079127196 6.3573502465828824 Zr
    velocity 0.0250028435025926 0.3185661403662359 0.3354307221899680
atom 5.5300616703988652 5.4426797079127196 6.3573502465828824 Zr
    velocity -0.3294621958026288 -0.1107200085953648 -0.1846538776583793
atom 10.6770616703988637 5.4426797079127196 6.3573502465828824 Zr
    velocity -0.3843802045945094 -0.5996380304526249 0.1177558909614700
atom 15.8240616703988621 5.4426797079127196 6.3573502465828824 Zr
    velocity -0.1718339481422726 -0.4325774211880392 0.0067565643847275
atom 20.9710616703988642 5.4426797079127196 6.3573502465828824 Zr
    velocity -0.0317575679886346 -0.3030674580601678 -0.2513733398952588
atom 26.1180616703988626 5.4426797079127196 6.3573502465828824 Zr
    velocity -0.0200205667862383 0.3089785169350798 -0.0092943462087494
atom 31.2650616703988646 5.4426797079127196 6.3573502465828824 Zr
    velocity -0.4169928749537359 -0.7739692283142062 -0.1486088946123744
atom 36.4120616703988631 5.4426797079127196 6.3573502465828824 Zr
    velocity 0.1280559383768287 0.5723256612209289 -0.3661716322790037
atom 0.3830616703988644 10.6626797079127211 6.3573502465828824 Zr
    velocity 0.3767677414924646 -0.2978191445755490 0.1601427742382449
atom 5.5300616703988652 10.6626797079127211 6.3573502465828824 Zr
    velocity 0.3591300950395026 0.0430258718782483 0.0336891372251213
atom 10.6770616703988637 10.6626797079127211 6.3573502465828824 Zr
    velocity 0.7785696032022642 -0.0440135863495141 -0.1230590527469518
atom 15.8240616703988621 10.6626797079127211 6.3573502465828824 Zr
    velocity 0.3969393841080140 -0.1222532008435189 -0.3573358757413799
atom 20.9710616703988642 10.6626797079127211 6.3573502465828824 Zr
    velocity -0.4458531058546227 0.1169461196458499 0.1821068824685140
atom 26.1180616703988626 10.6626797079127211 6.3573502465828824 Zr
    velocity -0.0690152628855799 -0.1137681147366728 -0.1435678006106964
atom 31.2650616703988646 10.6626797079127211 6.3573502465828824 Zr
    velocity 0.3285214167397112 0.4142278042031458 0.0883372642661387
atom 36.4120616703988631 10.6626797079127211 6.3573502465828824 Zr
    velocity -0.4925607261825771 0.1942790274985219 -0.2968471478745136
atom 0.3830616703988644 15.8826797079127200 6.3573502465828824 Zr
    velocity -0.1021906469072861 0.0514794953337790 0.1239252315766083
atom 5.5300616703988652 15.8826797079127200 6.3573502465828824 Zr
    velocity 0.1300166514194660 -0.0805522989335215 -0.3630738669669448
atom 10.6770616703988637 15.8826797079127200 6.3573502465828824 Zr
    velocity 0.2879141087282611 0.0025892776661252 -0.2196952675513136
atom 15.8240616703988621 15.8826797079127200 6.3573502465828824 Zr
    velocity 0.0037615492904836 -0.3256142035791227 -0.1914823924519260
atom 20.9710616703988642 15.8826797079127200 6.3573502465828824 Zr
    velocity 0.2399473840968558 0.2786211772086543 -0.2119479147567826
atom 26.1180616703988626 15.8826797079127200 6.3573502465828824 Zr
    velocity 0.5731527826095865 -0.6268793528482175 0.0235763216453475
atom 31.2650616703988646 15.8826797079127200 6.3573502465828824 Zr
    velocity -0.0107699893973356 0.2560985172564803 0.5164537331692435
atom 36.4120616703988631 15.8826797079127200 6.3573502465828824 Zr
    velocity -0.1185740239415300 0.2988435937032967 0.0995381603182491
atom 0.3830616703988644 21.1026797079127206 6.3573502465828824 Zr
    velocity -0.0948899844991146 0.2680621099794732 0.1298473419543786
atom 5.5300616703988652 21.1026797079127206 6.3573502465828824 Zr
    velocity 0.1210111850445282 0.3677097550376461 0.1205930482053631
atom 10.6770616703988637 21.1026797079127206 6.3573502465828824 Zr
    velocity 0.3498043175126809 -0.0751098232411699 -0.3633282696627400
atom 15.8240616703988621 21.1026797079127206 6.3573502465828824 Zr
    velocity 0.0870391559271200 -0.2189634000430426 -0.1966026554108198
atom 20.9710616703988642 21.1026797079127206 6.3573502465828824 Zr
    velocity 0.1897002158265445 -0.0618646891870968 0.3212185287518401
atom 26.1180616703988626 21.1026797079127206 6.3573502465828824 Zr
    velocity -0.1622348621616766 -0.1582713870008062 -0.0832091294999716
atom 31.2650616703988646 21.1026797079127206 6.3573502465828824 Zr
    velocity 0.0208619394365857 -0.1233436424740241 0.2459030968603732
atom 36.4120616703988631 21.1026797079127206 6.3573502465828824 Zr
    velocity 0.1831708664723997 -0.2986682709513546 -0.2950858491777615
atom 0.3830616703988644 26.3226797079127195 6.3573502465828824 Zr
    velocity 0.3606237152424408 -0.1810287301400400 0.3155228955716219
atom 5.5300616703988652 26.3226797079127195 6.3573502465828824 Zr
    velocity 0.1783300498886656 -0.0478838816491178 0.1725018967464160
atom 10.6770616703988637 26.3226797079127195 6.3573502465828824 Zr
    velocity -0.0766934376130128 0.0102964090015312 0.0101266040722817
atom 15.8240616703988621 26.3226797079127195 6.3573502465828824 Zr
    velocity -0.4852675159332537 0.3711411347955375 0.7188683504279757
atom 20.9710616703988642 26.3226797079127195 6.3573502465828824 Zr
    velocity 0.3352219171764648 0.3684408411472804 0.2775043832410871
atom 26.1180616703988626 26.3226797079127195 6.3573502465828824 Zr
    velocity -0.2444761056260554 0.0951836321387463 -0.5817308746831665
atom 31.2650616703988646 26.3226797079127195 6.3573502465828824 Zr
    velocity -0.2402136361840337 0.1541773185982641 -0.2532896684901496
atom 36.4120616703988631 26.3226797079127195 6.3573502465828824 Zr
    velocity -0.4177730871351131 -0.4113670329032091 0.2803830254385720
atom 0.3830616703988644 31.5426797079127184 6.3573502465828824 Zr
    velocity -0.1281739442237858 -0.1529586566324820 -0.1700044812319488
atom 5.5300616703988652 31.5426797079127184 6.3573502465828824 Zr
    velocity -0.1103089203950271 -0.1964104691126905 0.4349569245119482
atom 10.6770616703988637 31.5426797079127184 6.3573502465828824 Zr
    velocity -0.6232453158355508 -0.7351784386697183 -0.1050215455623443
atom 15.8240616703988621 31.5426797079127184 6.3573502465828824 Zr
    velocity 0.1949017322865809 0.0671263332354491 -0.0087562394182541
atom 20.9710616703988642 31.5426797079127184 6.3573502465828824 Zr
    velocity -0.3183904507451621 0.2315188127429050 -0.1113196163763146
atom 26.1180616703988626 31.5426797079127184 6.3573502465828824 Zr
    velocity -0.2119023637480893 -0.1188242166902463 -0.1258504740811681
atom 31.2650616703988646 31.5426797079127184 6.3573502465828824 Zr
    velocity -0.5650653504177611 -0.5296277566474770 -0.1804386230420448
atom 36.4120616703988631 31.5426797079127184 6.3573502465828824 Zr
    velocity -0.0017171403558395 0.3038043239020792 0.3811940388972178
atom 0.3830616703988644 36.7626797079127172 6.3573502465828824 Zr
    velocity -0.3056122791465346 -0.0389368622664470 0.0907131271763768
atom 5.5300616703988652 36.7626797079127172 6.3573502465828824 Zr
    velocity 0.0975426940584277 -0.1800435959894688 -0.3275642147780969
atom 10.6770616703988637 36.7626797079127172 6.3573502465828824 Zr
    velocity 0.5288817078968910 -0.4253885046719607 -0.1129998256243832
atom 15.8240616703988621 36.7626797079127172 6.3573502465828824 Zr
    velocity 0.3470550778969084 0.0023169109275523 -0.6976103353913458
atom 20.9710616703988642 36.7626797079127172 6.3573502465828824 Zr
    velocity 0.4039736931290465 -0.1807308361976231 0.0482328497919402
atom 26.1180616703988626 36.7626797079127172 6.3573502465828824 Zr
    velocity 0.2460779501895667 -0.5672931298019634 0.0183460596211036
atom 31.2650616703988646 36.7626797079127172 6.3573502465828824 Zr
    velocity -0.1473794585076979 0.4947070271968906 0.0540534797320409
atom 36.4120616703988631 36.7626797079127172 6.3573502465828824 Zr
    velocity -0.0975431844066556 0.3647877415934777 -0.0013710214576256
atom -0.4773170731554294 0.2226797079127200 11.6113700807327245 Zr
    velocity -0.3718014532451095 0.0436784810780491 -0.2494477870012069
atom 4.6696829268445716 0.2226797079127200 11.6113700807327245 Zr
    velocity 0.1838743252567242 0.2070495268054994 -0.5431829235555791
atom 9.8166829268445710 0.2226797079127200 11.6113700807327245 Zr
    velocity -0.0617477144720729 0.5602857987863895 0.2735935603041688
atom 14.9636829268445695 0.2226797079127200 11.6113700807327245 Zr
    velocity -0.1107026746203090 0.2552964496895138 -0.3978642107618440
atom 20.1106829268445715 0.2226797079127200 11.6113700807327245 Zr
    velocity 0.4264630093084034 -0.0539778417624942 -0.0596876900430255
atom 25.2576829268445699 0.2226797079127200 11.6113700807327245 Zr
    velocity -0.2247952844420681 -0.0033554239587994 -0.1678481005416434
atom 30.4046829268445720 0.2226797079127200 11.6113700807327245 Zr
    velocity -0.2286734627142401 -0.1003164492851696 0.1962261282880501
atom 35.5516829268445704 0.2226797079127200 11.6113700807327245 Zr
    velocity 0.1072125636413983 0.0303896058172972 -0.0789654063061409
atom -0.4773170731554294 5.4426797079127196 11.6113700807327245 Zr
    velocity 0.1804445089470418 -0.0726513822062548 0.0636620843105724
atom 4.6696829268445716 5.4426797079127196 11.6113700807327245 Zr
    velocity -0.5313325564237090 -0.0701208324384765 -0.3889578608795299
atom 9.8166829268445710 5.4426797079127196 11.6113700807327245 Zr
    velocity 0.0112337035737951 -0.1957710537343157 0.1707391825213054
atom 14.9636829268445695 5.4426797079127196 11.6113700807327245 Zr
    velocity -0.3331092042249681 -0.2845984727697209 -0.4372827736265235
atom 20.1106829268445715 5.4426797079127196 11.6113700807327245 Zr
    velocity 0.5180397393363002 0.2977219172133559 0.4201211366837725
atom 25.2576829268445699 5.4426797079127196 11.6113700807327245 Zr
    velocity -0.1957969682769405 0.2347028176101082 -0.2601265183822763
atom 30.4046829268445720 5.4426797079127196 11.6113700807327245 Zr
    velocity 0.2008575405713615 -0.3484615534321003 0.4761732963941432
atom 35.5516829268445704 5.4426797079127196 11.6113700807327245 Zr
    velocity -0.2197954317679178 0.0245206947001249 0.4882040508074186
atom -0.4773170731554294 10.6626797079127211 11.6113700807327245 Zr
    velocity 0.0330054531119705 -0.0570226268397436 0.4340586350072585
atom 4.6696829268445716 10.6626797079127211 11.6113700807327245 Zr
    velocity 0.4051658892541207 -0.1130400519098793 0.0892721519829948
atom 9.8166829268445710 10.6626797079127211 11.6113700807327245 Zr
    velocity 0.0707559798392087 -0.4041518724776394 0.0178566139278847
atom 14.9636829268445695 10.6626797079127211 11.6113700807327245 Zr
    velocity -0.4286737938440376 -0.0509042178366682 0.6455287553398592
atom 20.1106829268445715 10.6626797079127211 11.6113700807327245 Zr
    velocity 0.1712558112215802 -0.2000341354902710 0.0937394607270434
atom 25.2576829268445699 10.6626797079127211 11.6113700807327245 Zr
    velocity 0.3716266240169786 0.2242743397970481 0.0580481879752698
atom 30.4046829268445720 10.6626797079127211 11.6113700807327245 Zr
    velocity 0.1327564830279401 0.0887839754145888 0.2023357084382370
atom 35.5516829268445704 10.6626797079127211 11.6113700807327245 Zr
    velocity 0.0456356250566883 0.5749377275033328 -0.0061366155661638
atom -0.4773170731554294 15.8826797079127200 11.6113700807327245 Zr
    velocity -0.0962422829012252 -0.1130225945682856 0.2847166247558114
atom 4.6696829268445716 15.8826797079127200 11.6113700807327245 Zr
    velocity -0.2104087082025909 -0.0158465518082692 0.0099712127961841
atom 9.8166829268445710 15.8826797079127200 11.6113700807327245 Zr
    velocity -0.2459821413654487 -0.8228706326705034 -0.3802202198983169
atom 14.9636829268445695 15.8826797079127200 11.6113700807327245 Zr
    velocity -0.1679455683591214 -0.4632909862469548 0.0257751965458242
atom 20.1106829268445715 15.8826797079127200 11.6113700807327245 Zr
    velocity 0.1642993599008432 0.7399336079071448 0.3391452643596207
atom 25.2576829268445699 15.8826797079127200 11.6113700807327245 Zr
    velocity 0.1705416713887711 0.1656418545615536 0.3882834167551625
atom 30.4046829268445720 15.8826797079127200 11.6113700807327245 Zr
    velocity -0.4093936322707287 -0.1371012509157815 -0.1190217695555777
atom 35.5516829268445704 15.8826797079127200 11.6113700807327245 Zr
    velocity 0.5770374345073896 0.1664124749646262 -0.2146576238114400
atom -0.4773170731554294 21.1026797079127206 11.6113700807327245 Zr
    velocity -0.1313781487901675 -0.0130880992482132 0.3353667151373902
atom 4.6696829268445716 21.1026797079127206 11.6113700807327245 Zr
    velocity -0.5848738201662210 0.2674330120294864 0.0790345230998584
atom 9.8166829268445710 21.1026797079127206 11.6113700807327245 Zr
    velocity -0.0799955332722639 -0.1717268271213998 0.2527639091602983
atom 14.9636829268445695 21.1026797079127206 11.6113700807327245 Zr
    velocity -0.4327498777588310 -0.3466271670149360 0.0595430908542643
atom 20.1106829268445715 21.1026797079127206 11.6113700807327245 Zr
    velocity 0.2772565678720104 0.4028239773507252 -0.1468248261232384
atom 25.2576829268445699 21.1026797079127206 11.6113700807327245 Zr
    velocity -0.2491758989920261 -0.2473939450877277 -0.2139643235436870
atom 30.4046829268445720 21.1026797079127206 11.6113700807327245 Zr
    velocity -0.6285527777376140 0.1743615797374254 -0.0968901074358447
atom 35.5516829268445704 21.1026797079127206 11.6113700807327245 Zr
    velocity -0.0286107626013926 -0.0911837024625253 0.4570207365016858
atom -0.4773170731554294 26.3226797079127195 11.6113700807327245 Zr
    velocity -0.2287784705553272 -0.5643802666333165 -0.0699467331377774
atom 4.6696829268445716 26.3226797079127195 11.6113700807327245 Zr
    velocity 0.2354069100139904 -0.0106739611419874 -0.1752971324435277
atom 9.8166829268445710 26.3226797079127195 11.6113700807327245 Zr
    velocity 0.3515958755197613 -0.3031878110646468 -0.1696780572753291
atom 14.9636829268445695 26.3226797079127195 11.6113700807327245 Zr
    velocity -0.4197379678320948 -0.4527469362938746 0.0594386673283929
atom 20.1106829268445715 26.3226797079127195 11.6113700807327245 Zr
    velocity -0.3652107611058305 -0.3546900883442829 -0.0188298031594553
atom 25.2576829268445699 26.3226797079127195 11.6113700807327245 Zr
    velocity 0.1658557972005800 0.0110644537395595 0.0745312651036957
atom 30.4046829268445720 26.3226797079127195 11.6113700807327245 Zr
    velocity -0.1647160589575692 -0.5980943160022758 -0.2183411128774665
atom 35.5516829268445704 26.3226797079127195 11.6113700807327245 Zr
    velocity 0.1325232531561791 -0.5485893151024278 -0.1240454457147091
atom -0.4773170731554294 31.5426797079127184 11.6113700807327245 Zr
    velocity -0.0368185193405548 0.0651020238962400 -0.0670263760070997
atom 4.6696829268445716 31.5426797079127184 11.6113700807327245 Zr
    velocity 0.2052207213435118 0.2129966155390264 -0.5353304608160465
atom 9.8166829268445710 31.5426797079127184 11.6113700807327245 Zr
    velocity -0.3847349115311232 -0.0474530603383933 0.4119948872718124
atom 14.9636829268445695 31.5426797079127184 11.6113700807327245 Zr
    velocity -0.4254394376772389 0.0476891289266700 0.1983321341033603
atom 20.1106829268445715 31.5426797079127184 11.6113700807327245 Zr
    velocity 0.2673219118909018 0.3346936165500253 0.1024570608830882
atom 25.2576829268445699 31.5426797079127184 11.6113700807327245 Zr
    velocity -0.0100471742818906 -0.7203586614497109 -0.3449529162877958
atom 30.4046829268445720 31.5426797079127184 11.6113700807327245 Zr
    velocity 0.0181727225967723 0.4561411970317781 -0.1435481188000539
atom 35.5516829268445704 31.5426797079127184 11.6113700807327245 Zr
    velocity -0.1924176378185430 -0.2757375960165340 -0.0650941215005110
atom -0.4773170731554294 36.7626797079127172 11.6113700807327245 Zr
    velocity -0.0588717136796977 0.0847743000810567 0.2619561821301976
atom 4.6696829268445716 36.7626797079127172 11.6113700807327245 Zr
    velocity 0.3706717927333948 0.1387202493397934 0.2156950193063007
atom 9.8166829268445710 36.7626797079127172 11.6113700807327245 Zr
    velocity 0.1282555267372164 -0.2351465364500302 -0.6420323563178144
atom 14.9636829268445695 36.7626797079127172 11.6113700807327245 Zr
    velocity -0.0539951654213554 0.1462953541852998 -0.1177850330054115
atom 20.1106829268445715 36.7626797079127172 11.6113700807327245 Zr
    velocity 0.3606817940972440 -0.3057397316367960 0.1615577355575642
atom 25.2576829268445699 36.7626797079127172 11.6113700807327245 Zr
    velocity 0.3326029877793898 -0.3084806044205028 -0.1137991456027484
atom 30.4046829268445720 36.7626797079127172 11.6113700807327245 Zr
    velocity 0.4850047545153934 0.1754104918406659 0.0900271465170039
atom 35.5516829268445704 36.7626797079127172 11.6113700807327245 Zr
    velocity -0.4891083167989519 -0.3885858069172356 -0.1036762455180067
atom -1.3376958167097233 0.2226797079127200 16.8653899148825666 Zr
    velocity -0.1592164630605389 -0.1221663365547432 -0.6114411927092146
atom 3.8093041832902776 0.2226797079127200 16.8653899148825666 Zr
    velocity 0.7830716231202807 0.2336221328018093 0.4749339681605403
atom 8.9563041832902766 0.2226797079127200 16.8653899148825666 Zr
    velocity 0.1968412529614985 0.3874879662407274 -0.3875536250299808
atom 14.1033041832902750 0.2226797079127200 16.8653899148825666 Zr
    velocity -0.1148725360592923 -0.1225675873332325 0.1244845101623883
atom 19.2503041832902788 0.2226797079127200 16.8653899148825666 Zr
    velocity -0.5929263815478217 -0.4174880242211313 -0.4836919007960233
atom 24.3973041832902773 0.2226797079127200 16.8653899148825666 Zr
    velocity -0.4016794086040799 0.0719870171810396 0.3117116420881416
atom 29.5443041832902793 0.2226797079127200 16.8653899148825666 Zr
    velocity 0.3257705954057806 -0.4640011329757672 -0.2861924955152291
atom 34.6913041832902778 0.2226797079127200 16.8653899148825666 Zr
    velocity -0.0035366835787804 -0.1144388761430234 0.0565798404160490
atom -1.3376958167097233 5.4426797079127196 16.8653899148825666 Zr
    velocity 0.1649944889237124 0.4074663431515494 0.6058991459034320
atom 3.8093041832902776 5.4426797079127196 16.8653899148825666 Zr
    velocity -0.2383873877109479 0.0451242221659496 0.0080613569041441
atom 8.9563041832902766 5.4426797079127196 16.8653899148825666 Zr
    velocity -0.1014143889496748 -0.2400197016780125 -0.0097228494447819
atom 14.1033041832902750 5.4426797079127196 16.8653899148825666 Zr
    velocity 0.4502231076463748 -0.1366987132514062 -0.3896732574248378
atom 19.2503041832902788 5.4426797079127196 16.8653899148825666 Zr
    velocity -0.2839062077674512 -0.1643994880567043 -0.2399942827651203
atom 24.3973041832902773 5.4426797079127196 16.8653899148825666 Zr
    velocity 0.4043561286662296 0.1669981312180894 -0.3810309294300580
atom 29.5443041832902793 5.4426797079127196 16.8653899148825666 Zr
    velocity 0.0850964811965023 -0.0030209617673247 -0.1479814936261090
atom 34.6913041832902778 5.4426797079127196 16.8653899148825666 Zr
    velocity 0.1923553615788094 0.1527521310041524 0.0575388919723138
atom -1.3376958167097233 10.6626797079127211 16.8653899148825666 Zr
    velocity 0.0951847998470451 -0.3499040045903296 0.0588428373927759
atom 3.8093041832902776 10.6626797079127211 16.8653899148825666 Zr
    velocity 0.1613657545422066 0.3525307684563741 0.3179610707281116
atom 8.9563041832902766 10.6626797079127211 16.8653899148825666 Zr
    velocity -0.0083713898768631 -0.1093682285807537 0.0153849627324871
atom 14.1033041832902750 10.6626797079127211 16.8653899148825666 Zr