#=======================================================
# FHI-aims file: 350_geometry.in.primitive.supercell_2592.0010K
# Created using the Atomic Simulation Environment (ASE)
# Fri Dec 30 21:07:13 2022

# Additional information:
#  created from MB distrubtion
#  T = 10.0 K
#  quantum:             False
#  deterministic:       False
#  plus_minus:          False
#  gauge_eigenvectors:  False
#  Random seed:         826648812
#  Sample number:       1
#=======================================================
lattice_vector 30.9000000000000021 0.0000000000000000 0.0000000000000000 
lattice_vector 0.0000000000000000 31.2539999999999978 0.0000000000000000 
lattice_vector -5.1425601496208078 0.0000000000000000 31.4726258057304804 
atom 1.2449604029221502 0.2222104594860840 1.1015281729266067 Zr
    velocity 0.0336778450402253 0.6477716396481630 -0.3163685410180503
atom 6.3949604029221483 0.2222104594860840 1.1015281729266067 Zr
    velocity 0.1961267938041008 0.1197719690204772 0.1827314627601895
atom 11.5449604029221486 0.2222104594860840 1.1015281729266067 Zr
    velocity 0.2221881990576717 -0.2850074245404580 0.1507215679459842
atom 16.6949604029221526 0.2222104594860840 1.1015281729266067 Zr
    velocity -0.3102568388529965 -0.0853620149658336 0.3007856001260387
atom 21.8449604029221476 0.2222104594860840 1.1015281729266067 Zr
    velocity -0.0575486029669818 -0.1143392982541398 -0.1096949619538536
atom 26.9949604029221497 0.2222104594860840 1.1015281729266067 Zr
    velocity -0.2725254424583029 -0.2227140638656661 -0.1179777024834629
atom 1.2449604029221502 5.4312104594860813 1.1015281729266067 Zr
    velocity -0.2040986872241575 0.2241767008207510 0.1555561976479637
atom 6.3949604029221483 5.4312104594860813 1.1015281729266067 Zr
    velocity 0.2940370475233435 0.4228598336492290 -0.1917098255719104
atom 11.5449604029221486 5.4312104594860813 1.1015281729266067 Zr
    velocity -0.0491704029796433 0.0280659114477910 0.1087370161458313
atom 16.6949604029221526 5.4312104594860813 1.1015281729266067 Zr
    velocity -0.2324684232722478 -0.3735827605108853 -0.4261598817331579
atom 21.8449604029221476 5.4312104594860813 1.1015281729266067 Zr
    velocity 0.0387705815779311 0.3004274713670558 0.1864352277230850
atom 26.9949604029221497 5.4312104594860813 1.1015281729266067 Zr
    velocity 0.2800863624716423 -0.1183481234683598 -0.0028441533178803
atom 1.2449604029221502 10.6402104594860809 1.1015281729266067 Zr
    velocity 0.3809560154881473 -0.3269448853148458 -0.2582751073167174
atom 6.3949604029221483 10.6402104594860809 1.1015281729266067 Zr
    velocity 0.3921819248792607 -0.3708871365772479 0.1377463726312226
atom 11.5449604029221486 10.6402104594860809 1.1015281729266067 Zr
    velocity 0.0221388319990294 -0.3542665159069143 -0.3276897886385538
atom 16.6949604029221526 10.6402104594860809 1.1015281729266067 Zr
    velocity -0.0909271743201257 -0.4093066700218234 0.2458059666871618
atom 21.8449604029221476 10.6402104594860809 1.1015281729266067 Zr
    velocity -0.0460396507080191 0.4607924519808688 0.5093534422061469
atom 26.9949604029221497 10.6402104594860809 1.1015281729266067 Zr
    velocity -0.5844644669506921 0.3078769078137016 -0.6291942209547325
atom 1.2449604029221502 15.8492104594860823 1.1015281729266067 Zr
    velocity 0.4593560458422722 -0.0818990813332805 -0.1154391369477483
atom 6.3949604029221483 15.8492104594860823 1.1015281729266067 Zr
    velocity 0.0772824964939887 0.0561072638431031 -0.0303499929740113
atom 11.5449604029221486 15.8492104594860823 1.1015281729266067 Zr
    velocity -0.5924344015073925 0.3542698016129402 -0.3165463668863135
atom 16.6949604029221526 15.8492104594860823 1.1015281729266067 Zr
    velocity 0.1233004028626360 0.0000097971521596 -0.1017986152386647
atom 21.8449604029221476 15.8492104594860823 1.1015281729266067 Zr
    velocity 0.1645811839775664 0.2036906732181570 -0.3131761099337147
atom 26.9949604029221497 15.8492104594860823 1.1015281729266067 Zr
    velocity 0.2264908672022621 0.3418042035353451 -0.1943962792484623
atom 1.2449604029221502 21.0582104594860837 1.1015281729266067 Zr
    velocity -0.0341866072166477 -0.2332052888755317 0.2690014527681052
atom 6.3949604029221483 21.0582104594860837 1.1015281729266067 Zr
    velocity 0.0434846458521951 -0.4890924780176557 0.0520855951570447
atom 11.5449604029221486 21.0582104594860837 1.1015281729266067 Zr
    velocity 0.2258392857750157 -0.0664013660971197 -0.4358916555087168
atom 16.6949604029221526 21.0582104594860837 1.1015281729266067 Zr
    velocity -0.1394071317769476 -0.3261404243764704 0.0602047386465887
atom 21.8449604029221476 21.0582104594860837 1.1015281729266067 Zr
    velocity -0.0068419355333579 -0.4462732069490691 0.1829433469022280
atom 26.9949604029221497 21.0582104594860837 1.1015281729266067 Zr
    velocity -0.2114861245151540 0.1738474153490237 -0.1827160291869180
atom 1.2449604029221502 26.2672104594860834 1.1015281729266067 Zr
    velocity 0.0292940401435850 0.4864685836910678 -0.1927652038326658
atom 6.3949604029221483 26.2672104594860834 1.1015281729266067 Zr
    velocity -0.2741180577654351 -0.3099779277493642 0.0290882373821757
atom 11.5449604029221486 26.2672104594860834 1.1015281729266067 Zr
    velocity 0.2392489966074844 0.2979346048326770 -0.1139094334051777
atom 16.6949604029221526 26.2672104594860834 1.1015281729266067 Zr
    velocity 0.2949026826853575 -0.5791746253324382 -0.2862287714012842
atom 21.8449604029221476 26.2672104594860834 1.1015281729266067 Zr
    velocity -0.1064992354719009 -0.0503732265443463 0.4460959126096675
atom 26.9949604029221497 26.2672104594860834 1.1015281729266067 Zr
    velocity -0.1110735929865395 -0.0514256490923726 0.0675114180837070
atom 0.3878670446520154 0.2222104594860840 6.3469658072150210 Zr
    velocity -0.0231394243195400 0.0449684406462236 -0.4039620170413331
atom 5.5378670446520131 0.2222104594860840 6.3469658072150210 Zr
    velocity -0.0821745822634085 0.1917214893544423 -0.0561180922021408
atom 10.6878670446520143 0.2222104594860840 6.3469658072150210 Zr
    velocity -0.5354620972535770 -0.1146203819373572 0.5286962951152969
atom 15.8378670446520164 0.2222104594860840 6.3469658072150210 Zr
    velocity -0.3290857238772092 -0.3135072653162107 -0.2991867908096882
atom 20.9878670446520132 0.2222104594860840 6.3469658072150210 Zr
    velocity 0.0620603736975158 0.5496170940553587 0.2959663783423227
atom 26.1378670446520154 0.2222104594860840 6.3469658072150210 Zr
    velocity -0.0326230518046204 -0.1231842105880452 0.3227996577745935
atom 0.3878670446520154 5.4312104594860813 6.3469658072150210 Zr
    velocity 0.1582348402995496 0.3232557806967713 0.6929890140707210
atom 5.5378670446520131 5.4312104594860813 6.3469658072150210 Zr
    velocity 0.1021122136496120 -0.0946254815973209 0.1003819254144660
atom 10.6878670446520143 5.4312104594860813 6.3469658072150210 Zr
    velocity 0.2885245755233017 0.0714164254383522 0.3392067550698510
atom 15.8378670446520164 5.4312104594860813 6.3469658072150210 Zr
    velocity -0.8000877493072180 0.4765117964544757 -0.1614631063206504
atom 20.9878670446520132 5.4312104594860813 6.3469658072150210 Zr
    velocity -0.3344742390627958 -0.0354440809071070 -0.1801489643458172
atom 26.1378670446520154 5.4312104594860813 6.3469658072150210 Zr
    velocity 0.1170486806167385 -0.3243440398728583 -0.1744136902286373
atom 0.3878670446520154 10.6402104594860809 6.3469658072150210 Zr
    velocity -0.2875539562262749 -0.0465685112954200 -0.2855876980914587
atom 5.5378670446520131 10.6402104594860809 6.3469658072150210 Zr
    velocity -0.2222521669068186 0.1263460978462340 0.0332018384647324
atom 10.6878670446520143 10.6402104594860809 6.3469658072150210 Zr
    velocity 0.6607507399174819 0.2180830369538480 -0.2108021000811791
atom 15.8378670446520164 10.6402104594860809 6.3469658072150210 Zr
    velocity 0.5021352546729406 0.1425758958408456 0.4198755586557851
atom 20.9878670446520132 10.6402104594860809 6.3469658072150210 Zr
    velocity 0.0182462890696892 0.3818463042411574 -0.3651234828872660
atom 26.1378670446520154 10.6402104594860809 6.3469658072150210 Zr
    velocity -0.0209433050512013 0.2621421445850338 0.2250221540781683
atom 0.3878670446520154 15.8492104594860823 6.3469658072150210 Zr
    velocity 0.4530915456726636 -0.1701256634368221 -0.3832927933009929
atom 5.5378670446520131 15.8492104594860823 6.3469658072150210 Zr
    velocity 0.0012408094969713 0.1699100732786966 -0.1361267610608541
atom 10.6878670446520143 15.8492104594860823 6.3469658072150210 Zr
    velocity 0.2056152697036299 -0.5588211936745676 0.1153429658216479
atom 15.8378670446520164 15.8492104594860823 6.3469658072150210 Zr
    velocity 0.3389911683834201 -0.2875641453987321 -0.1255706650004242
atom 20.9878670446520132 15.8492104594860823 6.3469658072150210 Zr
    velocity -0.5648509906947511 -0.0867295380549709 0.4981216717668643
atom 26.1378670446520154 15.8492104594860823 6.3469658072150210 Zr
    velocity -0.1668734884103319 -0.0668679531844079 0.0157681318828641
atom 0.3878670446520154 21.0582104594860837 6.3469658072150210 Zr
    velocity -0.1823637034953995 0.5928768947458387 0.2380599135373516
atom 5.5378670446520131 21.0582104594860837 6.3469658072150210 Zr
    velocity -0.0090680000285758 0.4286893103842931 -0.3087516988362896
atom 10.6878670446520143 21.0582104594860837 6.3469658072150210 Zr
    velocity -0.5282315848849616 -0.7232812854376902 -0.1614189024527151
atom 15.8378670446520164 21.0582104594860837 6.3469658072150210 Zr
    velocity -0.3692228397677995 0.6595807076722120 0.4643641747902046
atom 20.9878670446520132 21.0582104594860837 6.3469658072150210 Zr
    velocity 0.2581170489628767 0.0283567393069183 -0.2458495963452708
atom 26.1378670446520154 21.0582104594860837 6.3469658072150210 Zr
    velocity -0.2735412555251941 0.5270272492903437 -0.0224647224794037
atom 0.3878670446520154 26.2672104594860834 6.3469658072150210 Zr
    velocity 0.1419943949735180 -0.2633943817207038 0.0041687436197444
atom 5.5378670446520131 26.2672104594860834 6.3469658072150210 Zr
    velocity -0.1296057400378668 0.1180588817711331 -0.3090073050929848
atom 10.6878670446520143 26.2672104594860834 6.3469658072150210 Zr
    velocity -0.0806252498926536 0.0669949825255289 -0.2668762051908719
atom 15.8378670446520164 26.2672104594860834 6.3469658072150210 Zr
    velocity 0.1086130477139757 0.6246490834876144 -0.1743539143581808
atom 20.9878670446520132 26.2672104594860834 6.3469658072150210 Zr
    velocity 0.2316663142352816 0.2262172876914340 -0.0196969275016138
atom 26.1378670446520154 26.2672104594860834 6.3469658072150210 Zr
    velocity -0.2522464669475846 -0.1290371098756277 -0.0683679156358789
atom -0.4692263136181190 0.2222104594860840 11.5924034415034320 Zr
    velocity -0.1668956755495836 0.2148635326090877 -0.0760425572318457
atom 4.6807736863818796 0.2222104594860840 11.5924034415034320 Zr
    velocity -0.0276445706960870 -0.4145304217041584 0.2263568656525180
atom 9.8307736863818800 0.2222104594860840 11.5924034415034320 Zr
    velocity 0.3214857893458796 -0.0720072590363960 -0.0127879559637830
atom 14.9807736863818821 0.2222104594860840 11.5924034415034320 Zr
    velocity 0.2207009613405481 -0.5691327503783634 0.2495229588572701
atom 20.1307736863818789 0.2222104594860840 11.5924034415034320 Zr
    velocity 0.2326162820913616 0.2922929139808914 0.6620890580940624
atom 25.2807736863818810 0.2222104594860840 11.5924034415034320 Zr
    velocity -0.3445867470067968 0.0026693909636510 0.0537244591424154
atom -0.4692263136181190 5.4312104594860813 11.5924034415034320 Zr
    velocity 0.1808070963263209 -0.1851770780558846 0.0498750213392112
atom 4.6807736863818796 5.4312104594860813 11.5924034415034320 Zr
    velocity -0.5718101796899066 0.2816000180636350 -0.1838101303511773
atom 9.8307736863818800 5.4312104594860813 11.5924034415034320 Zr
    velocity 0.2195621854334467 0.3781836432117212 -0.1510206005045530
atom 14.9807736863818821 5.4312104594860813 11.5924034415034320 Zr
    velocity -0.1009899943772023 -0.3687879865567432 0.0220557793632262
atom 20.1307736863818789 5.4312104594860813 11.5924034415034320 Zr
    velocity 0.0192826876252112 -0.1317714116377845 0.3459631019828476
atom 25.2807736863818810 5.4312104594860813 11.5924034415034320 Zr
    velocity 0.0084180422665364 -0.2672671125300725 0.6121956168984153
atom -0.4692263136181190 10.6402104594860809 11.5924034415034320 Zr
    velocity 0.4710608844694480 -0.0289669202232165 0.2668175974945921
atom 4.6807736863818796 10.6402104594860809 11.5924034415034320 Zr
    velocity -0.2304349008330430 -0.2412988906476770 0.0569834440350775
atom 9.8307736863818800 10.6402104594860809 11.5924034415034320 Zr
    velocity 0.0738807338137566 0.0531345357977436 0.2667310126445427
atom 14.9807736863818821 10.6402104594860809 11.5924034415034320 Zr
    velocity 0.4427482851336965 -0.0873022043181748 0.0733082443401713
atom 20.1307736863818789 10.6402104594860809 11.5924034415034320 Zr
    velocity -0.3779188270834398 -0.0326653050887749 -0.4287406189713166
atom 25.2807736863818810 10.6402104594860809 11.5924034415034320 Zr
    velocity -0.1664511369472041 0.3289533321266691 0.0369595721097987
atom -0.4692263136181190 15.8492104594860823 11.5924034415034320 Zr
    velocity -0.1455165593734621 -0.0596180785615560 0.2979424655119249
atom 4.6807736863818796 15.8492104594860823 11.5924034415034320 Zr
    velocity 0.6486615921948583 0.4380718952529914 -0.4786485966832258
atom 9.8307736863818800 15.8492104594860823 11.5924034415034320 Zr
    velocity 0.0878896561139513 -0.6067337458735581 -0.2476642917551515
atom 14.9807736863818821 15.8492104594860823 11.5924034415034320 Zr
    velocity -0.2587771573180822 -0.4917703957758322 0.1285984617217342
atom 20.1307736863818789 15.8492104594860823 11.5924034415034320 Zr
    velocity 0.0895747530322834 0.3774646705079633 -0.2852447073070682
atom 25.2807736863818810 15.8492104594860823 11.5924034415034320 Zr
    velocity -0.0050037346357279 -0.4245466306893314 0.0332645740249242
atom -0.4692263136181190 21.0582104594860837 11.5924034415034320 Zr
    velocity 0.3660602461261048 0.1866305444444174 0.5490468079612097
atom 4.6807736863818796 21.0582104594860837 11.5924034415034320 Zr
    velocity 0.3980739890567005 -0.0563699081251853 -0.0938793194512578
atom 9.8307736863818800 21.0582104594860837 11.5924034415034320 Zr
    velocity 0.3496624649196941 0.3555570257472043 -0.1821265438709249
atom 14.9807736863818821 21.0582104594860837 11.5924034415034320 Zr
    velocity 0.1509123414840346 -0.2932452273843538 0.1599064653017632
atom 20.1307736863818789 21.0582104594860837 11.5924034415034320 Zr
    velocity -0.2180736493699705 0.0227629087286079 -0.0556696891870432
atom 25.2807736863818810 21.0582104594860837 11.5924034415034320 Zr
    velocity -0.0102506353117859 -0.0333503517956384 -0.2283556825294737
atom -0.4692263136181190 26.2672104594860834 11.5924034415034320 Zr
    velocity -0.1015838812279820 0.3104098756528668 0.0381165375476106
atom 4.6807736863818796 26.2672104594860834 11.5924034415034320 Zr
    velocity 0.4579496214320102 -0.1349341481257375 -0.4746685085525044
atom 9.8307736863818800 26.2672104594860834 11.5924034415034320 Zr
    velocity -0.1997401424971889 -0.6582005656401170 0.1783119903480313
atom 14.9807736863818821 26.2672104594860834 11.5924034415034320 Zr
    velocity -0.0989029494868484 0.1579047708159334 0.3780165772796823
atom 20.1307736863818789 26.2672104594860834 11.5924034415034320 Zr
    velocity -0.1690773720021346 0.3338982838530803 0.1508127279136676
atom 25.2807736863818810 26.2672104594860834 11.5924034415034320 Zr
    velocity -0.1715856012563427 0.1280311932362423 0.0081489747435746
atom -1.3263196718882537 0.2222104594860840 16.8378410757918466 Zr
    velocity -0.2719030724960485 -0.3262915715684551 0.0378049567061273
atom 3.8236803281117444 0.2222104594860840 16.8378410757918466 Zr
    velocity -0.2077768819677225 -0.2576573574449124 0.2799566479650269
atom 8.9736803281117457 0.2222104594860840 16.8378410757918466 Zr
    velocity -0.0712489894952723 0.5865723740496037 -0.0890161922666383
atom 14.1236803281117478 0.2222104594860840 16.8378410757918466 Zr
    velocity 0.0731820997066790 0.0063945273874940 0.2786239223547339
atom 19.2736803281117446 0.2222104594860840 16.8378410757918466 Zr
    velocity 0.0752376528984465 -0.4886789651718882 0.2118376443804514
atom 24.4236803281117503 0.2222104594860840 16.8378410757918466 Zr
    velocity -0.1078647689961882 0.0908519170442715 -0.1172182711611286
atom -1.3263196718882537 5.4312104594860813 16.8378410757918466 Zr
    velocity 0.0741313415441794 0.0640338963925882 -0.0666573214718181
atom 3.8236803281117444 5.4312104594860813 16.8378410757918466 Zr
    velocity 0.0287995103457106 -0.3219368413391435 -0.0118608770786277
atom 8.9736803281117457 5.4312104594860813 16.8378410757918466 Zr
    velocity 0.0992046266776494 -0.3465656709551410 0.6963856353004639
atom 14.1236803281117478 5.4312104594860813 16.8378410757918466 Zr
    velocity -0.0916867891364398 -0.4387067137277041 -0.7062252241568269
atom 19.2736803281117446 5.4312104594860813 16.8378410757918466 Zr
    velocity 0.0020000280923701 -0.0824310308427550 -0.0907138332423787
atom 24.4236803281117503 5.4312104594860813 16.8378410757918466 Zr
    velocity 0.3914043788800810 0.0203707557862505 0.1281534981956085
atom -1.3263196718882537 10.6402104594860809 16.8378410757918466 Zr
    velocity 0.1387717947852472 -0.4118355541475896 0.4883271914145543
atom 3.8236803281117444 10.6402104594860809 16.8378410757918466 Zr
    velocity -0.4628126442767519 -0.0479195089344946 0.2155962734969654
atom 8.9736803281117457 10.6402104594860809 16.8378410757918466 Zr
    velocity 0.0725161670740249 -0.5505278183178797 0.0147378734631600
atom 14.1236803281117478 10.6402104594860809 16.8378410757918466 Zr
    velocity -0.0056890619006905 0.0996275200917606 0.0042482594862467
atom 19.2736803281117446 10.6402104594860809 16.8378410757918466 Zr
    velocity -0.0993505934842003 -0.1054269382670722 -0.0458751138927925
atom 24.4236803281117503 10.6402104594860809 16.8378410757918466 Zr
    velocity -0.0961018993113692 0.5159272879588725 0.3883556450305404
atom -1.3263196718882537 15.8492104594860823 16.8378410757918466 Zr
    velocity 0.2272877282618422 0.5405893248072369 -0.1712850631150279
atom 3.8236803281117444 15.8492104594860823 16.8378410757918466 Zr
    velocity -0.6706978609944322 0.1472572731717780 0.1470666757315614
atom 8.9736803281117457 15.8492104594860823 16.8378410757918466 Zr
    velocity 0.5446210512418685 0.1874989544866092 -0.6808997431185314
atom 14.1236803281117478 15.8492104594860823 16.8378410757918466 Zr
    velocity 0.0557441867031556 -0.2272942604498264 0.3035942252285505
atom 19.2736803281117446 15.8492104594860823 16.8378410757918466 Zr
    velocity -0.0028033712724854 0.3236863217727206 0.0097992508884656
atom 24.4236803281117503 15.8492104594860823 16.8378410757918466 Zr
    velocity -0.0253866328001527 0.3293428865882130 -0.3149872553130826
atom -1.3263196718882537 21.0582104594860837 16.8378410757918466 Zr
    velocity -0.3216503881247747 -0.2423532390160313 -0.1299123986494487
atom 3.8236803281117444 21.0582104594860837 16.8378410757918466 Zr
    velocity 0.4260566873050957 -0.0035088954715043 -0.0171205825430419
atom 8.9736803281117457 21.0582104594860837 16.8378410757918466 Zr
    velocity 0.4153318500235363 0.3512804330945928 0.0119849756830274
atom 14.1236803281117478 21.0582104594860837 16.8378410757918466 Zr
    velocity -0.0445725964960239 0.0634978568104057 0.2159832944816276
atom 19.2736803281117446 21.0582104594860837 16.8378410757918466 Zr
    velocity 0.3695676269634224 -0.1517805037625645 -0.3557956356340133
atom 24.4236803281117503 21.0582104594860837 16.8378410757918466 Zr
    velocity -0.0247682390775420 0.5634317858016525 -0.0570152004322868
atom -1.3263196718882537 26.2672104594860834 16.8378410757918466 Zr
    velocity 0.3134320400680847 0.2902389656215688 0.1266113035356433
atom 3.8236803281117444 26.2672104594860834 16.8378410757918466 Zr
    velocity 0.3168867458227234 -0.0670424485541558 -0.6309245753538694
atom 8.9736803281117457 26.2672104594860834 16.8378410757918466 Zr
    velocity -0.0516953219669436 0.0315013820669941 0.1762736653729487
atom 14.1236803281117478 26.2672104594860834 16.8378410757918466 Zr
    velocity 0.3557415897636936 -0.1042648239517259 -0.3462568527361556
atom 19.2736803281117446 26.2672104594860834 16.8378410757918466 Zr
    velocity -0.4209447890993234 -0.3772412700437299 -0.0693877130489945
atom 24.4236803281117503 26.2672104594860834 16.8378410757918466 Zr
    velocity -0.1101497625866360 -0.0033408142317293 -0.4363843953846418
atom -2.1834130301583876 0.2222104594860840 22.0832787100802541 Zr
    velocity 0.0182838485042548 -0.2269105438365907 0.1919247705666676
atom 2.9665869698416105 0.2222104594860840 22.0832787100802541 Zr
    velocity 0.4280227301604145 0.1128561781782071 -0.4925285782365152
atom 8.1165869698416113 0.2222104594860840 22.0832787100802541 Zr
    velocity -0.1982094737949796 0.4051764654477244 0.1451374296600531
atom 13.2665869698416135 0.2222104594860840 22.0832787100802541 Zr
    velocity 0.1191036938830953 -0.7738517395155738 -0.2288533728642598
atom 18.4165869698416103 0.2222104594860840 22.0832787100802541 Zr
    velocity -0.2085876783520042 -0.2852405854516409 0.6423469413908279
atom 23.5665869698416124 0.2222104594860840 22.0832787100802541 Zr
    velocity 0.3221600611200158 0.0934587399441162 0.1489993898824075
atom -2.1834130301583876 5.4312104594860813 22.0832787100802541 Zr
    velocity -0.3102798986066649 -0.7927187381443910 -0.1349593144829649
atom 2.9665869698416105 5.4312104594860813 22.0832787100802541 Zr
    velocity -0.2798292251110159 -0.4021049064032554 -0.4593984037049211
atom 8.1165869698416113 5.4312104594860813 22.0832787100802541 Zr
    velocity -0.0455366166621987 -0.3744234396271018 0.4423919556137267
atom 13.2665869698416135 5.4312104594860813 22.0832787100802541 Zr
    velocity 0.1616171635955185 0.3250116333069497 -0.1211054923402511
atom 18.4165869698416103 5.4312104594860813 22.0832787100802541 Zr
    velocity 0.1173294101826142 0.3376399208601559 0.1057374388546446
atom 23.5665869698416124 5.4312104594860813 22.0832787100802541 Zr
    velocity -0.0652531695141793 -0.0279706422992220 -0.7941705253193826
atom -2.1834130301583876 10.6402104594860809 22.0832787100802541 Zr
    velocity 0.0538357424728678 0.0283294886106349 -0.4801773470877742
atom 2.9665869698416105 10.6402104594860809 22.0832787100802541 Zr
    velocity -0.2074890148594927 0.7060813739148520 0.1517126501074741
atom 8.1165869698416113 10.6402104594860809 22.0832787100802541 Zr
    velocity 0.0149599513304470 -0.2130467431606654 -0.0359725539354027
atom 13.2665869698416135 10.6402104594860809 22.0832787100802541 Zr
    velocity -0.2197819034458059 -0.4993319383240010 0.4083389270708619
atom 18.4165869698416103 10.6402104594860809 22.0832787100802541 Zr
    velocity 0.2071439418453019 0.1326253179445762 -0.0055441722088817
atom 23.5665869698416124 10.6402104594860809 22.0832787100802541 Zr
    velocity 0.3485905310544358 0.3816490405455857 0.5002638180708494
atom -2.1834130301583876 15.8492104594860823 22.0832787100802541 Zr
    velocity 0.4696991948002329 -0.3491116480845691 0.2114192228940428
atom 2.9665869698416105 15.8492104594860823 22.0832787100802541 Zr
    velocity 0.1128461076901868 -0.1881336404095001 0.0885895769261325
atom 8.1165869698416113 15.8492104594860823 22.0832787100802541 Zr
    velocity -0.1040687648469696 -0.1557663513317770 0.0421476764836373
atom 13.2665869698416135 15.8492104594860823 22.0832787100802541 Zr
    velocity 0.2226956067984158 -0.4982542301167437 -0.3876104000931351
atom 18.4165869698416103 15.8492104594860823 22.0832787100802541 Zr
    velocity -0.1580701262495911 -0.5782356968471595 0.0991598941324871
atom 23.5665869698416124 15.8492104594860823 22.0832787100802541 Zr
    velocity 0.1136245668303359 -0.1536008693398526 0.5025149167189155
atom -2.1834130301583876 21.0582104594860837 22.0832787100802541 Zr
    velocity 0.3199762252674654 -0.0264655364206509 0.1600649971388453
atom 2.9665869698416105 21.0582104594860837 22.0832787100802541 Zr
    velocity -0.1968281856297946 -0.1129386402604817 0.2189668670652316
atom 8.1165869698416113 21.0582104594860837 22.0832787100802541 Zr
    velocity -0.0898989351214006 0.1063796823783885 0.3934372207548152
atom 13.2665869698416135 21.0582104594860837 22.0832787100802541 Zr
    velocity -0.3629726789732407 -0.1452698311983865 0.0117984507780809
atom 18.4165869698416103 21.0582104594860837 22.0832787100802541 Zr
    velocity 0.3930185771967951 -0.1243929493552470 0.3819269658771512
atom 23.5665869698416124 21.0582104594860837 22.0832787100802541 Zr
    velocity 0.7172916209820068 0.0155684927262503 -0.3248087727398224
atom -2.1834130301583876 26.2672104594860834 22.0832787100802541 Zr
    velocity 0.0695058563661698 -0.0172272178014314 0.2178452511973732
atom 2.9665869698416105 26.2672104594860834 22.0832787100802541 Zr
    velocity -0.3220381437961611 -0.3561647049346061 0.2952550829962127
atom 8.1165869698416113 26.2672104594860834 22.0832787100802541 Zr
    velocity -0.2175543233369583 0.4275522984945093 -0.1105285435253723
atom 13.2665869698416135 26.2672104594860834 22.0832787100802541 Zr
    velocity -0.3310488239627152 -0.4073196428112977 -0.1435623562953580
atom 18.4165869698416103 26.2672104594860834 22.0832787100802541 Zr
    velocity -0.0276048032380366 0.2561610803726998 0.4253577593509966
atom 23.5665869698416124 26.2672104594860834 22.0832787100802541 Zr
    velocity 0.0034780562667241 0.1674635418340459 -0.0583974568135699
atom -3.0405063884285233 0.2222104594860840 27.3287163443686758 Zr
    velocity 0.1733928143224900 0.3982252076965178 -0.2914159697520312
atom 2.1094936115714749 0.2222104594860840 27.3287163443686758 Zr
    velocity -0.1965224858705367 -0.1370229551751530 -0.2681463713250797
atom 7.2594936115714761 0.2222104594860840 27.3287163443686758 Zr
    velocity -0.3662703165867642 0.1522422621097902 -0.5500074877131923
atom 12.4094936115714791 0.2222104594860840 27.3287163443686758 Zr
    velocity -0.0164309428434020 -0.1619903898568434 -0.3270616489436561
atom 17.5594936115714724 0.2222104594860840 27.3287163443686758 Zr
    velocity 0.5051367056991510 -0.0889071858305604 -0.0552567746264907
atom 22.7094936115714745 0.2222104594860840 27.3287163443686758 Zr
    velocity -0.1145190319028384 0.0361957358334612 -0.2923845327725357
atom -3.0405063884285233 5.4312104594860813 27.3287163443686758 Zr
    velocity 0.1311860473197552 -0.0165804645193651 -0.1654559932242387
atom 2.1094936115714749 5.4312104594860813 27.3287163443686758 Zr
    velocity -0.2496659976937904 0.2221365855051696 -0.3654628388168029
atom 7.2594936115714761 5.4312104594860813 27.3287163443686758 Zr
    velocity -0.1020362474364156 0.0623560807711901 0.3468041560568855
atom 12.4094936115714791 5.4312104594860813 27.3287163443686758 Zr
    velocity 0.1526513636591213 -0.0220327946336263 -0.2575766789600662
atom 17.5594936115714724 5.4312104594860813 27.3287163443686758 Zr
    velocity -0.4619009278742115 0.2153873097362156 -0.1838212659705163
atom 22.7094936115714745 5.4312104594860813 27.3287163443686758 Zr
    velocity 0.6162607709850172 -0.0947550908290694 0.2173446804535425
atom -3.0405063884285233 10.6402104594860809 27.3287163443686758 Zr
    velocity 0.2449936234531282 -0.0498680290306592 -0.3499645377679432
atom 2.1094936115714749 10.6402104594860809 27.3287163443686758 Zr
    velocity 0.1572150226837866 -0.0401253552697017 0.0757786157681456
atom 7.2594936115714761 10.6402104594860809 27.3287163443686758 Zr
    velocity -0.0415099502530936 0.3212951288097280 0.1519731517162555
atom 12.4094936115714791 10.6402104594860809 27.3287163443686758 Zr
    velocity -0.6565108749678250 -0.5147714626842446 -0.3356230071721815
atom 17.5594936115714724 10.6402104594860809 27.3287163443686758 Zr
    velocity 0.2074444950000323 0.1938267117665277 -0.1843442429822056
atom 22.7094936115714745 10.6402104594860809 27.3287163443686758 Zr
    velocity 0.5032577562866890 0.1121603320599975 0.0189126708378590
atom -3.0405063884285233 15.8492104594860823 27.3287163443686758 Zr
    velocity -0.1911146660851513 0.0669853737109515 -0.5483219393772477
atom 2.1094936115714749 15.8492104594860823 27.3287163443686758 Zr
    velocity 0.0155860695327209 0.3481146109932998 -0.1871322984089888
atom 7.2594936115714761 15.8492104594860823 27.3287163443686758 Zr
    velocity 0.2303086781297918 0.0064136878459165 0.5259398533157300
atom 12.4094936115714791 15.8492104594860823 27.3287163443686758 Zr
    velocity 0.0010651581008736 -0.0641647745299538 -0.1857831171618523
atom 17.5594936115714724 15.8492104594860823 27.3287163443686758 Zr
    velocity -0.3483585185582542 -0.1695642351881979 -0.0543041682735161
atom 22.7094936115714745 15.8492104594860823 27.3287163443686758 Zr
    velocity 0.2162661810535813 0.1702848303907533 -0.4575631032355990
atom -3.0405063884285233 21.0582104594860837 27.3287163443686758 Zr
    velocity -0.5821335516686202 -0.5085244822169703 -0.3273443218553566
atom 2.1094936115714749 21.0582104594860837 27.3287163443686758 Zr
    velocity 0.2223517953544227 0.0734549608506032 0.1498345817008108
atom 7.2594936115714761 21.0582104594860837 27.3287163443686758 Zr
    velocity -0.4466760129710396 -0.1234168486177086 -0.6005777629867627
atom 12.4094936115714791 21.0582104594860837 27.3287163443686758 Zr
    velocity 0.0615173218767461 0.2333998516989669 0.0560428182777574
atom 17.5594936115714724 21.0582104594860837 27.3287163443686758 Zr
    velocity 0.2179641306321602 0.4283450389703065 0.1853929198964303
atom 22.7094936115714745 21.0582104594860837 27.3287163443686758 Zr
    velocity 0.3045827032292876 0.0205124045093256 -0.7170463066904563
atom -3.0405063884285233 26.2672104594860834 27.3287163443686758 Zr
    velocity 0.1409167484800773 -0.0126118546595098 -0.0333056923453858