#=======================================================
# FHI-aims file: 350_geometry.in.primitive.supercell_1500.0010K
# Created using the Atomic Simulation Environment (ASE)
# Fri Dec 30 21:07:03 2022

# Additional information:
#  created from MB distrubtion
#  T = 10.0 K
#  quantum:             False
#  deterministic:       False
#  plus_minus:          False
#  gauge_eigenvectors:  False
#  Random seed:         1336092581
#  Sample number:       1
#=======================================================
lattice_vector 25.7500000000000000 0.0000000000000000 0.0000000000000000 
lattice_vector 0.0000000000000000 26.0449999999999982 0.0000000000000000 
lattice_vector -4.2854667913506725 0.0000000000000000 26.2271881714420694 
atom 1.2449604029221482 0.2222104594860840 1.1015281729266055 Zr
    velocity -0.3807182039305193 0.4612567885773290 0.6957468085026703
atom 6.3949604029221483 0.2222104594860840 1.1015281729266055 Zr
    velocity 0.5808390720980725 -0.0387167122471697 -0.0653684707288217
atom 11.5449604029221486 0.2222104594860840 1.1015281729266055 Zr
    velocity -0.0259799000522471 -0.4523743359323750 -0.2716644019243442
atom 16.6949604029221490 0.2222104594860840 1.1015281729266055 Zr
    velocity -0.4583002206373824 -0.1076792438478618 -0.3497800298827806
atom 21.8449604029221440 0.2222104594860840 1.1015281729266055 Zr
    velocity 0.5802489860299864 0.3052690072278064 -0.4348377573815422
atom 1.2449604029221482 5.4312104594860831 1.1015281729266055 Zr
    velocity 0.2316405774886597 -0.2711877948760470 -0.1220780826932329
atom 6.3949604029221483 5.4312104594860831 1.1015281729266055 Zr
    velocity -0.2999756511044779 0.0299134508170517 -0.2203209405826813
atom 11.5449604029221486 5.4312104594860831 1.1015281729266055 Zr
    velocity -0.4887931682837780 -0.3505526958607142 -0.1615280780502462
atom 16.6949604029221490 5.4312104594860831 1.1015281729266055 Zr
    velocity -0.2446825999925148 0.5144497028731709 0.1778004728337102
atom 21.8449604029221440 5.4312104594860831 1.1015281729266055 Zr
    velocity 0.0571754968165377 0.2120654249925333 0.1031967448978713
atom 1.2449604029221482 10.6402104594860862 1.1015281729266055 Zr
    velocity 0.3979267685489996 0.4222289843614004 -0.2542014242872525
atom 6.3949604029221483 10.6402104594860862 1.1015281729266055 Zr
    velocity -0.1821131159931604 -0.2910990733515922 0.4191300403490186
atom 11.5449604029221486 10.6402104594860862 1.1015281729266055 Zr
    velocity -0.1075414314424524 0.2222675398386185 0.1937448590273659
atom 16.6949604029221490 10.6402104594860862 1.1015281729266055 Zr
    velocity 0.2287608147579812 -0.1209276756299302 -0.9168698797531645
atom 21.8449604029221440 10.6402104594860862 1.1015281729266055 Zr
    velocity 0.2361459130987995 -0.0530086435412190 -0.2491732663245112
atom 1.2449604029221482 15.8492104594860841 1.1015281729266055 Zr
    velocity 0.5005164443375557 -0.1470578574088192 0.2350357804969770
atom 6.3949604029221483 15.8492104594860841 1.1015281729266055 Zr
    velocity 0.3094646402698271 -0.5784701266991703 0.5681440793315652
atom 11.5449604029221486 15.8492104594860841 1.1015281729266055 Zr
    velocity 0.1502373451913561 0.3003086536009584 0.1986594005092078
atom 16.6949604029221490 15.8492104594860841 1.1015281729266055 Zr
    velocity -0.5047433279164913 0.1282720802615049 0.3319425971360250
atom 21.8449604029221440 15.8492104594860841 1.1015281729266055 Zr
    velocity 0.0909101610148087 0.0293483209371972 -0.4203899502907069
atom 1.2449604029221482 21.0582104594860837 1.1015281729266055 Zr
    velocity 0.2230624669356797 0.0401748597621819 -0.3491246561974949
atom 6.3949604029221483 21.0582104594860837 1.1015281729266055 Zr
    velocity 0.0828019574454727 -0.3499676868572347 -0.4191016385101295
atom 11.5449604029221486 21.0582104594860837 1.1015281729266055 Zr
    velocity -0.3637575238809246 -0.1363569704518809 -0.5673616467644590
atom 16.6949604029221490 21.0582104594860837 1.1015281729266055 Zr
    velocity -0.1667787213857717 0.0944672004693900 0.0256766369753851
atom 21.8449604029221440 21.0582104594860837 1.1015281729266055 Zr
    velocity -0.5461728637317080 0.0696531921837091 -0.2997726569776060
atom 0.3878670446520132 0.2222104594860840 6.3469658072150219 Zr
    velocity -0.1865067938329049 0.1325312190522789 -0.2774293038876685
atom 5.5378670446520140 0.2222104594860840 6.3469658072150219 Zr
    velocity -0.5607833483174026 0.3912841016680598 -0.1774462140142054
atom 10.6878670446520125 0.2222104594860840 6.3469658072150219 Zr
    velocity -0.2563270904677141 -0.1920345029251187 0.2919356915477062
atom 15.8378670446520129 0.2222104594860840 6.3469658072150219 Zr
    velocity 0.8646326634877394 0.3976315395868884 -0.1168905600486320
atom 20.9878670446520097 0.2222104594860840 6.3469658072150219 Zr
    velocity -0.0021638128809807 0.9865652455695431 0.2709091557857520
atom 0.3878670446520132 5.4312104594860831 6.3469658072150219 Zr
    velocity -0.0422803555669213 -0.1641133265713231 -0.1274844375655748
atom 5.5378670446520140 5.4312104594860831 6.3469658072150219 Zr
    velocity -0.0095517874724408 -0.4100296569776081 -0.0099450992506362
atom 10.6878670446520125 5.4312104594860831 6.3469658072150219 Zr
    velocity -0.0023639733372121 -0.4685705060764932 -0.9106108141793485
atom 15.8378670446520129 5.4312104594860831 6.3469658072150219 Zr
    velocity 0.5751598414574933 -0.0010577642207268 0.2128616155761561
atom 20.9878670446520097 5.4312104594860831 6.3469658072150219 Zr
    velocity 0.0024523517790858 -0.1818544090526161 -0.0597009394191913
atom 0.3878670446520132 10.6402104594860862 6.3469658072150219 Zr
    velocity -0.0963321438201548 0.4120075282805616 0.0527719502850585
atom 5.5378670446520140 10.6402104594860862 6.3469658072150219 Zr
    velocity 0.0435171965200763 -0.1848501816702063 -0.4779537745569967
atom 10.6878670446520125 10.6402104594860862 6.3469658072150219 Zr
    velocity -0.2493640230392238 0.2430280753876485 -0.3697346576228634
atom 15.8378670446520129 10.6402104594860862 6.3469658072150219 Zr
    velocity 0.1113169336675089 0.3383081381576202 0.1236968656894653
atom 20.9878670446520097 10.6402104594860862 6.3469658072150219 Zr
    velocity -0.2517410225623168 0.6443579145626673 -0.1970111224633944
atom 0.3878670446520132 15.8492104594860841 6.3469658072150219 Zr
    velocity 0.2545763908944976 -0.5315757518295847 -0.0323159640091398
atom 5.5378670446520140 15.8492104594860841 6.3469658072150219 Zr
    velocity -0.2883705831411137 -0.6674907965847295 -0.3787499473508938
atom 10.6878670446520125 15.8492104594860841 6.3469658072150219 Zr
    velocity 0.0429822946904444 0.1955663532931470 0.5385843381003144
atom 15.8378670446520129 15.8492104594860841 6.3469658072150219 Zr
    velocity 0.2123385728651636 0.2040180497002257 0.0233280134842454
atom 20.9878670446520097 15.8492104594860841 6.3469658072150219 Zr
    velocity 0.3592347072600503 0.2252836031176865 0.0431980589401725
atom 0.3878670446520132 21.0582104594860837 6.3469658072150219 Zr
    velocity -0.0651048572979748 0.2284747528083887 -0.2097916328305179
atom 5.5378670446520140 21.0582104594860837 6.3469658072150219 Zr
    velocity -0.0787745650572159 -0.2580764409488781 0.3683714916414730
atom 10.6878670446520125 21.0582104594860837 6.3469658072150219 Zr
    velocity 0.0714053082441292 -0.5902263077845228 -0.4706163925533592
atom 15.8378670446520129 21.0582104594860837 6.3469658072150219 Zr
    velocity -0.5528465571272156 -0.0539828081041091 0.0708948801737776
atom 20.9878670446520097 21.0582104594860837 6.3469658072150219 Zr
    velocity -0.0804120725413154 -0.0275235774634395 0.2911998338147381
atom -0.4692263136181214 0.2222104594860840 11.5924034415034356 Zr
    velocity -0.2484565850279371 -0.0461359214368219 -0.2662966912986558
atom 4.6807736863818787 0.2222104594860840 11.5924034415034356 Zr
    velocity -0.1835624412323341 -0.2060486386714435 0.0415786859277791
atom 9.8307736863818782 0.2222104594860840 11.5924034415034356 Zr
    velocity 0.3359080091653811 0.0831676839436939 -0.4641709690595057
atom 14.9807736863818786 0.2222104594860840 11.5924034415034356 Zr
    velocity 0.5824134217112794 0.5269533179353449 -0.3845988504309555
atom 20.1307736863818754 0.2222104594860840 11.5924034415034356 Zr
    velocity -0.1384800714456433 -0.3364144330166869 -0.6136859067699911
atom -0.4692263136181214 5.4312104594860831 11.5924034415034356 Zr
    velocity -0.0926912311196247 -0.0756736591144775 0.1148427363450915
atom 4.6807736863818787 5.4312104594860831 11.5924034415034356 Zr
    velocity -0.0715206988567766 -0.3077321618234847 0.0316821025005486
atom 9.8307736863818782 5.4312104594860831 11.5924034415034356 Zr
    velocity 0.1481157319810167 0.0913187237673566 0.2894187521339138
atom 14.9807736863818786 5.4312104594860831 11.5924034415034356 Zr
    velocity -0.3081544285421913 -0.2046730801468427 0.3441282193708152
atom 20.1307736863818754 5.4312104594860831 11.5924034415034356 Zr
    velocity 0.0617866155083402 -0.1000927461423263 -0.0077166732947992
atom -0.4692263136181214 10.6402104594860862 11.5924034415034356 Zr
    velocity 0.5193837176522267 -0.3280944253941705 -0.0665944795223480
atom 4.6807736863818787 10.6402104594860862 11.5924034415034356 Zr
    velocity -0.1169659114042450 0.4355649246995640 -0.3931058984981620
atom 9.8307736863818782 10.6402104594860862 11.5924034415034356 Zr
    velocity 0.0859777677737830 -0.3426820609410698 -0.1040485517871143
atom 14.9807736863818786 10.6402104594860862 11.5924034415034356 Zr
    velocity 0.3502045818718992 0.2299358106727080 0.0936364597454687
atom 20.1307736863818754 10.6402104594860862 11.5924034415034356 Zr
    velocity -0.0824785353373120 0.2525224009751051 -0.2838148533765277
atom -0.4692263136181214 15.8492104594860841 11.5924034415034356 Zr
    velocity 0.3220114680776502 0.3458664183363523 -0.1082364647523592
atom 4.6807736863818787 15.8492104594860841 11.5924034415034356 Zr
    velocity -0.2933787702207073 0.4172215351064381 0.0298909935725142
atom 9.8307736863818782 15.8492104594860841 11.5924034415034356 Zr
    velocity 0.2356860766989312 -0.0114719821019925 0.3854833213648781
atom 14.9807736863818786 15.8492104594860841 11.5924034415034356 Zr
    velocity 0.5797695040909135 -0.1343453822297712 -0.5483684281185477
atom 20.1307736863818754 15.8492104594860841 11.5924034415034356 Zr
    velocity 0.1317924681389492 0.1674151553607967 0.1275513764201051
atom -0.4692263136181214 21.0582104594860837 11.5924034415034356 Zr
    velocity 0.0442784008775740 0.0704892529770213 -0.0695954226535569
atom 4.6807736863818787 21.0582104594860837 11.5924034415034356 Zr
    velocity 0.3097443211111969 0.0517452070501495 0.2383035645557970
atom 9.8307736863818782 21.0582104594860837 11.5924034415034356 Zr
    velocity -0.1723363395927152 0.0686677482553169 0.1361703681806180
atom 14.9807736863818786 21.0582104594860837 11.5924034415034356 Zr
    velocity 0.3741677982319532 0.1850285806485107 -0.5765774087408218
atom 20.1307736863818754 21.0582104594860837 11.5924034415034356 Zr
    velocity 0.6412977836638095 0.1478019224125594 -0.0533210183680235
atom -1.3263196718882562 0.2222104594860840 16.8378410757918502 Zr
    velocity 0.6152715111124432 0.0726544306783664 0.2303211703181243
atom 3.8236803281117444 0.2222104594860840 16.8378410757918502 Zr
    velocity -0.3938955385088250 -0.0246189357777852 0.0942414851593695
atom 8.9736803281117439 0.2222104594860840 16.8378410757918502 Zr
    velocity 0.1420090705809827 -0.1149232713228039 0.0294191260586726
atom 14.1236803281117442 0.2222104594860840 16.8378410757918502 Zr
    velocity -0.4056226472298504 0.2527378132726054 -0.2461165611645178
atom 19.2736803281117375 0.2222104594860840 16.8378410757918502 Zr
    velocity -0.0818326997454361 0.1081100574600185 -0.0961759931102118
atom -1.3263196718882562 5.4312104594860831 16.8378410757918502 Zr
    velocity -0.3539963654553079 0.2331960234239672 -0.0440266303177945
atom 3.8236803281117444 5.4312104594860831 16.8378410757918502 Zr
    velocity -0.7299505562075842 -0.0732857021167577 -0.3417843161069360
atom 8.9736803281117439 5.4312104594860831 16.8378410757918502 Zr
    velocity -0.1917108883037435 -0.0751004427999014 0.0700396561021353
atom 14.1236803281117442 5.4312104594860831 16.8378410757918502 Zr
    velocity 0.2327993080825760 0.3593641972287945 -0.3576853060638777
atom 19.2736803281117375 5.4312104594860831 16.8378410757918502 Zr
    velocity -0.1342371177376561 0.1567900048968389 -0.2074746107077649
atom -1.3263196718882562 10.6402104594860862 16.8378410757918502 Zr
    velocity -0.2579225450736518 0.0877418004466860 -0.1851102164282695
atom 3.8236803281117444 10.6402104594860862 16.8378410757918502 Zr
    velocity 0.4032382214557647 -0.1634396470677482 -0.0748743866940643
atom 8.9736803281117439 10.6402104594860862 16.8378410757918502 Zr
    velocity 0.3418306618900028 0.0368687059662468 -0.1692896623209984
atom 14.1236803281117442 10.6402104594860862 16.8378410757918502 Zr
    velocity -0.2353499649219884 0.0160040474844796 -0.1961106578531991
atom 19.2736803281117375 10.6402104594860862 16.8378410757918502 Zr
    velocity -0.0100097888396682 0.2228423898317632 -0.6217970098160980
atom -1.3263196718882562 15.8492104594860841 16.8378410757918502 Zr
    velocity 0.0236080350763277 0.1787111873497223 0.0981749731771697
atom 3.8236803281117444 15.8492104594860841 16.8378410757918502 Zr
    velocity 0.2915365401683100 0.5837304554064983 0.1448950609932175
atom 8.9736803281117439 15.8492104594860841 16.8378410757918502 Zr
    velocity -0.5376083175767998 0.3456947073936415 0.2264620530842195
atom 14.1236803281117442 15.8492104594860841 16.8378410757918502 Zr
    velocity 0.1349011844431246 -0.4556905851320056 0.3090780722077731
atom 19.2736803281117375 15.8492104594860841 16.8378410757918502 Zr
    velocity -0.0296697082125288 -0.1178348624340384 -0.1665985782122989
atom -1.3263196718882562 21.0582104594860837 16.8378410757918502 Zr
    velocity 0.4924828664288180 0.1697385456864731 0.1274268260360208
atom 3.8236803281117444 21.0582104594860837 16.8378410757918502 Zr
    velocity -0.4903811382090320 -0.1001707910633839 0.0735614246066338
atom 8.9736803281117439 21.0582104594860837 16.8378410757918502 Zr
    velocity 0.1608233255538271 0.5905828656776264 -0.1400950366968998
atom 14.1236803281117442 21.0582104594860837 16.8378410757918502 Zr
    velocity -0.3313760086670904 -0.3074205727023099 0.3081704075020603
atom 19.2736803281117375 21.0582104594860837 16.8378410757918502 Zr
    velocity -0.1258766064597976 -0.5921623942754762 -0.1814191897071974
atom -2.1834130301583898 0.2222104594860840 22.0832787100802612 Zr
    velocity -0.1555857050041648 0.0571094018536130 0.3018003733190617
atom 2.9665869698416105 0.2222104594860840 22.0832787100802612 Zr
    velocity -0.3705984694016068 -0.0076373837444703 0.0892041166035897
atom 8.1165869698416095 0.2222104594860840 22.0832787100802612 Zr
    velocity 0.2076665162781905 -0.2095626358536587 0.1061289464651212
atom 13.2665869698416099 0.2222104594860840 22.0832787100802612 Zr
    velocity 0.1690166504644590 -0.0705414808707177 -0.0918064284882367
atom 18.4165869698416067 0.2222104594860840 22.0832787100802612 Zr
    velocity 0.0903915985047844 0.0719891341499660 -0.4861425989675927
atom -2.1834130301583898 5.4312104594860831 22.0832787100802612 Zr
    velocity 0.1792933139620232 -0.0055534145087369 0.6979611981137956
atom 2.9665869698416105 5.4312104594860831 22.0832787100802612 Zr
    velocity -0.6378931678111620 0.1724547432769169 -0.0304969512677425
atom 8.1165869698416095 5.4312104594860831 22.0832787100802612 Zr
    velocity 0.2018606210098697 -0.5217844632623274 -0.0034515658183494
atom 13.2665869698416099 5.4312104594860831 22.0832787100802612 Zr
    velocity 0.0037238535539889 -0.3801246130393822 0.4250450080961302
atom 18.4165869698416067 5.4312104594860831 22.0832787100802612 Zr
    velocity -0.0172009700014605 -0.1675098479795560 0.3248942368242057
atom -2.1834130301583898 10.6402104594860862 22.0832787100802612 Zr
    velocity 0.0965568651919055 -0.0974372166059825 -0.0580041884012431
atom 2.9665869698416105 10.6402104594860862 22.0832787100802612 Zr
    velocity 0.3780131415009984 -0.1953173996543134 0.3297099997512898
atom 8.1165869698416095 10.6402104594860862 22.0832787100802612 Zr
    velocity 0.2155490941819908 -0.0258611713039641 -0.0361522978830646
atom 13.2665869698416099 10.6402104594860862 22.0832787100802612 Zr
    velocity -0.1395262684031306 -0.4099912905930051 -0.1891632154184865
atom 18.4165869698416067 10.6402104594860862 22.0832787100802612 Zr
    velocity -0.2335278933809366 -0.0182465457949422 -0.5507795016823164
atom -2.1834130301583898 15.8492104594860841 22.0832787100802612 Zr
    velocity 0.1878843146017946 0.5016255046641482 0.2010570988082759
atom 2.9665869698416105 15.8492104594860841 22.0832787100802612 Zr
    velocity -0.3436186060269127 -0.3633939302884799 0.1107622073505264
atom 8.1165869698416095 15.8492104594860841 22.0832787100802612 Zr
    velocity -0.0972006588319507 -0.3756352048695382 -0.1202774898843575
atom 13.2665869698416099 15.8492104594860841 22.0832787100802612 Zr
    velocity 0.1995390121864724 0.0973738143932771 -0.3353175470089899
atom 18.4165869698416067 15.8492104594860841 22.0832787100802612 Zr
    velocity -0.1028536585339616 -0.0699700444053201 -0.3543356133196999
atom -2.1834130301583898 21.0582104594860837 22.0832787100802612 Zr
    velocity -0.1558722345872196 0.0886061782525308 -0.3058247144865163
atom 2.9665869698416105 21.0582104594860837 22.0832787100802612 Zr
    velocity -0.1278879641286615 -0.2796966314839263 0.0859420213786922
atom 8.1165869698416095 21.0582104594860837 22.0832787100802612 Zr
    velocity 0.0320688673581180 -0.4344424387547609 0.3495681638586222
atom 13.2665869698416099 21.0582104594860837 22.0832787100802612 Zr
    velocity 0.2701422759355499 0.3756950056237085 -0.3174181389907335
atom 18.4165869698416067 21.0582104594860837 22.0832787100802612 Zr
    velocity -0.1446958154204668 0.3274743152737367 -0.0146439981566986
atom 3.0479459332584105 4.9867895405139153 4.1439095347979373 Zr
    velocity 0.2336866342587263 -0.3103700079102192 0.1098129020933859
atom 8.1979459332584117 4.9867895405139153 4.1439095347979373 Zr
    velocity 0.2008318761204016 0.1109212557645708 -0.1017436794976903
atom 13.3479459332584103 4.9867895405139153 4.1439095347979373 Zr
    velocity 0.2352222708728033 0.1056032237946125 -0.1046021538924726
atom 18.4979459332584106 4.9867895405139153 4.1439095347979373 Zr
    velocity -0.1586330744944303 0.4217038660747329 0.0919133786728300
atom 23.6479459332584057 4.9867895405139153 4.1439095347979373 Zr
    velocity -0.0558021687045148 0.4038903215909544 0.1078782489205654
atom 3.0479459332584105 10.1957895405139176 4.1439095347979373 Zr
    velocity 0.0993032158771857 -0.1743535120165911 0.2346328828825212
atom 8.1979459332584117 10.1957895405139176 4.1439095347979373 Zr
    velocity 0.2616608196032483 -0.1854454680087620 0.3220957966761173
atom 13.3479459332584103 10.1957895405139176 4.1439095347979373 Zr
    velocity -0.0282560181365488 0.0737934859182907 -0.1255750910456691
atom 18.4979459332584106 10.1957895405139176 4.1439095347979373 Zr
    velocity 0.4043648828344447 0.2618585361926958 -0.0876712370260645
atom 23.6479459332584057 10.1957895405139176 4.1439095347979373 Zr
    velocity -0.0946205839934850 0.1184138764755285 0.0138352429757750
atom 3.0479459332584105 15.4047895405139155 4.1439095347979373 Zr
    velocity 0.3202265925824386 0.6065639208866274 -0.2768340693615953
atom 8.1979459332584117 15.4047895405139155 4.1439095347979373 Zr
    velocity 0.2470537528063976 0.2390208502342555 -0.0540025877936165
atom 13.3479459332584103 15.4047895405139155 4.1439095347979373 Zr
    velocity -0.1437370089935190 0.0404721483368507 0.1250975422657570
atom 18.4979459332584106 15.4047895405139155 4.1439095347979373 Zr
    velocity -0.1404566640523094 -0.2787809621001020 -0.4842414985214303
atom 23.6479459332584057 15.4047895405139155 4.1439095347979373 Zr
    velocity 0.3956255388695474 0.0639187524804096 0.4014718423224883
atom 3.0479459332584105 20.6137895405139169 4.1439095347979373 Zr
    velocity -0.4306271721255753 0.3823989556747657 0.3884698648101120
atom 8.1979459332584117 20.6137895405139169 4.1439095347979373 Zr
    velocity 0.1333635272971628 0.5830957667036014 0.2548206863016557
atom 13.3479459332584103 20.6137895405139169 4.1439095347979373 Zr
    velocity -0.0432451968225515 -0.3891698254229444 0.5755340102651543
atom 18.4979459332584106 20.6137895405139169 4.1439095347979373 Zr
    velocity 0.1374809902327877 -0.1349245788159092 -0.0372563321230329
atom 23.6479459332584057 20.6137895405139169 4.1439095347979373 Zr
    velocity -0.0011944687522968 0.2695047236687786 0.3390909246875111
atom 3.0479459332584105 25.8227895405139165 4.1439095347979373 Zr
    velocity -0.4714054578979823 0.1405235806712793 -0.0932472253948724
atom 8.1979459332584117 25.8227895405139165 4.1439095347979373 Zr
    velocity 0.1651843028441340 -0.0306919097424542 -0.2508508915306379
atom 13.3479459332584103 25.8227895405139165 4.1439095347979373 Zr
    velocity -0.1729861382793451 0.3670983539292715 0.3992831729556489
atom 18.4979459332584106 25.8227895405139165 4.1439095347979373 Zr
    velocity -0.5418873646499959 -0.6077063344937210 0.2779362092825243
atom 23.6479459332584057 25.8227895405139165 4.1439095347979373 Zr
    velocity 0.2576207547517062 0.4593602816880629 0.2274470668421486
atom 2.1908525749882757 4.9867895405139153 9.3893471690863510 Zr
    velocity -0.1716125707371867 0.3152366406063302 -0.1183820622906858
atom 7.3408525749882765 4.9867895405139153 9.3893471690863510 Zr
    velocity 0.0896341436753001 0.0366782486783529 0.1444938355587242
atom 12.4908525749882759 4.9867895405139153 9.3893471690863510 Zr
    velocity -0.1571022191012169 -0.6925050885187825 -0.1485261946150321
atom 17.6408525749882763 4.9867895405139153 9.3893471690863510 Zr
    velocity -0.2351313607594660 0.1606111245886000 0.2792526977323302
atom 22.7908525749882713 4.9867895405139153 9.3893471690863510 Zr
    velocity -0.0163297698525536 -0.1007374825201429 0.3039857094933474
atom 2.1908525749882757 10.1957895405139176 9.3893471690863510 Zr
    velocity -0.0712847415954679 -0.7603866772906284 0.3060069828876061
atom 7.3408525749882765 10.1957895405139176 9.3893471690863510 Zr
    velocity 0.0362448938045355 0.4346449536361051 0.3664357390617959
atom 12.4908525749882759 10.1957895405139176 9.3893471690863510 Zr
    velocity -0.0972407765591574 0.3161560077856029 0.2241353138311495
atom 17.6408525749882763 10.1957895405139176 9.3893471690863510 Zr
    velocity -0.2239792626711172 0.2469451231409808 0.0563866753728738
atom 22.7908525749882713 10.1957895405139176 9.3893471690863510 Zr
    velocity -0.3690440632712621 0.4462165911711296 0.0397875515053656
atom 2.1908525749882757 15.4047895405139155 9.3893471690863510 Zr
    velocity 0.3442575157622929 -0.6656804743266250 -0.0596182589595206
atom 7.3408525749882765 15.4047895405139155 9.3893471690863510 Zr
    velocity 0.0637696682319468 0.5404773707968054 -0.0539707096654871
atom 12.4908525749882759 15.4047895405139155 9.3893471690863510 Zr
    velocity 0.1042265064586970 0.5087178352344249 -0.5348452280184725
atom 17.6408525749882763 15.4047895405139155 9.3893471690863510 Zr
    velocity 0.0285919888453246 -0.2427389414347851 -0.4845828856837474
atom 22.7908525749882713 15.4047895405139155 9.3893471690863510 Zr
    velocity 0.1303109378655044 -0.1522151011387822 -0.1427357618008530
atom 2.1908525749882757 20.6137895405139169 9.3893471690863510 Zr
    velocity 0.1529938731203681 0.4959892477103669 -0.1852163057782823
atom 7.3408525749882765 20.6137895405139169 9.3893471690863510 Zr
    velocity 0.1920649909733561 -0.1079146838999306 -0.0673770080231198
atom 12.4908525749882759 20.6137895405139169 9.3893471690863510 Zr
    velocity -0.0991288557967866 0.8061527668550973 -0.1640966940009456
atom 17.6408525749882763 20.6137895405139169 9.3893471690863510 Zr
    velocity -0.1908627895524779 -0.0587637084325108 0.0978118888829905
atom 22.7908525749882713 20.6137895405139169 9.3893471690863510 Zr
    velocity 0.0560001230265227 0.1153079168915742 0.1429424608725876
atom 2.1908525749882757 25.8227895405139165 9.3893471690863510 Zr
    velocity -0.2622009494765939 0.3866405086042574 -0.4025448536748639
atom 7.3408525749882765 25.8227895405139165 9.3893471690863510 Zr
    velocity 0.1347238155017916 -0.5941143347113587 0.2118509078165717
atom 12.4908525749882759 25.8227895405139165 9.3893471690863510 Zr
    velocity 0.3099680230253350 -0.1680087744819078 0.4536777624325022
atom 17.6408525749882763 25.8227895405139165 9.3893471690863510 Zr
    velocity -0.1292067031302748 0.2434295353889783 0.0814225982749114
atom 22.7908525749882713 25.8227895405139165 9.3893471690863510 Zr
    velocity 0.4493472050127695 -0.4533549116994217 -0.1620849987788839
atom 1.3337592167181413 4.9867895405139153 14.6347848033747656 Zr
    velocity 0.0790790395404598 -0.0957299229339534 0.5329210977707836
atom 6.4837592167181421 4.9867895405139153 14.6347848033747656 Zr
    velocity 0.2059295861121941 -0.2822463177227126 0.1746139399660601
atom 11.6337592167181398 4.9867895405139153 14.6347848033747656 Zr
    velocity 0.3697124950800973 -0.0519515647461879 0.3502868694501488
atom 16.7837592167181420 4.9867895405139153 14.6347848033747656 Zr
    velocity -0.1899526156179883 -0.4857193385357056 0.5350391993259882
atom 21.9337592167181370 4.9867895405139153 14.6347848033747656 Zr
    velocity -0.1483945257499636 0.2723168779431298 -0.0641130775298065
atom 1.3337592167181413 10.1957895405139176 14.6347848033747656 Zr
    velocity -0.2540708105315122 -0.0302770240966499 0.1871766835462842
atom 6.4837592167181421 10.1957895405139176 14.6347848033747656 Zr
    velocity -0.4689246131037687 -0.4937465390475101 -0.1645351837556226
atom 11.6337592167181398 10.1957895405139176 14.6347848033747656 Zr
    velocity 0.3583066109231808 0.1481586746395939 -0.3447459949097227
atom 16.7837592167181420 10.1957895405139176 14.6347848033747656 Zr
    velocity -0.4745665624005140 -0.3073249123706931 0.2096116276203301
atom 21.9337592167181370 10.1957895405139176 14.6347848033747656 Zr
    velocity 0.5848880313284163 -0.2623207440270537 0.1891223872703464
atom 1.3337592167181413 15.4047895405139155 14.6347848033747656 Zr
    velocity -0.1551599746204795 -0.4608993769528569 0.1713818808682241
atom 6.4837592167181421 15.4047895405139155 14.6347848033747656 Zr
    velocity 0.1753368856510839 -0.2020644451344836 -0.1186107770688364
atom 11.6337592167181398 15.4047895405139155 14.6347848033747656 Zr
    velocity 0.3738229430363667 0.1196168544959066 -0.2474474508524313
atom 16.7837592167181420 15.4047895405139155 14.6347848033747656 Zr
    velocity -0.2127493879305006 0.1527049789010040 0.3313643189197331
atom 21.9337592167181370 15.4047895405139155 14.6347848033747656 Zr
    velocity 0.3816362224726756 -0.3857760269306305 0.4880831839030067
atom 1.3337592167181413 20.6137895405139169 14.6347848033747656 Zr
    velocity -0.7284995509500463 0.4105905465373638 0.1775712139220888
atom 6.4837592167181421 20.6137895405139169 14.6347848033747656 Zr
    velocity 0.0070706918365610 0.1599488368671523 -0.5094785012780141
atom 11.6337592167181398 20.6137895405139169 14.6347848033747656 Zr
    velocity 0.2854728174287406 -0.0639617796890595 -0.0866589092039626
atom 16.7837592167181420 20.6137895405139169 14.6347848033747656 Zr
    velocity -0.2629412558037945 0.0035925567927839 0.3644000488015914
atom 21.9337592167181370 20.6137895405139169 14.6347848033747656 Zr
    velocity -0.3053434272913355 0.1748746370288471 -0.4678562796399061
atom 1.3337592167181413 25.8227895405139165 14.6347848033747656 Zr
    velocity 0.0798706244482429 0.0325098546725650 -0.5647029154905199
atom 6.4837592167181421 25.8227895405139165 14.6347848033747656 Zr
    velocity -0.5530084367112519 0.5793364979484664 -0.3781284396545267
atom 11.6337592167181398 25.8227895405139165 14.6347848033747656 Zr
    velocity 0.3432666753868546 0.4097005467505154 -0.4398966334388820
atom 16.7837592167181420 25.8227895405139165 14.6347848033747656 Zr
    velocity 0.0966570116939775 -0.0829526071316884 0.8473034486608129
atom 21.9337592167181370 25.8227895405139165 14.6347848033747656 Zr
    velocity -0.3454996547350037 0.2726418380257628 -0.0923278822390182
atom 0.4766658584480070 4.9867895405139153 19.8802224376631784 Zr
    velocity 0.1374512767453624 0.1003961143521407 -0.0501325652675717
atom 5.6266658584480078 4.9867895405139153 19.8802224376631784 Zr
    velocity 0.2805932233732850 -0.0771834123884664 0.0625901212368363
atom 10.7766658584480055 4.9867895405139153 19.8802224376631784 Zr
    velocity 0.6071012404555728 -0.1979766727164919 -0.3946634153322416
atom 15.9266658584480076 4.9867895405139153 19.8802224376631784 Zr
    velocity 0.1325220801036494 -0.0064255117326482 -0.4964274145602152
atom 21.0766658584480027 4.9867895405139153 19.8802224376631784 Zr
    velocity -0.3941218750612588 0.3155086965306004 -0.1007420420145053
atom 0.4766658584480070 10.1957895405139176 19.8802224376631784 Zr
    velocity -0.3383737886196218 0.1089202705484444 0.6114749117581637
atom 5.6266658584480078 10.1957895405139176 19.8802224376631784 Zr
    velocity 0.2111652327017687 0.1219666889601424 0.5143879988164287
atom 10.7766658584480055 10.1957895405139176 19.8802224376631784 Zr
    velocity 0.1502755171776978 -0.0524590318042086 -0.2196838769803990
atom 15.9266658584480076 10.1957895405139176 19.8802224376631784 Zr
    velocity -0.5654161303202682 0.1665427932071744 0.4027444143552716
atom 21.0766658584480027 10.1957895405139176 19.8802224376631784 Zr
    velocity -0.3073678105303284 -0.3373540851959916 0.3114575663055859
atom 0.4766658584480070 15.4047895405139155 19.8802224376631784 Zr
    velocity -0.1948944596865929 -0.0765414788687788 -0.5450896735981253
atom 5.6266658584480078 15.4047895405139155 19.8802224376631784 Zr