#=======================================================
# FHI-aims file: 400_geometry.in.primitive.supercell_2592.0010K
# Created using the Atomic Simulation Environment (ASE)
# Fri Dec 30 21:08:38 2022

# Additional information:
#  created from MB distrubtion
#  T = 10.0 K
#  quantum:             False
#  deterministic:       False
#  plus_minus:          False
#  gauge_eigenvectors:  False
#  Random seed:         1661202399
#  Sample number:       1
#=======================================================
lattice_vector 30.9119999999999990 0.0000000000000000 0.0000000000000000 
lattice_vector 0.0000000000000000 31.2660000000000018 0.0000000000000000 
lattice_vector -5.1399666293629735 0.0000000000000000 31.4912877959767599 
atom 1.2456045527724036 0.2222957773818360 1.1021813344437310 Zr
    velocity 0.0445856403339400 -0.2169712477876829 0.3241573315588591
atom 6.3976045527724050 0.2222957773818360 1.1021813344437310 Zr
    velocity -0.0755724190098845 -0.3667148598722681 -0.0720519540115364
atom 11.5496045527724025 0.2222957773818360 1.1021813344437310 Zr
    velocity -0.4126129853206579 -0.3991198925580783 0.3484363288409845
atom 16.7016045527724053 0.2222957773818360 1.1021813344437310 Zr
    velocity -0.5264252360091487 -0.0091040678395034 0.2283616071142616
atom 21.8536045527724028 0.2222957773818360 1.1021813344437310 Zr
    velocity -0.0407700891891027 0.0417801543431774 0.0888230054352280
atom 27.0056045527724038 0.2222957773818360 1.1021813344437310 Zr
    velocity 0.7655988547374931 -0.0580556698513573 0.0502888933162579
atom 1.2456045527724036 5.4332957773818338 1.1021813344437310 Zr
    velocity -0.6628772983266217 0.3791369519113378 0.0231525633683291
atom 6.3976045527724050 5.4332957773818338 1.1021813344437310 Zr
    velocity -0.0126704023599767 0.1075845202474711 0.1784422967473281
atom 11.5496045527724025 5.4332957773818338 1.1021813344437310 Zr
    velocity -0.3676408770362657 0.3242997114164187 0.0463428903479821
atom 16.7016045527724053 5.4332957773818338 1.1021813344437310 Zr
    velocity 0.0046354920858951 -0.3180095920758618 -0.2339613108247648
atom 21.8536045527724028 5.4332957773818338 1.1021813344437310 Zr
    velocity 0.2299507535882266 -0.1788607288212467 -0.0083267678882142
atom 27.0056045527724038 5.4332957773818338 1.1021813344437310 Zr
    velocity -0.5063013003172252 -0.4352613080396532 -0.0194802818102269
atom 1.2456045527724036 10.6442957773818350 1.1021813344437310 Zr
    velocity 0.1733569986921709 0.3689041405045029 -0.1418132548476730
atom 6.3976045527724050 10.6442957773818350 1.1021813344437310 Zr
    velocity -0.5116193383893659 -0.1308637077713718 -0.6415577498072799
atom 11.5496045527724025 10.6442957773818350 1.1021813344437310 Zr
    velocity -0.4094159173213361 -0.2598770692136247 0.0055247048106431
atom 16.7016045527724053 10.6442957773818350 1.1021813344437310 Zr
    velocity -0.2103743670651449 -0.3746811305128136 -0.3128239589615858
atom 21.8536045527724028 10.6442957773818350 1.1021813344437310 Zr
    velocity 0.3898517575404397 -0.5058100371084163 -0.0133292934545172
atom 27.0056045527724038 10.6442957773818350 1.1021813344437310 Zr
    velocity 0.8537300153232137 0.2412893812145344 -0.3450346538301418
atom 1.2456045527724036 15.8552957773818353 1.1021813344437310 Zr
    velocity -0.0549947072208107 0.2555275514402883 -0.2287218814391360
atom 6.3976045527724050 15.8552957773818353 1.1021813344437310 Zr
    velocity -0.6411518244913911 0.7410645754947879 0.2442464080735934
atom 11.5496045527724025 15.8552957773818353 1.1021813344437310 Zr
    velocity 0.4044956443356141 0.0750100850048039 0.0053855216004102
atom 16.7016045527724053 15.8552957773818353 1.1021813344437310 Zr
    velocity -0.2206171274272459 0.5709399746566333 -0.1160408925254033
atom 21.8536045527724028 15.8552957773818353 1.1021813344437310 Zr
    velocity 0.3739466303345461 0.6154472395403489 -0.3611907635244045
atom 27.0056045527724038 15.8552957773818353 1.1021813344437310 Zr
    velocity -0.2997611028151127 -0.4745666209691828 0.0294149301636700
atom 1.2456045527724036 21.0662957773818391 1.1021813344437310 Zr
    velocity 0.3055983326881792 -0.0443127799638273 0.3112866721324756
atom 6.3976045527724050 21.0662957773818391 1.1021813344437310 Zr
    velocity 0.5249062493150904 0.0043040525361507 0.1134763898170063
atom 11.5496045527724025 21.0662957773818391 1.1021813344437310 Zr
    velocity -0.2052496083766395 -0.1397352092390989 -0.8083480940754034
atom 16.7016045527724053 21.0662957773818391 1.1021813344437310 Zr
    velocity -0.0661248977466477 -0.1762285982477854 -0.2259612482106459
atom 21.8536045527724028 21.0662957773818391 1.1021813344437310 Zr
    velocity -0.0898298963743375 0.3149826005519264 0.2654091040804721
atom 27.0056045527724038 21.0662957773818391 1.1021813344437310 Zr
    velocity 0.1927883151444810 0.1726412192384085 -0.1613070106053502
atom 1.2456045527724036 26.2772957773818376 1.1021813344437310 Zr
    velocity 0.0021898032586498 -0.1913451449984936 -0.0032541895193603
atom 6.3976045527724050 26.2772957773818376 1.1021813344437310 Zr
    velocity -0.3363202118039780 0.3400917871665760 0.1027926198583674
atom 11.5496045527724025 26.2772957773818376 1.1021813344437310 Zr
    velocity -0.0636136741187339 0.1177709611392467 0.0319272276629125
atom 16.7016045527724053 26.2772957773818376 1.1021813344437310 Zr
    velocity -0.1242536137638709 0.1411575508115537 0.1445096177131783
atom 21.8536045527724028 26.2772957773818376 1.1021813344437310 Zr
    velocity -0.0747142025275919 0.0905830570805632 0.0834495610143790
atom 27.0056045527724038 26.2772957773818376 1.1021813344437310 Zr
    velocity -0.3615687787601251 0.0327067204453693 0.6001734306593663
atom 0.3889434478785749 0.2222957773818360 6.3507293004398564 Zr
    velocity 0.1662251765156072 0.2646180883467559 -0.0867411810426323
atom 5.5409434478785764 0.2222957773818360 6.3507293004398564 Zr
    velocity 0.1570994241463878 -0.1936586515264858 -0.3666830195277778
atom 10.6929434478785801 0.2222957773818360 6.3507293004398564 Zr
    velocity 0.4029402381354713 -0.0499101966814221 -0.4412748036676135
atom 15.8449434478785758 0.2222957773818360 6.3507293004398564 Zr
    velocity -0.3938447222771191 0.2731125592124374 0.4483761082845454
atom 20.9969434478785715 0.2222957773818360 6.3507293004398564 Zr
    velocity -0.2297317622820150 0.0561240953180307 0.0698715455266058
atom 26.1489434478785725 0.2222957773818360 6.3507293004398564 Zr
    velocity 0.0029563704079809 0.3202329951087683 0.3384011439603617
atom 0.3889434478785749 5.4332957773818338 6.3507293004398564 Zr
    velocity -0.2356002072925143 0.3066845463959270 0.8466165930351279
atom 5.5409434478785764 5.4332957773818338 6.3507293004398564 Zr
    velocity -0.0905581463294594 0.2265064251593427 0.0617743906562524
atom 10.6929434478785801 5.4332957773818338 6.3507293004398564 Zr
    velocity -0.1318154705827442 0.5203106366256357 0.3865105533369960
atom 15.8449434478785758 5.4332957773818338 6.3507293004398564 Zr
    velocity 0.0434986762956543 0.3530571891048608 -0.0534062535903657
atom 20.9969434478785715 5.4332957773818338 6.3507293004398564 Zr
    velocity 0.3195396729612966 0.5527167622367980 0.2673671658149958
atom 26.1489434478785725 5.4332957773818338 6.3507293004398564 Zr
    velocity -0.1857378886257843 0.3893828049182773 0.3721468027007491
atom 0.3889434478785749 10.6442957773818350 6.3507293004398564 Zr
    velocity -0.0695354945553381 0.1527737196105526 -0.3260373138916078
atom 5.5409434478785764 10.6442957773818350 6.3507293004398564 Zr
    velocity 0.4398435164210591 0.4355893975166972 -0.0436745648384234
atom 10.6929434478785801 10.6442957773818350 6.3507293004398564 Zr
    velocity -0.0273681198949490 0.0314197920043694 -0.3065160233093870
atom 15.8449434478785758 10.6442957773818350 6.3507293004398564 Zr
    velocity 0.6553641622893537 -0.0618804685105143 0.1052051026773107
atom 20.9969434478785715 10.6442957773818350 6.3507293004398564 Zr
    velocity 0.1617789272351626 0.4455955504188317 0.2081219500228422
atom 26.1489434478785725 10.6442957773818350 6.3507293004398564 Zr
    velocity -0.5936465297734487 0.4477602842926464 0.1183950582922119
atom 0.3889434478785749 15.8552957773818353 6.3507293004398564 Zr
    velocity -0.0378164232817679 0.0018818127818206 -0.0363213387057312
atom 5.5409434478785764 15.8552957773818353 6.3507293004398564 Zr
    velocity 0.1967532719113038 0.7677207357316426 0.0645446903168039
atom 10.6929434478785801 15.8552957773818353 6.3507293004398564 Zr
    velocity -0.0952263500072777 -0.2632581261616825 0.3326918653843586
atom 15.8449434478785758 15.8552957773818353 6.3507293004398564 Zr
    velocity -0.0290099253606542 -0.1322573961847507 0.0276809767683641
atom 20.9969434478785715 15.8552957773818353 6.3507293004398564 Zr
    velocity -0.0156844814729933 0.0018416931781225 -0.1445029954829750
atom 26.1489434478785725 15.8552957773818353 6.3507293004398564 Zr
    velocity 0.4614654558185894 0.0441483962556017 -0.0890281383254918
atom 0.3889434478785749 21.0662957773818391 6.3507293004398564 Zr
    velocity 0.2386606623460218 0.1350706380681269 0.3713354261280985
atom 5.5409434478785764 21.0662957773818391 6.3507293004398564 Zr
    velocity -0.5326903953172302 0.0328278153729503 -0.0983472562240996
atom 10.6929434478785801 21.0662957773818391 6.3507293004398564 Zr
    velocity -0.1502863879146333 0.0054088018233146 -0.7245577105653874
atom 15.8449434478785758 21.0662957773818391 6.3507293004398564 Zr
    velocity -0.1251517407057859 0.0864442797294278 -0.4319099257819992
atom 20.9969434478785715 21.0662957773818391 6.3507293004398564 Zr
    velocity 0.2603339561397974 -0.3288873928763836 0.1397389186548992
atom 26.1489434478785725 21.0662957773818391 6.3507293004398564 Zr
    velocity 0.0832968026629807 0.1555568802269923 -0.0412632587629559
atom 0.3889434478785749 26.2772957773818376 6.3507293004398564 Zr
    velocity -0.1546734291622237 0.0764064891535677 -0.2963226361904705
atom 5.5409434478785764 26.2772957773818376 6.3507293004398564 Zr
    velocity 0.1950282344766226 -0.3052440552235734 -0.1858186199616890
atom 10.6929434478785801 26.2772957773818376 6.3507293004398564 Zr
    velocity 0.4441734159916479 0.1551670215534044 -0.6163137863903030
atom 15.8449434478785758 26.2772957773818376 6.3507293004398564 Zr
    velocity 0.0285481785599620 -0.3632226358550923 -0.0664242500577195
atom 20.9969434478785715 26.2772957773818376 6.3507293004398564 Zr
    velocity 0.2476796354041240 -0.2143962256097086 0.0753072809589583
atom 26.1489434478785725 26.2772957773818376 6.3507293004398564 Zr
    velocity -0.0472781083781571 0.8344047138063944 -0.3247552708668382
atom -0.4677176570152541 0.2222957773818360 11.5992772664359833 Zr
    velocity 0.3055831736091301 0.0148585685657838 0.2210806974054038
atom 4.6842823429847478 0.2222957773818360 11.5992772664359833 Zr
    velocity -0.2887702871543507 -0.2871494481627512 -0.1371426852147589
atom 9.8362823429847452 0.2222957773818360 11.5992772664359833 Zr
    velocity -0.3771191636938817 0.0230655589142354 -0.0217516660850890
atom 14.9882823429847463 0.2222957773818360 11.5992772664359833 Zr
    velocity -0.3774562014427155 0.3279270192893614 0.0009276310686628
atom 20.1402823429847437 0.2222957773818360 11.5992772664359833 Zr
    velocity 0.0329348386950966 -0.3829855757690707 0.0452030305597680
atom 25.2922823429847448 0.2222957773818360 11.5992772664359833 Zr
    velocity 0.5673221832499395 -0.0498318637343250 0.1141636948761003
atom -0.4677176570152541 5.4332957773818338 11.5992772664359833 Zr
    velocity 0.2223793640627657 -0.2511906704546714 -0.2872776840308873
atom 4.6842823429847478 5.4332957773818338 11.5992772664359833 Zr
    velocity -0.0280606456799488 -0.6604595370861055 -0.4234616131307615
atom 9.8362823429847452 5.4332957773818338 11.5992772664359833 Zr
    velocity 0.4014906231780588 -0.4132500896757570 0.3341413635839008
atom 14.9882823429847463 5.4332957773818338 11.5992772664359833 Zr
    velocity 0.1698640756088448 0.5061724537742381 0.2803555249520244
atom 20.1402823429847437 5.4332957773818338 11.5992772664359833 Zr
    velocity -0.1225349887261800 -1.0141235691910999 0.0944608351528522
atom 25.2922823429847448 5.4332957773818338 11.5992772664359833 Zr
    velocity -0.2686256145726190 -0.1733906327202200 0.1068595922331037
atom -0.4677176570152541 10.6442957773818350 11.5992772664359833 Zr
    velocity 0.3145734615476374 0.3044579289712232 -0.2691322400815767
atom 4.6842823429847478 10.6442957773818350 11.5992772664359833 Zr
    velocity -0.3784207172843158 0.0180193749021855 -0.1007296196669270
atom 9.8362823429847452 10.6442957773818350 11.5992772664359833 Zr
    velocity -0.1424244436287023 0.5007699255776169 0.3000714828062033
atom 14.9882823429847463 10.6442957773818350 11.5992772664359833 Zr
    velocity -0.2603977612950105 0.1749537807670903 0.1396543598275139
atom 20.1402823429847437 10.6442957773818350 11.5992772664359833 Zr
    velocity 0.5578049575085221 -0.2941130839802191 0.2260078461877074
atom 25.2922823429847448 10.6442957773818350 11.5992772664359833 Zr
    velocity -0.3161370314297262 -0.2314411889369620 -0.2326811718238349
atom -0.4677176570152541 15.8552957773818353 11.5992772664359833 Zr
    velocity -0.1853475278435990 0.0047719494213616 0.1084077764287242
atom 4.6842823429847478 15.8552957773818353 11.5992772664359833 Zr
    velocity -0.2274866758178395 0.0101314460986246 0.0190946038831067
atom 9.8362823429847452 15.8552957773818353 11.5992772664359833 Zr
    velocity -0.3703200417717233 -0.0289478494091981 0.3356444008260876
atom 14.9882823429847463 15.8552957773818353 11.5992772664359833 Zr
    velocity -0.1377092221303758 -0.0423286517631946 0.4848016475776391
atom 20.1402823429847437 15.8552957773818353 11.5992772664359833 Zr
    velocity -0.2347387023016947 -0.0991566647169322 -0.0951665012761754
atom 25.2922823429847448 15.8552957773818353 11.5992772664359833 Zr
    velocity 0.3448511211400089 0.1798671596971025 -0.0267928760137671
atom -0.4677176570152541 21.0662957773818391 11.5992772664359833 Zr
    velocity 0.1666143753395889 0.1920970839523974 -0.1929373859096433
atom 4.6842823429847478 21.0662957773818391 11.5992772664359833 Zr
    velocity 0.3439137702021687 0.6393481470292668 0.2309489082145066
atom 9.8362823429847452 21.0662957773818391 11.5992772664359833 Zr
    velocity 0.0230726992408722 0.1608073209603660 -0.3649116225091300
atom 14.9882823429847463 21.0662957773818391 11.5992772664359833 Zr
    velocity -0.1129458288870294 0.8922313898804667 0.1290636808913608
atom 20.1402823429847437 21.0662957773818391 11.5992772664359833 Zr
    velocity 0.0135382225571360 0.0147924066200254 -0.1465756439244111
atom 25.2922823429847448 21.0662957773818391 11.5992772664359833 Zr
    velocity 0.1902784780529667 -0.2445247452916975 -0.5492879595867722
atom -0.4677176570152541 26.2772957773818376 11.5992772664359833 Zr
    velocity -0.0427049249832106 -0.2743156237321600 0.3624436984464868
atom 4.6842823429847478 26.2772957773818376 11.5992772664359833 Zr
    velocity -0.2747186833019498 -0.1070278315759292 -0.0521710830246913
atom 9.8362823429847452 26.2772957773818376 11.5992772664359833 Zr
    velocity 0.2925297304849054 -0.3494175192215824 0.1779064289768383
atom 14.9882823429847463 26.2772957773818376 11.5992772664359833 Zr
    velocity -0.0263591334151984 0.0823019716320889 -0.1724936362553064
atom 20.1402823429847437 26.2772957773818376 11.5992772664359833 Zr
    velocity 0.1968667621296403 -0.6264296756744896 0.6296905821222901
atom 25.2922823429847448 26.2772957773818376 11.5992772664359833 Zr
    velocity -0.4313514294685447 0.0970671379383524 0.7464232587269851
atom -1.3243787619090832 0.2222957773818360 16.8478252324321112 Zr
    velocity 0.0712233488355787 0.6060228696603212 0.2547629129787602
atom 3.8276212380909187 0.2222957773818360 16.8478252324321112 Zr
    velocity -0.2964802526984411 -0.1472744276742003 -0.1248775274207266
atom 8.9796212380909157 0.2222957773818360 16.8478252324321112 Zr
    velocity -0.0061098711104111 0.1081398552555415 -0.3353307470669175
atom 14.1316212380909167 0.2222957773818360 16.8478252324321112 Zr
    velocity 0.0245963372728134 -0.1730967940138424 0.3696679321971990
atom 19.2836212380909160 0.2222957773818360 16.8478252324321112 Zr
    velocity -0.0656383286424197 -0.2470490469147102 0.2513034953021472
atom 24.4356212380909170 0.2222957773818360 16.8478252324321112 Zr
    velocity -0.5126916947032383 -0.2384909491436916 0.0559331857032768
atom -1.3243787619090832 5.4332957773818338 16.8478252324321112 Zr
    velocity 0.3226244868807520 -0.0666227647282237 -0.3404090337002648
atom 3.8276212380909187 5.4332957773818338 16.8478252324321112 Zr
    velocity 0.0916177092966178 -0.0016363910467998 0.2708169574531990
atom 8.9796212380909157 5.4332957773818338 16.8478252324321112 Zr
    velocity 0.2718068946948396 -0.1686617188746201 -0.1251814462354290
atom 14.1316212380909167 5.4332957773818338 16.8478252324321112 Zr
    velocity 0.4711625784548397 -0.0036731403889279 -0.1873029649816530
atom 19.2836212380909160 5.4332957773818338 16.8478252324321112 Zr
    velocity 1.0327386443827327 0.2251767572347582 -0.1683345376863038
atom 24.4356212380909170 5.4332957773818338 16.8478252324321112 Zr
    velocity -0.2549510616060957 -0.3943615253513185 0.6478488849607958
atom -1.3243787619090832 10.6442957773818350 16.8478252324321112 Zr
    velocity 0.4831698782244214 0.0253699563591573 -0.1143117911627064
atom 3.8276212380909187 10.6442957773818350 16.8478252324321112 Zr
    velocity -0.4248329494521088 -0.1149109908742558 0.3627858158385044
atom 8.9796212380909157 10.6442957773818350 16.8478252324321112 Zr
    velocity -0.2817851278582817 0.1531451229158657 0.6295819935730684
atom 14.1316212380909167 10.6442957773818350 16.8478252324321112 Zr
    velocity 0.7579956285952447 -0.3406679043634915 0.2919904000679204
atom 19.2836212380909160 10.6442957773818350 16.8478252324321112 Zr
    velocity -0.2762704761066966 -0.4400640290006967 -0.0534675108986825
atom 24.4356212380909170 10.6442957773818350 16.8478252324321112 Zr
    velocity 0.0137658507172797 0.1946262624438907 0.0074685104759140
atom -1.3243787619090832 15.8552957773818353 16.8478252324321112 Zr
    velocity -0.2954508698680818 -0.3523332090383755 0.3021933239550456
atom 3.8276212380909187 15.8552957773818353 16.8478252324321112 Zr
    velocity 0.1754294228968894 0.0703369837095817 0.1290365780246108
atom 8.9796212380909157 15.8552957773818353 16.8478252324321112 Zr
    velocity -0.5854471607274333 -0.0462330720103384 0.2429778539000522
atom 14.1316212380909167 15.8552957773818353 16.8478252324321112 Zr
    velocity 0.0712916280479177 -0.1370506192231918 -0.2809801091540817
atom 19.2836212380909160 15.8552957773818353 16.8478252324321112 Zr
    velocity 0.0064762884046399 0.3346233150821045 0.2086047284385525
atom 24.4356212380909170 15.8552957773818353 16.8478252324321112 Zr
    velocity -0.1454925345985693 0.2151510801962704 0.1037922912264545
atom -1.3243787619090832 21.0662957773818391 16.8478252324321112 Zr
    velocity 0.0869537204159289 -0.0000749101818287 -0.3509707502644953
atom 3.8276212380909187 21.0662957773818391 16.8478252324321112 Zr
    velocity 0.0340497130568047 0.1834462379646889 -0.0469993649726243
atom 8.9796212380909157 21.0662957773818391 16.8478252324321112 Zr
    velocity 0.1423601923220740 -0.3969337338998783 0.4128882233889175
atom 14.1316212380909167 21.0662957773818391 16.8478252324321112 Zr
    velocity -0.1211306835799491 -0.3320525190428697 0.5324299934362432
atom 19.2836212380909160 21.0662957773818391 16.8478252324321112 Zr
    velocity -0.1764757859813217 0.2851768711071553 0.2207111725238861
atom 24.4356212380909170 21.0662957773818391 16.8478252324321112 Zr
    velocity -0.3995822432746005 -0.1248624105121298 -0.0106807498520455
atom -1.3243787619090832 26.2772957773818376 16.8478252324321112 Zr
    velocity 0.4440168899042542 0.2548179197231556 0.0279488123707994
atom 3.8276212380909187 26.2772957773818376 16.8478252324321112 Zr
    velocity -0.2309510894834445 -0.1607114328460653 -0.4866798213040632
atom 8.9796212380909157 26.2772957773818376 16.8478252324321112 Zr
    velocity -0.1982623869707408 -0.1691752990621770 0.0947553054475110
atom 14.1316212380909167 26.2772957773818376 16.8478252324321112 Zr
    velocity -0.7048158435264648 0.0570355869365917 -0.0942113115452869
atom 19.2836212380909160 26.2772957773818376 16.8478252324321112 Zr
    velocity 0.0023653067961849 -0.3075452632827799 0.0850810092855162
atom 24.4356212380909170 26.2772957773818376 16.8478252324321112 Zr
    velocity -0.3464881373881306 0.1256229971029280 0.1394280374224160
atom -2.1810398668029114 0.2222957773818360 22.0963731984282319 Zr
    velocity 0.0756188250878391 0.3009234947081584 0.0719009875167312
atom 2.9709601331970905 0.2222957773818360 22.0963731984282319 Zr
    velocity 0.0996920604484577 0.0666179961662574 0.3066431248511032
atom 8.1229601331970880 0.2222957773818360 22.0963731984282319 Zr
    velocity 0.0926499126470256 -0.0694869176668908 0.0930886842093716
atom 13.2749601331970890 0.2222957773818360 22.0963731984282319 Zr
    velocity -0.0557705686487682 0.0588458568344967 0.2953508236310193
atom 18.4269601331970811 0.2222957773818360 22.0963731984282319 Zr
    velocity 0.1411236950591181 0.2933415565377074 -0.5188054119636597
atom 23.5789601331970822 0.2222957773818360 22.0963731984282319 Zr
    velocity 0.0720495112214634 -0.0078174434128682 0.3628091220827944
atom -2.1810398668029114 5.4332957773818338 22.0963731984282319 Zr
    velocity 0.2698746960837349 0.0615517829350219 -0.2620789185462399
atom 2.9709601331970905 5.4332957773818338 22.0963731984282319 Zr
    velocity -0.4426014884979241 -0.0853343532013429 -0.1881829907854290
atom 8.1229601331970880 5.4332957773818338 22.0963731984282319 Zr
    velocity -0.2275333369714041 0.0589480096743895 -0.1926279886428450
atom 13.2749601331970890 5.4332957773818338 22.0963731984282319 Zr
    velocity 0.0972097797664686 -0.1776295709609678 0.0993582018080700
atom 18.4269601331970811 5.4332957773818338 22.0963731984282319 Zr
    velocity -0.1812704164190552 -0.1691625961313228 0.1580731499816584
atom 23.5789601331970822 5.4332957773818338 22.0963731984282319 Zr
    velocity 0.6455315944780016 0.0434634302563111 0.0639633450979098
atom -2.1810398668029114 10.6442957773818350 22.0963731984282319 Zr
    velocity -0.0172818619310205 0.1257052490899525 -0.2622349209303867
atom 2.9709601331970905 10.6442957773818350 22.0963731984282319 Zr
    velocity -0.6240777070403376 0.1118853584220271 -0.0695817819786329
atom 8.1229601331970880 10.6442957773818350 22.0963731984282319 Zr
    velocity -0.1117828396044404 -0.4995664245751972 -0.3399891071323471
atom 13.2749601331970890 10.6442957773818350 22.0963731984282319 Zr
    velocity 0.1986852259125041 -0.1951178216668539 0.1472370940556039
atom 18.4269601331970811 10.6442957773818350 22.0963731984282319 Zr
    velocity -0.1925640075641332 -0.2977532367823481 -0.2723522158945995
atom 23.5789601331970822 10.6442957773818350 22.0963731984282319 Zr
    velocity -0.4417379390555499 -0.1698597838145954 0.1650348539117887
atom -2.1810398668029114 15.8552957773818353 22.0963731984282319 Zr
    velocity -0.3062556038139788 -0.0019151665861274 -0.1940501553628202
atom 2.9709601331970905 15.8552957773818353 22.0963731984282319 Zr
    velocity -0.4611273961873052 0.1299000554269913 -0.2077458884890216
atom 8.1229601331970880 15.8552957773818353 22.0963731984282319 Zr
    velocity 0.1414065959939334 -0.0443143319271008 -0.1452913015391471
atom 13.2749601331970890 15.8552957773818353 22.0963731984282319 Zr
    velocity -0.0783269844059732 0.3084933941308706 -0.5356837062868335
atom 18.4269601331970811 15.8552957773818353 22.0963731984282319 Zr
    velocity 0.0993168049673203 0.4110718099496846 -0.2957842112085173
atom 23.5789601331970822 15.8552957773818353 22.0963731984282319 Zr
    velocity 0.1886825581846949 -0.0557117500014380 0.0002095462128139
atom -2.1810398668029114 21.0662957773818391 22.0963731984282319 Zr
    velocity -0.2641658749566827 -0.0242989357630591 0.0726266139745539
atom 2.9709601331970905 21.0662957773818391 22.0963731984282319 Zr
    velocity -0.2047390799015837 0.0456744636406591 -0.1002852377701816
atom 8.1229601331970880 21.0662957773818391 22.0963731984282319 Zr
    velocity 0.1153389574137078 0.2017903231103272 0.4437733388457966
atom 13.2749601331970890 21.0662957773818391 22.0963731984282319 Zr
    velocity -0.1843532525598207 -0.1202864829701943 -0.2870535670030832
atom 18.4269601331970811 21.0662957773818391 22.0963731984282319 Zr
    velocity 0.1739573971637100 0.0012266245710300 0.0155213545048919
atom 23.5789601331970822 21.0662957773818391 22.0963731984282319 Zr
    velocity -0.0956777688619427 -0.0404319115040755 -0.0416066634977178
atom -2.1810398668029114 26.2772957773818376 22.0963731984282319 Zr
    velocity -0.4756392976714021 0.4689051459083673 -0.0931770390170445
atom 2.9709601331970905 26.2772957773818376 22.0963731984282319 Zr
    velocity 0.1108820718089482 -0.2094283056519186 0.0802291407553791
atom 8.1229601331970880 26.2772957773818376 22.0963731984282319 Zr
    velocity 0.1747390687468268 -0.1029918607580403 0.1519467342611049
atom 13.2749601331970890 26.2772957773818376 22.0963731984282319 Zr
    velocity 0.0632924979042502 0.1438485294146612 -0.0887315845193126
atom 18.4269601331970811 26.2772957773818376 22.0963731984282319 Zr
    velocity -0.2247386527611284 0.1375365965914583 -0.3096845404167811
atom 23.5789601331970822 26.2772957773818376 22.0963731984282319 Zr
    velocity -0.0348575242551482 0.0637519691837370 0.5923115098619455
atom -3.0377009716967405 0.2222957773818360 27.3449211644243597 Zr
    velocity 0.0616712632842144 0.7079262894952180 -0.3635134893359178
atom 2.1142990283032610 0.2222957773818360 27.3449211644243597 Zr
    velocity 0.3481360867226456 -0.2732902597000037 -0.0572344359417455
atom 7.2662990283032585 0.2222957773818360 27.3449211644243597 Zr
    velocity 0.2584358452838078 0.0481206566309875 -0.3485131206415881
atom 12.4182990283032595 0.2222957773818360 27.3449211644243597 Zr
    velocity 0.3707172232453324 0.6304017925384302 0.0916688177151060
atom 17.5702990283032570 0.2222957773818360 27.3449211644243597 Zr
    velocity 0.4006551604282474 0.3425415464285421 -0.1859273095631395
atom 22.7222990283032580 0.2222957773818360 27.3449211644243597 Zr
    velocity -0.1134858250873780 0.0504466018769010 -0.9232516689351726
atom -3.0377009716967405 5.4332957773818338 27.3449211644243597 Zr
    velocity -0.8047986328619934 -0.0348002849638977 0.1750171236805493
atom 2.1142990283032610 5.4332957773818338 27.3449211644243597 Zr
    velocity 0.2153642798632656 -0.0640290110791048 0.2570739066204367
atom 7.2662990283032585 5.4332957773818338 27.3449211644243597 Zr
    velocity -0.0319371498211691 -0.4426668718953377 -0.1103446475055939
atom 12.4182990283032595 5.4332957773818338 27.3449211644243597 Zr
    velocity 0.1677957245308858 0.1021120555102433 -0.0247118531508433
atom 17.5702990283032570 5.4332957773818338 27.3449211644243597 Zr
    velocity -0.0169636152547853 -0.2667349714264741 0.3494719483211448
atom 22.7222990283032580 5.4332957773818338 27.3449211644243597 Zr
    velocity 0.0361029885395290 0.0367590158886752 -0.1770443986776156
atom -3.0377009716967405 10.6442957773818350 27.3449211644243597 Zr
    velocity -0.0556232983184977 0.1960917599973512 -0.3967975249124083
atom 2.1142990283032610 10.6442957773818350 27.3449211644243597 Zr
    velocity 0.0969438804507169 -0.2932269110483052 0.2329609411784873
atom 7.2662990283032585 10.6442957773818350 27.3449211644243597 Zr
    velocity -0.4990849718983495 0.3278012431434815 -0.2380813504571475
atom 12.4182990283032595 10.6442957773818350 27.3449211644243597 Zr
    velocity -0.0203948514552911 -0.1985819199674828 -0.1013312228591897
atom 17.5702990283032570 10.6442957773818350 27.3449211644243597 Zr
    velocity -0.0140055667002706 0.2654208405117832 0.2300630438879001
atom 22.7222990283032580 10.6442957773818350 27.3449211644243597 Zr
    velocity -0.0349940729259229 -0.4382974568754692 -0.1838350387965255
atom -3.0377009716967405 15.8552957773818353 27.3449211644243597 Zr
    velocity -0.0280947388766055 0.2780898821813003 0.0448607492632917
atom 2.1142990283032610 15.8552957773818353 27.3449211644243597 Zr
    velocity -0.3553753356857507 -0.4311478977636481 -0.2033967165440012
atom 7.2662990283032585 15.8552957773818353 27.3449211644243597 Zr
    velocity -0.2615532707571017 0.0910611504958260 0.2106366507740936
atom 12.4182990283032595 15.8552957773818353 27.3449211644243597 Zr
    velocity -0.1687108655989961 0.2643073964720234 0.4109139443107055
atom 17.5702990283032570 15.8552957773818353 27.3449211644243597 Zr
    velocity 0.1132640237410788 -0.3451248050366865 -0.0653153516630473
atom 22.7222990283032580 15.8552957773818353 27.3449211644243597 Zr
    velocity 0.2872312635695428 0.3329240889054292 0.0330275621111326
atom -3.0377009716967405 21.0662957773818391 27.3449211644243597 Zr
    velocity 0.0477661231584389 0.0321799146254491 0.2488892804875328
atom 2.1142990283032610 21.0662957773818391 27.3449211644243597 Zr
    velocity 0.0709488708017334 0.0734772587053216 -0.2782793336166137
atom 7.2662990283032585 21.0662957773818391 27.3449211644243597 Zr
    velocity 0.1021927419105099 -0.0566744948189375 -0.1824976448336352
atom 12.4182990283032595 21.0662957773818391 27.3449211644243597 Zr
    velocity -0.0308909063910641 -0.0831475565084859 -0.2785484622959374
atom 17.5702990283032570 21.0662957773818391 27.3449211644243597 Zr
    velocity -0.7794044120399444 -0.1573154647937768 0.0546183413651242
atom 22.7222990283032580 21.0662957773818391 27.3449211644243597 Zr
    velocity 0.2351536390888955 -0.6036442021263725 0.0667670039807404
atom -3.0377009716967405 26.2772957773818376 27.3449211644243597 Zr
    velocity 0.2001413324588230 -0.0958229374942490 0.1750098494376471