#=======================================================
# FHI-aims file: 400_geometry.in.primitive.supercell_2592
# Created using the Atomic Simulation Environment (ASE)
# Fri Dec 30 21:08:34 2022

# Additional information:
#  Number of atoms:     2592
#  Spacegroup:          14
#  supercell:           True
#  supercell_matrix:    [6, 0, 0, 0, 6, 0, 0, 0, 6]
#  Supercell matrix:    [6 0 0 0 6 0 0 0 6]
#=======================================================
lattice_vector 30.9119999999999990 0.0000000000000000 0.0000000000000000 
lattice_vector 0.0000000000000000 31.2660000000000018 0.0000000000000000 
lattice_vector -5.1399666293629735 0.0000000000000000 31.4912877959767599 
atom_frac 0.0461148143903333 0.0071098246460000 0.0349995637391667 Zr
atom_frac 0.2127814810570000 0.0071098246460000 0.0349995637391667 Zr
atom_frac 0.3794481477236666 0.0071098246460000 0.0349995637391667 Zr
atom_frac 0.5461148143903333 0.0071098246460000 0.0349995637391667 Zr
atom_frac 0.7127814810569999 0.0071098246460000 0.0349995637391667 Zr
atom_frac 0.8794481477236666 0.0071098246460000 0.0349995637391667 Zr
atom_frac 0.0461148143903333 0.1737764913126666 0.0349995637391667 Zr
atom_frac 0.2127814810570000 0.1737764913126666 0.0349995637391667 Zr
atom_frac 0.3794481477236666 0.1737764913126666 0.0349995637391667 Zr
atom_frac 0.5461148143903333 0.1737764913126666 0.0349995637391667 Zr
atom_frac 0.7127814810569999 0.1737764913126666 0.0349995637391667 Zr
atom_frac 0.8794481477236666 0.1737764913126666 0.0349995637391667 Zr
atom_frac 0.0461148143903333 0.3404431579793333 0.0349995637391667 Zr
atom_frac 0.2127814810570000 0.3404431579793333 0.0349995637391667 Zr
atom_frac 0.3794481477236666 0.3404431579793333 0.0349995637391667 Zr
atom_frac 0.5461148143903333 0.3404431579793333 0.0349995637391667 Zr
atom_frac 0.7127814810569999 0.3404431579793333 0.0349995637391667 Zr
atom_frac 0.8794481477236666 0.3404431579793333 0.0349995637391667 Zr
atom_frac 0.0461148143903333 0.5071098246460000 0.0349995637391667 Zr
atom_frac 0.2127814810570000 0.5071098246460000 0.0349995637391667 Zr
atom_frac 0.3794481477236666 0.5071098246460000 0.0349995637391667 Zr
atom_frac 0.5461148143903333 0.5071098246460000 0.0349995637391667 Zr
atom_frac 0.7127814810569999 0.5071098246460000 0.0349995637391667 Zr
atom_frac 0.8794481477236666 0.5071098246460000 0.0349995637391667 Zr
atom_frac 0.0461148143903333 0.6737764913126667 0.0349995637391667 Zr
atom_frac 0.2127814810570000 0.6737764913126667 0.0349995637391667 Zr
atom_frac 0.3794481477236666 0.6737764913126667 0.0349995637391667 Zr
atom_frac 0.5461148143903333 0.6737764913126667 0.0349995637391667 Zr
atom_frac 0.7127814810569999 0.6737764913126667 0.0349995637391667 Zr
atom_frac 0.8794481477236666 0.6737764913126667 0.0349995637391667 Zr
atom_frac 0.0461148143903333 0.8404431579793333 0.0349995637391667 Zr
atom_frac 0.2127814810570000 0.8404431579793333 0.0349995637391667 Zr
atom_frac 0.3794481477236666 0.8404431579793333 0.0349995637391667 Zr
atom_frac 0.5461148143903333 0.8404431579793333 0.0349995637391667 Zr
atom_frac 0.7127814810569999 0.8404431579793333 0.0349995637391667 Zr
atom_frac 0.8794481477236666 0.8404431579793333 0.0349995637391667 Zr
atom_frac 0.0461148143903333 0.0071098246460000 0.2016662304058333 Zr
atom_frac 0.2127814810570000 0.0071098246460000 0.2016662304058333 Zr
atom_frac 0.3794481477236668 0.0071098246460000 0.2016662304058333 Zr
atom_frac 0.5461148143903333 0.0071098246460000 0.2016662304058333 Zr
atom_frac 0.7127814810569999 0.0071098246460000 0.2016662304058333 Zr
atom_frac 0.8794481477236666 0.0071098246460000 0.2016662304058333 Zr
atom_frac 0.0461148143903333 0.1737764913126666 0.2016662304058333 Zr
atom_frac 0.2127814810570000 0.1737764913126666 0.2016662304058333 Zr
atom_frac 0.3794481477236668 0.1737764913126666 0.2016662304058333 Zr
atom_frac 0.5461148143903333 0.1737764913126666 0.2016662304058333 Zr
atom_frac 0.7127814810569999 0.1737764913126666 0.2016662304058333 Zr
atom_frac 0.8794481477236666 0.1737764913126666 0.2016662304058333 Zr
atom_frac 0.0461148143903333 0.3404431579793333 0.2016662304058333 Zr
atom_frac 0.2127814810570000 0.3404431579793333 0.2016662304058333 Zr
atom_frac 0.3794481477236668 0.3404431579793333 0.2016662304058333 Zr
atom_frac 0.5461148143903333 0.3404431579793333 0.2016662304058333 Zr
atom_frac 0.7127814810569999 0.3404431579793333 0.2016662304058333 Zr
atom_frac 0.8794481477236666 0.3404431579793333 0.2016662304058333 Zr
atom_frac 0.0461148143903333 0.5071098246460000 0.2016662304058333 Zr
atom_frac 0.2127814810570000 0.5071098246460000 0.2016662304058333 Zr
atom_frac 0.3794481477236668 0.5071098246460000 0.2016662304058333 Zr
atom_frac 0.5461148143903333 0.5071098246460000 0.2016662304058333 Zr
atom_frac 0.7127814810569999 0.5071098246460000 0.2016662304058333 Zr
atom_frac 0.8794481477236666 0.5071098246460000 0.2016662304058333 Zr
atom_frac 0.0461148143903333 0.6737764913126667 0.2016662304058333 Zr
atom_frac 0.2127814810570000 0.6737764913126667 0.2016662304058333 Zr
atom_frac 0.3794481477236668 0.6737764913126667 0.2016662304058333 Zr
atom_frac 0.5461148143903333 0.6737764913126667 0.2016662304058333 Zr
atom_frac 0.7127814810569999 0.6737764913126667 0.2016662304058333 Zr
atom_frac 0.8794481477236666 0.6737764913126667 0.2016662304058333 Zr
atom_frac 0.0461148143903333 0.8404431579793333 0.2016662304058333 Zr
atom_frac 0.2127814810570000 0.8404431579793333 0.2016662304058333 Zr
atom_frac 0.3794481477236668 0.8404431579793333 0.2016662304058333 Zr
atom_frac 0.5461148143903333 0.8404431579793333 0.2016662304058333 Zr
atom_frac 0.7127814810569999 0.8404431579793333 0.2016662304058333 Zr
atom_frac 0.8794481477236666 0.8404431579793333 0.2016662304058333 Zr
atom_frac 0.0461148143903333 0.0071098246460000 0.3683328970725000 Zr
atom_frac 0.2127814810570000 0.0071098246460000 0.3683328970725000 Zr
atom_frac 0.3794481477236666 0.0071098246460000 0.3683328970725000 Zr
atom_frac 0.5461148143903333 0.0071098246460000 0.3683328970725000 Zr
atom_frac 0.7127814810569999 0.0071098246460000 0.3683328970725000 Zr
atom_frac 0.8794481477236666 0.0071098246460000 0.3683328970725000 Zr
atom_frac 0.0461148143903333 0.1737764913126666 0.3683328970725000 Zr
atom_frac 0.2127814810570000 0.1737764913126666 0.3683328970725000 Zr
atom_frac 0.3794481477236666 0.1737764913126666 0.3683328970725000 Zr
atom_frac 0.5461148143903333 0.1737764913126666 0.3683328970725000 Zr
atom_frac 0.7127814810569999 0.1737764913126666 0.3683328970725000 Zr
atom_frac 0.8794481477236666 0.1737764913126666 0.3683328970725000 Zr
atom_frac 0.0461148143903333 0.3404431579793333 0.3683328970725000 Zr
atom_frac 0.2127814810570000 0.3404431579793333 0.3683328970725000 Zr
atom_frac 0.3794481477236666 0.3404431579793333 0.3683328970725000 Zr
atom_frac 0.5461148143903333 0.3404431579793333 0.3683328970725000 Zr
atom_frac 0.7127814810569999 0.3404431579793333 0.3683328970725000 Zr
atom_frac 0.8794481477236666 0.3404431579793333 0.3683328970725000 Zr
atom_frac 0.0461148143903333 0.5071098246460000 0.3683328970725000 Zr
atom_frac 0.2127814810570000 0.5071098246460000 0.3683328970725000 Zr
atom_frac 0.3794481477236666 0.5071098246460000 0.3683328970725000 Zr
atom_frac 0.5461148143903333 0.5071098246460000 0.3683328970725000 Zr
atom_frac 0.7127814810569999 0.5071098246460000 0.3683328970725000 Zr
atom_frac 0.8794481477236666 0.5071098246460000 0.3683328970725000 Zr
atom_frac 0.0461148143903333 0.6737764913126667 0.3683328970725000 Zr
atom_frac 0.2127814810570000 0.6737764913126667 0.3683328970725000 Zr
atom_frac 0.3794481477236666 0.6737764913126667 0.3683328970725000 Zr
atom_frac 0.5461148143903333 0.6737764913126667 0.3683328970725000 Zr
atom_frac 0.7127814810569999 0.6737764913126667 0.3683328970725000 Zr
atom_frac 0.8794481477236666 0.6737764913126667 0.3683328970725000 Zr
atom_frac 0.0461148143903333 0.8404431579793333 0.3683328970725000 Zr
atom_frac 0.2127814810570000 0.8404431579793333 0.3683328970725000 Zr
atom_frac 0.3794481477236666 0.8404431579793333 0.3683328970725000 Zr
atom_frac 0.5461148143903333 0.8404431579793333 0.3683328970725000 Zr
atom_frac 0.7127814810569999 0.8404431579793333 0.3683328970725000 Zr
atom_frac 0.8794481477236666 0.8404431579793333 0.3683328970725000 Zr
atom_frac 0.0461148143903333 0.0071098246460000 0.5349995637391667 Zr
atom_frac 0.2127814810570000 0.0071098246460000 0.5349995637391667 Zr
atom_frac 0.3794481477236666 0.0071098246460000 0.5349995637391667 Zr
atom_frac 0.5461148143903333 0.0071098246460000 0.5349995637391667 Zr
atom_frac 0.7127814810569999 0.0071098246460000 0.5349995637391667 Zr
atom_frac 0.8794481477236666 0.0071098246460000 0.5349995637391667 Zr
atom_frac 0.0461148143903333 0.1737764913126666 0.5349995637391667 Zr
atom_frac 0.2127814810570000 0.1737764913126666 0.5349995637391667 Zr
atom_frac 0.3794481477236666 0.1737764913126666 0.5349995637391667 Zr
atom_frac 0.5461148143903333 0.1737764913126666 0.5349995637391667 Zr
atom_frac 0.7127814810569999 0.1737764913126666 0.5349995637391667 Zr
atom_frac 0.8794481477236666 0.1737764913126666 0.5349995637391667 Zr
atom_frac 0.0461148143903333 0.3404431579793333 0.5349995637391667 Zr
atom_frac 0.2127814810570000 0.3404431579793333 0.5349995637391667 Zr
atom_frac 0.3794481477236666 0.3404431579793333 0.5349995637391667 Zr
atom_frac 0.5461148143903333 0.3404431579793333 0.5349995637391667 Zr
atom_frac 0.7127814810569999 0.3404431579793333 0.5349995637391667 Zr
atom_frac 0.8794481477236666 0.3404431579793333 0.5349995637391667 Zr
atom_frac 0.0461148143903333 0.5071098246460000 0.5349995637391667 Zr
atom_frac 0.2127814810570000 0.5071098246460000 0.5349995637391667 Zr
atom_frac 0.3794481477236666 0.5071098246460000 0.5349995637391667 Zr
atom_frac 0.5461148143903333 0.5071098246460000 0.5349995637391667 Zr
atom_frac 0.7127814810569999 0.5071098246460000 0.5349995637391667 Zr
atom_frac 0.8794481477236666 0.5071098246460000 0.5349995637391667 Zr
atom_frac 0.0461148143903333 0.6737764913126667 0.5349995637391667 Zr
atom_frac 0.2127814810570000 0.6737764913126667 0.5349995637391667 Zr
atom_frac 0.3794481477236666 0.6737764913126667 0.5349995637391667 Zr
atom_frac 0.5461148143903333 0.6737764913126667 0.5349995637391667 Zr
atom_frac 0.7127814810569999 0.6737764913126667 0.5349995637391667 Zr
atom_frac 0.8794481477236666 0.6737764913126667 0.5349995637391667 Zr
atom_frac 0.0461148143903333 0.8404431579793333 0.5349995637391667 Zr
atom_frac 0.2127814810570000 0.8404431579793333 0.5349995637391667 Zr
atom_frac 0.3794481477236666 0.8404431579793333 0.5349995637391667 Zr
atom_frac 0.5461148143903333 0.8404431579793333 0.5349995637391667 Zr
atom_frac 0.7127814810569999 0.8404431579793333 0.5349995637391667 Zr
atom_frac 0.8794481477236666 0.8404431579793333 0.5349995637391667 Zr
atom_frac 0.0461148143903333 0.0071098246460000 0.7016662304058332 Zr
atom_frac 0.2127814810570000 0.0071098246460000 0.7016662304058332 Zr
atom_frac 0.3794481477236666 0.0071098246460000 0.7016662304058332 Zr
atom_frac 0.5461148143903333 0.0071098246460000 0.7016662304058332 Zr
atom_frac 0.7127814810569998 0.0071098246460000 0.7016662304058332 Zr
atom_frac 0.8794481477236665 0.0071098246460000 0.7016662304058332 Zr
atom_frac 0.0461148143903333 0.1737764913126666 0.7016662304058332 Zr
atom_frac 0.2127814810570000 0.1737764913126666 0.7016662304058332 Zr
atom_frac 0.3794481477236666 0.1737764913126666 0.7016662304058332 Zr
atom_frac 0.5461148143903333 0.1737764913126666 0.7016662304058332 Zr
atom_frac 0.7127814810569998 0.1737764913126666 0.7016662304058332 Zr
atom_frac 0.8794481477236665 0.1737764913126666 0.7016662304058332 Zr
atom_frac 0.0461148143903333 0.3404431579793333 0.7016662304058332 Zr
atom_frac 0.2127814810570000 0.3404431579793333 0.7016662304058332 Zr
atom_frac 0.3794481477236666 0.3404431579793333 0.7016662304058332 Zr
atom_frac 0.5461148143903333 0.3404431579793333 0.7016662304058332 Zr
atom_frac 0.7127814810569998 0.3404431579793333 0.7016662304058332 Zr
atom_frac 0.8794481477236665 0.3404431579793333 0.7016662304058332 Zr
atom_frac 0.0461148143903333 0.5071098246460000 0.7016662304058332 Zr
atom_frac 0.2127814810570000 0.5071098246460000 0.7016662304058332 Zr
atom_frac 0.3794481477236666 0.5071098246460000 0.7016662304058332 Zr
atom_frac 0.5461148143903333 0.5071098246460000 0.7016662304058332 Zr
atom_frac 0.7127814810569998 0.5071098246460000 0.7016662304058332 Zr
atom_frac 0.8794481477236665 0.5071098246460000 0.7016662304058332 Zr
atom_frac 0.0461148143903333 0.6737764913126667 0.7016662304058332 Zr
atom_frac 0.2127814810570000 0.6737764913126667 0.7016662304058332 Zr
atom_frac 0.3794481477236666 0.6737764913126667 0.7016662304058332 Zr
atom_frac 0.5461148143903333 0.6737764913126667 0.7016662304058332 Zr
atom_frac 0.7127814810569998 0.6737764913126667 0.7016662304058332 Zr
atom_frac 0.8794481477236665 0.6737764913126667 0.7016662304058332 Zr
atom_frac 0.0461148143903333 0.8404431579793333 0.7016662304058332 Zr
atom_frac 0.2127814810570000 0.8404431579793333 0.7016662304058332 Zr
atom_frac 0.3794481477236666 0.8404431579793333 0.7016662304058332 Zr
atom_frac 0.5461148143903333 0.8404431579793333 0.7016662304058332 Zr
atom_frac 0.7127814810569998 0.8404431579793333 0.7016662304058332 Zr
atom_frac 0.8794481477236665 0.8404431579793333 0.7016662304058332 Zr
atom_frac 0.0461148143903333 0.0071098246460000 0.8683328970724999 Zr
atom_frac 0.2127814810570000 0.0071098246460000 0.8683328970724999 Zr
atom_frac 0.3794481477236666 0.0071098246460000 0.8683328970724999 Zr
atom_frac 0.5461148143903333 0.0071098246460000 0.8683328970724999 Zr
atom_frac 0.7127814810569999 0.0071098246460000 0.8683328970724999 Zr
atom_frac 0.8794481477236666 0.0071098246460000 0.8683328970724999 Zr
atom_frac 0.0461148143903333 0.1737764913126666 0.8683328970724999 Zr
atom_frac 0.2127814810570000 0.1737764913126666 0.8683328970724999 Zr
atom_frac 0.3794481477236666 0.1737764913126666 0.8683328970724999 Zr
atom_frac 0.5461148143903333 0.1737764913126666 0.8683328970724999 Zr
atom_frac 0.7127814810569999 0.1737764913126666 0.8683328970724999 Zr
atom_frac 0.8794481477236666 0.1737764913126666 0.8683328970724999 Zr
atom_frac 0.0461148143903333 0.3404431579793333 0.8683328970724999 Zr
atom_frac 0.2127814810570000 0.3404431579793333 0.8683328970724999 Zr
atom_frac 0.3794481477236666 0.3404431579793333 0.8683328970724999 Zr
atom_frac 0.5461148143903333 0.3404431579793333 0.8683328970724999 Zr
atom_frac 0.7127814810569999 0.3404431579793333 0.8683328970724999 Zr
atom_frac 0.8794481477236666 0.3404431579793333 0.8683328970724999 Zr
atom_frac 0.0461148143903333 0.5071098246460000 0.8683328970724999 Zr
atom_frac 0.2127814810570000 0.5071098246460000 0.8683328970724999 Zr
atom_frac 0.3794481477236666 0.5071098246460000 0.8683328970724999 Zr
atom_frac 0.5461148143903333 0.5071098246460000 0.8683328970724999 Zr
atom_frac 0.7127814810569999 0.5071098246460000 0.8683328970724999 Zr
atom_frac 0.8794481477236666 0.5071098246460000 0.8683328970724999 Zr
atom_frac 0.0461148143903333 0.6737764913126667 0.8683328970724999 Zr
atom_frac 0.2127814810570000 0.6737764913126667 0.8683328970724999 Zr
atom_frac 0.3794481477236666 0.6737764913126667 0.8683328970724999 Zr
atom_frac 0.5461148143903333 0.6737764913126667 0.8683328970724999 Zr
atom_frac 0.7127814810569999 0.6737764913126667 0.8683328970724999 Zr
atom_frac 0.8794481477236666 0.6737764913126667 0.8683328970724999 Zr
atom_frac 0.0461148143903333 0.8404431579793333 0.8683328970724999 Zr
atom_frac 0.2127814810570000 0.8404431579793333 0.8683328970724999 Zr
atom_frac 0.3794481477236666 0.8404431579793333 0.8683328970724999 Zr
atom_frac 0.5461148143903333 0.8404431579793333 0.8683328970724999 Zr
atom_frac 0.7127814810569999 0.8404431579793333 0.8683328970724999 Zr
atom_frac 0.8794481477236666 0.8404431579793333 0.8683328970724999 Zr
atom_frac 0.1205518427763334 0.1595568420206667 0.1316671052608333 Zr
atom_frac 0.2872185094430000 0.1595568420206667 0.1316671052608333 Zr
atom_frac 0.4538851761096666 0.1595568420206667 0.1316671052608333 Zr
atom_frac 0.6205518427763332 0.1595568420206667 0.1316671052608333 Zr
atom_frac 0.7872185094430000 0.1595568420206667 0.1316671052608333 Zr
atom_frac 0.9538851761096666 0.1595568420206667 0.1316671052608333 Zr
atom_frac 0.1205518427763334 0.3262235086873333 0.1316671052608333 Zr
atom_frac 0.2872185094430000 0.3262235086873333 0.1316671052608333 Zr
atom_frac 0.4538851761096666 0.3262235086873333 0.1316671052608333 Zr
atom_frac 0.6205518427763332 0.3262235086873333 0.1316671052608333 Zr
atom_frac 0.7872185094430000 0.3262235086873333 0.1316671052608333 Zr
atom_frac 0.9538851761096666 0.3262235086873333 0.1316671052608333 Zr
atom_frac 0.1205518427763334 0.4928901753540000 0.1316671052608333 Zr
atom_frac 0.2872185094430000 0.4928901753540000 0.1316671052608333 Zr
atom_frac 0.4538851761096666 0.4928901753540000 0.1316671052608333 Zr
atom_frac 0.6205518427763332 0.4928901753540000 0.1316671052608333 Zr
atom_frac 0.7872185094430000 0.4928901753540000 0.1316671052608333 Zr
atom_frac 0.9538851761096666 0.4928901753540000 0.1316671052608333 Zr
atom_frac 0.1205518427763334 0.6595568420206667 0.1316671052608333 Zr
atom_frac 0.2872185094430000 0.6595568420206667 0.1316671052608333 Zr
atom_frac 0.4538851761096666 0.6595568420206667 0.1316671052608333 Zr
atom_frac 0.6205518427763332 0.6595568420206667 0.1316671052608333 Zr
atom_frac 0.7872185094430000 0.6595568420206667 0.1316671052608333 Zr
atom_frac 0.9538851761096666 0.6595568420206667 0.1316671052608333 Zr
atom_frac 0.1205518427763334 0.8262235086873334 0.1316671052608333 Zr
atom_frac 0.2872185094430000 0.8262235086873334 0.1316671052608333 Zr
atom_frac 0.4538851761096666 0.8262235086873334 0.1316671052608333 Zr
atom_frac 0.6205518427763332 0.8262235086873334 0.1316671052608333 Zr
atom_frac 0.7872185094430000 0.8262235086873334 0.1316671052608333 Zr
atom_frac 0.9538851761096666 0.8262235086873334 0.1316671052608333 Zr
atom_frac 0.1205518427763334 0.9928901753540000 0.1316671052608333 Zr
atom_frac 0.2872185094430000 0.9928901753540000 0.1316671052608333 Zr
atom_frac 0.4538851761096666 0.9928901753540000 0.1316671052608333 Zr
atom_frac 0.6205518427763332 0.9928901753540000 0.1316671052608333 Zr
atom_frac 0.7872185094430000 0.9928901753540000 0.1316671052608333 Zr
atom_frac 0.9538851761096666 0.9928901753540000 0.1316671052608333 Zr
atom_frac 0.1205518427763334 0.1595568420206667 0.2983337719275000 Zr
atom_frac 0.2872185094430000 0.1595568420206667 0.2983337719275000 Zr
atom_frac 0.4538851761096666 0.1595568420206667 0.2983337719275000 Zr
atom_frac 0.6205518427763332 0.1595568420206667 0.2983337719275000 Zr
atom_frac 0.7872185094430000 0.1595568420206667 0.2983337719275000 Zr
atom_frac 0.9538851761096666 0.1595568420206667 0.2983337719275000 Zr
atom_frac 0.1205518427763334 0.3262235086873333 0.2983337719275000 Zr
atom_frac 0.2872185094430000 0.3262235086873333 0.2983337719275000 Zr
atom_frac 0.4538851761096666 0.3262235086873333 0.2983337719275000 Zr
atom_frac 0.6205518427763332 0.3262235086873333 0.2983337719275000 Zr
atom_frac 0.7872185094430000 0.3262235086873333 0.2983337719275000 Zr
atom_frac 0.9538851761096666 0.3262235086873333 0.2983337719275000 Zr
atom_frac 0.1205518427763334 0.4928901753540000 0.2983337719275000 Zr
atom_frac 0.2872185094430000 0.4928901753540000 0.2983337719275000 Zr
atom_frac 0.4538851761096666 0.4928901753540000 0.2983337719275000 Zr
atom_frac 0.6205518427763332 0.4928901753540000 0.2983337719275000 Zr
atom_frac 0.7872185094430000 0.4928901753540000 0.2983337719275000 Zr
atom_frac 0.9538851761096666 0.4928901753540000 0.2983337719275000 Zr
atom_frac 0.1205518427763334 0.6595568420206667 0.2983337719275000 Zr
atom_frac 0.2872185094430000 0.6595568420206667 0.2983337719275000 Zr
atom_frac 0.4538851761096666 0.6595568420206667 0.2983337719275000 Zr
atom_frac 0.6205518427763332 0.6595568420206667 0.2983337719275000 Zr
atom_frac 0.7872185094430000 0.6595568420206667 0.2983337719275000 Zr
atom_frac 0.9538851761096666 0.6595568420206667 0.2983337719275000 Zr
atom_frac 0.1205518427763334 0.8262235086873334 0.2983337719275000 Zr
atom_frac 0.2872185094430000 0.8262235086873334 0.2983337719275000 Zr
atom_frac 0.4538851761096666 0.8262235086873334 0.2983337719275000 Zr
atom_frac 0.6205518427763332 0.8262235086873334 0.2983337719275000 Zr
atom_frac 0.7872185094430000 0.8262235086873334 0.2983337719275000 Zr
atom_frac 0.9538851761096666 0.8262235086873334 0.2983337719275000 Zr
atom_frac 0.1205518427763334 0.9928901753540000 0.2983337719275000 Zr
atom_frac 0.2872185094430000 0.9928901753540000 0.2983337719275000 Zr
atom_frac 0.4538851761096666 0.9928901753540000 0.2983337719275000 Zr
atom_frac 0.6205518427763332 0.9928901753540000 0.2983337719275000 Zr
atom_frac 0.7872185094430000 0.9928901753540000 0.2983337719275000 Zr
atom_frac 0.9538851761096666 0.9928901753540000 0.2983337719275000 Zr
atom_frac 0.1205518427763334 0.1595568420206667 0.4650004385941667 Zr
atom_frac 0.2872185094430000 0.1595568420206667 0.4650004385941667 Zr
atom_frac 0.4538851761096666 0.1595568420206667 0.4650004385941667 Zr
atom_frac 0.6205518427763332 0.1595568420206667 0.4650004385941667 Zr
atom_frac 0.7872185094430000 0.1595568420206667 0.4650004385941667 Zr
atom_frac 0.9538851761096666 0.1595568420206667 0.4650004385941667 Zr
atom_frac 0.1205518427763334 0.3262235086873333 0.4650004385941667 Zr
atom_frac 0.2872185094430000 0.3262235086873333 0.4650004385941667 Zr
atom_frac 0.4538851761096666 0.3262235086873333 0.4650004385941667 Zr
atom_frac 0.6205518427763332 0.3262235086873333 0.4650004385941667 Zr
atom_frac 0.7872185094430000 0.3262235086873333 0.4650004385941667 Zr
atom_frac 0.9538851761096666 0.3262235086873333 0.4650004385941667 Zr
atom_frac 0.1205518427763334 0.4928901753540000 0.4650004385941667 Zr
atom_frac 0.2872185094430000 0.4928901753540000 0.4650004385941667 Zr
atom_frac 0.4538851761096666 0.4928901753540000 0.4650004385941667 Zr
atom_frac 0.6205518427763332 0.4928901753540000 0.4650004385941667 Zr
atom_frac 0.7872185094430000 0.4928901753540000 0.4650004385941667 Zr
atom_frac 0.9538851761096666 0.4928901753540000 0.4650004385941667 Zr
atom_frac 0.1205518427763334 0.6595568420206667 0.4650004385941667 Zr
atom_frac 0.2872185094430000 0.6595568420206667 0.4650004385941667 Zr
atom_frac 0.4538851761096666 0.6595568420206667 0.4650004385941667 Zr
atom_frac 0.6205518427763332 0.6595568420206667 0.4650004385941667 Zr
atom_frac 0.7872185094430000 0.6595568420206667 0.4650004385941667 Zr
atom_frac 0.9538851761096666 0.6595568420206667 0.4650004385941667 Zr
atom_frac 0.1205518427763334 0.8262235086873334 0.4650004385941667 Zr
atom_frac 0.2872185094430000 0.8262235086873334 0.4650004385941667 Zr
atom_frac 0.4538851761096666 0.8262235086873334 0.4650004385941667 Zr
atom_frac 0.6205518427763332 0.8262235086873334 0.4650004385941667 Zr
atom_frac 0.7872185094430000 0.8262235086873334 0.4650004385941667 Zr
atom_frac 0.9538851761096666 0.8262235086873334 0.4650004385941667 Zr
atom_frac 0.1205518427763334 0.9928901753540000 0.4650004385941667 Zr
atom_frac 0.2872185094430000 0.9928901753540000 0.4650004385941667 Zr
atom_frac 0.4538851761096666 0.9928901753540000 0.4650004385941667 Zr
atom_frac 0.6205518427763332 0.9928901753540000 0.4650004385941667 Zr
atom_frac 0.7872185094430000 0.9928901753540000 0.4650004385941667 Zr
atom_frac 0.9538851761096666 0.9928901753540000 0.4650004385941667 Zr
atom_frac 0.1205518427763334 0.1595568420206667 0.6316671052608334 Zr
atom_frac 0.2872185094430000 0.1595568420206667 0.6316671052608334 Zr
atom_frac 0.4538851761096666 0.1595568420206667 0.6316671052608334 Zr
atom_frac 0.6205518427763332 0.1595568420206667 0.6316671052608334 Zr
atom_frac 0.7872185094430000 0.1595568420206667 0.6316671052608334 Zr
atom_frac 0.9538851761096666 0.1595568420206667 0.6316671052608334 Zr
atom_frac 0.1205518427763334 0.3262235086873333 0.6316671052608334 Zr
atom_frac 0.2872185094430000 0.3262235086873333 0.6316671052608334 Zr
atom_frac 0.4538851761096666 0.3262235086873333 0.6316671052608334 Zr
atom_frac 0.6205518427763332 0.3262235086873333 0.6316671052608334 Zr
atom_frac 0.7872185094430000 0.3262235086873333 0.6316671052608334 Zr
atom_frac 0.9538851761096666 0.3262235086873333 0.6316671052608334 Zr
atom_frac 0.1205518427763334 0.4928901753540000 0.6316671052608334 Zr
atom_frac 0.2872185094430000 0.4928901753540000 0.6316671052608334 Zr
atom_frac 0.4538851761096666 0.4928901753540000 0.6316671052608334 Zr
atom_frac 0.6205518427763332 0.4928901753540000 0.6316671052608334 Zr
atom_frac 0.7872185094430000 0.4928901753540000 0.6316671052608334 Zr
atom_frac 0.9538851761096666 0.4928901753540000 0.6316671052608334 Zr
atom_frac 0.1205518427763334 0.6595568420206667 0.6316671052608334 Zr
atom_frac 0.2872185094430000 0.6595568420206667 0.6316671052608334 Zr
atom_frac 0.4538851761096666 0.6595568420206667 0.6316671052608334 Zr
atom_frac 0.6205518427763332 0.6595568420206667 0.6316671052608334 Zr
atom_frac 0.7872185094430000 0.6595568420206667 0.6316671052608334 Zr
atom_frac 0.9538851761096666 0.6595568420206667 0.6316671052608334 Zr
atom_frac 0.1205518427763334 0.8262235086873334 0.6316671052608334 Zr
atom_frac 0.2872185094430000 0.8262235086873334 0.6316671052608334 Zr
atom_frac 0.4538851761096666 0.8262235086873334 0.6316671052608334 Zr
atom_frac 0.6205518427763332 0.8262235086873334 0.6316671052608334 Zr
atom_frac 0.7872185094430000 0.8262235086873334 0.6316671052608334 Zr
atom_frac 0.9538851761096666 0.8262235086873334 0.6316671052608334 Zr
atom_frac 0.1205518427763334 0.9928901753540000 0.6316671052608334 Zr
atom_frac 0.2872185094430000 0.9928901753540000 0.6316671052608334 Zr
atom_frac 0.4538851761096666 0.9928901753540000 0.6316671052608334 Zr
atom_frac 0.6205518427763332 0.9928901753540000 0.6316671052608334 Zr
atom_frac 0.7872185094430000 0.9928901753540000 0.6316671052608334 Zr
atom_frac 0.9538851761096666 0.9928901753540000 0.6316671052608334 Zr
atom_frac 0.1205518427763334 0.1595568420206667 0.7983337719274999 Zr
atom_frac 0.2872185094430000 0.1595568420206667 0.7983337719274999 Zr
atom_frac 0.4538851761096666 0.1595568420206667 0.7983337719274999 Zr
atom_frac 0.6205518427763332 0.1595568420206667 0.7983337719274999 Zr
atom_frac 0.7872185094430001 0.1595568420206667 0.7983337719274999 Zr
atom_frac 0.9538851761096667 0.1595568420206667 0.7983337719274999 Zr
atom_frac 0.1205518427763334 0.3262235086873333 0.7983337719274999 Zr
atom_frac 0.2872185094430000 0.3262235086873333 0.7983337719274999 Zr
atom_frac 0.4538851761096666 0.3262235086873333 0.7983337719274999 Zr
atom_frac 0.6205518427763332 0.3262235086873333 0.7983337719274999 Zr
atom_frac 0.7872185094430001 0.3262235086873333 0.7983337719274999 Zr
atom_frac 0.9538851761096667 0.3262235086873333 0.7983337719274999 Zr
atom_frac 0.1205518427763334 0.4928901753540000 0.7983337719274999 Zr
atom_frac 0.2872185094430000 0.4928901753540000 0.7983337719274999 Zr
atom_frac 0.4538851761096666 0.4928901753540000 0.7983337719274999 Zr
atom_frac 0.6205518427763332 0.4928901753540000 0.7983337719274999 Zr
atom_frac 0.7872185094430001 0.4928901753540000 0.7983337719274999 Zr
atom_frac 0.9538851761096667 0.4928901753540000 0.7983337719274999 Zr
atom_frac 0.1205518427763334 0.6595568420206667 0.7983337719274999 Zr
atom_frac 0.2872185094430000 0.6595568420206667 0.7983337719274999 Zr
atom_frac 0.4538851761096666 0.6595568420206667 0.7983337719274999 Zr
atom_frac 0.6205518427763332 0.6595568420206667 0.7983337719274999 Zr
atom_frac 0.7872185094430001 0.6595568420206667 0.7983337719274999 Zr
atom_frac 0.9538851761096667 0.6595568420206667 0.7983337719274999 Zr
atom_frac 0.1205518427763334 0.8262235086873334 0.7983337719274999 Zr
atom_frac 0.2872185094430000 0.8262235086873334 0.7983337719274999 Zr
atom_frac 0.4538851761096666 0.8262235086873334 0.7983337719274999 Zr
atom_frac 0.6205518427763332 0.8262235086873334 0.7983337719274999 Zr
atom_frac 0.7872185094430001 0.8262235086873334 0.7983337719274999 Zr
atom_frac 0.9538851761096667 0.8262235086873334 0.7983337719274999 Zr
atom_frac 0.1205518427763334 0.9928901753540000 0.7983337719274999 Zr
atom_frac 0.2872185094430000 0.9928901753540000 0.7983337719274999 Zr
atom_frac 0.4538851761096666 0.9928901753540000 0.7983337719274999 Zr
atom_frac 0.6205518427763332 0.9928901753540000 0.7983337719274999 Zr
atom_frac 0.7872185094430001 0.9928901753540000 0.7983337719274999 Zr
atom_frac 0.9538851761096667 0.9928901753540000 0.7983337719274999 Zr
atom_frac 0.1205518427763334 0.1595568420206667 0.9650004385941667 Zr
atom_frac 0.2872185094430000 0.1595568420206667 0.9650004385941667 Zr
atom_frac 0.4538851761096666 0.1595568420206667 0.9650004385941667 Zr
atom_frac 0.6205518427763332 0.1595568420206667 0.9650004385941667 Zr
atom_frac 0.7872185094430000 0.1595568420206667 0.9650004385941667 Zr
atom_frac 0.9538851761096666 0.1595568420206667 0.9650004385941667 Zr
atom_frac 0.1205518427763334 0.3262235086873333 0.9650004385941667 Zr
atom_frac 0.2872185094430000 0.3262235086873333 0.9650004385941667 Zr
atom_frac 0.4538851761096666 0.3262235086873333 0.9650004385941667 Zr
atom_frac 0.6205518427763332 0.3262235086873333 0.9650004385941667 Zr
atom_frac 0.7872185094430000 0.3262235086873333 0.9650004385941667 Zr
atom_frac 0.9538851761096666 0.3262235086873333 0.9650004385941667 Zr
atom_frac 0.1205518427763334 0.4928901753540000 0.9650004385941667 Zr
atom_frac 0.2872185094430000 0.4928901753540000 0.9650004385941667 Zr
atom_frac 0.4538851761096666 0.4928901753540000 0.9650004385941667 Zr
atom_frac 0.6205518427763332 0.4928901753540000 0.9650004385941667 Zr
atom_frac 0.7872185094430000 0.4928901753540000 0.9650004385941667 Zr
atom_frac 0.9538851761096666 0.4928901753540000 0.9650004385941667 Zr
atom_frac 0.1205518427763334 0.6595568420206667 0.9650004385941667 Zr
atom_frac 0.2872185094430000 0.6595568420206667 0.9650004385941667 Zr
atom_frac 0.4538851761096666 0.6595568420206667 0.9650004385941667 Zr
atom_frac 0.6205518427763332 0.6595568420206667 0.9650004385941667 Zr