#=======================================================
# FHI-aims file: 450_geometry.in.primitive.supercell_8748
# Created using the Atomic Simulation Environment (ASE)
# Tue Oct 18 13:09:26 2022

# Additional information:
#  Number of atoms:     8748
#  Spacegroup:          14
#  supercell:           True
#  supercell_matrix:    [9, 0, 0, 0, 9, 0, 0, 0, 9]
#  Supercell matrix:    [9 0 0 0 9 0 0 0 9]
#=======================================================
lattice_vector 46.3859999999999957 0.0000000000000000 0.0000000000000000 
lattice_vector 0.0000000000000000 46.8990000000000009 0.0000000000000000 
lattice_vector -7.7074983605457206 0.0000000000000000 47.2738074732952427 
atom_frac 0.0307432095935556 0.0047398830973333 0.0233330424927778 Zr
atom_frac 0.1418543207046667 0.0047398830973333 0.0233330424927778 Zr
atom_frac 0.2529654318157777 0.0047398830973333 0.0233330424927778 Zr
atom_frac 0.3640765429268888 0.0047398830973333 0.0233330424927778 Zr
atom_frac 0.4751876540379999 0.0047398830973333 0.0233330424927778 Zr
atom_frac 0.5862987651491111 0.0047398830973333 0.0233330424927778 Zr
atom_frac 0.6974098762602221 0.0047398830973333 0.0233330424927778 Zr
atom_frac 0.8085209873713332 0.0047398830973333 0.0233330424927778 Zr
atom_frac 0.9196320984824444 0.0047398830973333 0.0233330424927778 Zr
atom_frac 0.0307432095935556 0.1158509942084444 0.0233330424927778 Zr
atom_frac 0.1418543207046667 0.1158509942084444 0.0233330424927778 Zr
atom_frac 0.2529654318157777 0.1158509942084444 0.0233330424927778 Zr
atom_frac 0.3640765429268888 0.1158509942084444 0.0233330424927778 Zr
atom_frac 0.4751876540379999 0.1158509942084444 0.0233330424927778 Zr
atom_frac 0.5862987651491111 0.1158509942084444 0.0233330424927778 Zr
atom_frac 0.6974098762602221 0.1158509942084444 0.0233330424927778 Zr
atom_frac 0.8085209873713332 0.1158509942084444 0.0233330424927778 Zr
atom_frac 0.9196320984824444 0.1158509942084444 0.0233330424927778 Zr
atom_frac 0.0307432095935556 0.2269621053195556 0.0233330424927778 Zr
atom_frac 0.1418543207046667 0.2269621053195556 0.0233330424927778 Zr
atom_frac 0.2529654318157777 0.2269621053195556 0.0233330424927778 Zr
atom_frac 0.3640765429268888 0.2269621053195556 0.0233330424927778 Zr
atom_frac 0.4751876540379999 0.2269621053195556 0.0233330424927778 Zr
atom_frac 0.5862987651491111 0.2269621053195556 0.0233330424927778 Zr
atom_frac 0.6974098762602221 0.2269621053195556 0.0233330424927778 Zr
atom_frac 0.8085209873713332 0.2269621053195556 0.0233330424927778 Zr
atom_frac 0.9196320984824444 0.2269621053195556 0.0233330424927778 Zr
atom_frac 0.0307432095935556 0.3380732164306667 0.0233330424927778 Zr
atom_frac 0.1418543207046667 0.3380732164306667 0.0233330424927778 Zr
atom_frac 0.2529654318157777 0.3380732164306667 0.0233330424927778 Zr
atom_frac 0.3640765429268888 0.3380732164306667 0.0233330424927778 Zr
atom_frac 0.4751876540379999 0.3380732164306667 0.0233330424927778 Zr
atom_frac 0.5862987651491111 0.3380732164306667 0.0233330424927778 Zr
atom_frac 0.6974098762602221 0.3380732164306667 0.0233330424927778 Zr
atom_frac 0.8085209873713332 0.3380732164306667 0.0233330424927778 Zr
atom_frac 0.9196320984824444 0.3380732164306667 0.0233330424927778 Zr
atom_frac 0.0307432095935556 0.4491843275417778 0.0233330424927778 Zr
atom_frac 0.1418543207046667 0.4491843275417778 0.0233330424927778 Zr
atom_frac 0.2529654318157777 0.4491843275417778 0.0233330424927778 Zr
atom_frac 0.3640765429268888 0.4491843275417778 0.0233330424927778 Zr
atom_frac 0.4751876540379999 0.4491843275417778 0.0233330424927778 Zr
atom_frac 0.5862987651491111 0.4491843275417778 0.0233330424927778 Zr
atom_frac 0.6974098762602221 0.4491843275417778 0.0233330424927778 Zr
atom_frac 0.8085209873713332 0.4491843275417778 0.0233330424927778 Zr
atom_frac 0.9196320984824444 0.4491843275417778 0.0233330424927778 Zr
atom_frac 0.0307432095935556 0.5602954386528889 0.0233330424927778 Zr
atom_frac 0.1418543207046667 0.5602954386528889 0.0233330424927778 Zr
atom_frac 0.2529654318157777 0.5602954386528889 0.0233330424927778 Zr
atom_frac 0.3640765429268888 0.5602954386528889 0.0233330424927778 Zr
atom_frac 0.4751876540379999 0.5602954386528889 0.0233330424927778 Zr
atom_frac 0.5862987651491111 0.5602954386528889 0.0233330424927778 Zr
atom_frac 0.6974098762602221 0.5602954386528889 0.0233330424927778 Zr
atom_frac 0.8085209873713332 0.5602954386528889 0.0233330424927778 Zr
atom_frac 0.9196320984824444 0.5602954386528889 0.0233330424927778 Zr
atom_frac 0.0307432095935556 0.6714065497639999 0.0233330424927778 Zr
atom_frac 0.1418543207046667 0.6714065497639999 0.0233330424927778 Zr
atom_frac 0.2529654318157777 0.6714065497639999 0.0233330424927778 Zr
atom_frac 0.3640765429268888 0.6714065497639999 0.0233330424927778 Zr
atom_frac 0.4751876540379999 0.6714065497639999 0.0233330424927778 Zr
atom_frac 0.5862987651491111 0.6714065497639999 0.0233330424927778 Zr
atom_frac 0.6974098762602221 0.6714065497639999 0.0233330424927778 Zr
atom_frac 0.8085209873713332 0.6714065497639999 0.0233330424927778 Zr
atom_frac 0.9196320984824444 0.6714065497639999 0.0233330424927778 Zr
atom_frac 0.0307432095935556 0.7825176608751111 0.0233330424927778 Zr
atom_frac 0.1418543207046667 0.7825176608751111 0.0233330424927778 Zr
atom_frac 0.2529654318157777 0.7825176608751111 0.0233330424927778 Zr
atom_frac 0.3640765429268888 0.7825176608751111 0.0233330424927778 Zr
atom_frac 0.4751876540379999 0.7825176608751111 0.0233330424927778 Zr
atom_frac 0.5862987651491111 0.7825176608751111 0.0233330424927778 Zr
atom_frac 0.6974098762602221 0.7825176608751111 0.0233330424927778 Zr
atom_frac 0.8085209873713332 0.7825176608751111 0.0233330424927778 Zr
atom_frac 0.9196320984824444 0.7825176608751111 0.0233330424927778 Zr
atom_frac 0.0307432095935556 0.8936287719862221 0.0233330424927778 Zr
atom_frac 0.1418543207046667 0.8936287719862221 0.0233330424927778 Zr
atom_frac 0.2529654318157777 0.8936287719862221 0.0233330424927778 Zr
atom_frac 0.3640765429268888 0.8936287719862221 0.0233330424927778 Zr
atom_frac 0.4751876540379999 0.8936287719862221 0.0233330424927778 Zr
atom_frac 0.5862987651491111 0.8936287719862221 0.0233330424927778 Zr
atom_frac 0.6974098762602221 0.8936287719862221 0.0233330424927778 Zr
atom_frac 0.8085209873713332 0.8936287719862221 0.0233330424927778 Zr
atom_frac 0.9196320984824444 0.8936287719862221 0.0233330424927778 Zr
atom_frac 0.0307432095935556 0.0047398830973333 0.1344441536038889 Zr
atom_frac 0.1418543207046667 0.0047398830973333 0.1344441536038889 Zr
atom_frac 0.2529654318157777 0.0047398830973333 0.1344441536038889 Zr
atom_frac 0.3640765429268888 0.0047398830973333 0.1344441536038889 Zr
atom_frac 0.4751876540379999 0.0047398830973333 0.1344441536038889 Zr
atom_frac 0.5862987651491111 0.0047398830973333 0.1344441536038889 Zr
atom_frac 0.6974098762602221 0.0047398830973333 0.1344441536038889 Zr
atom_frac 0.8085209873713332 0.0047398830973333 0.1344441536038889 Zr
atom_frac 0.9196320984824444 0.0047398830973333 0.1344441536038889 Zr
atom_frac 0.0307432095935556 0.1158509942084444 0.1344441536038889 Zr
atom_frac 0.1418543207046667 0.1158509942084444 0.1344441536038889 Zr
atom_frac 0.2529654318157777 0.1158509942084444 0.1344441536038889 Zr
atom_frac 0.3640765429268888 0.1158509942084444 0.1344441536038889 Zr
atom_frac 0.4751876540379999 0.1158509942084444 0.1344441536038889 Zr
atom_frac 0.5862987651491111 0.1158509942084444 0.1344441536038889 Zr
atom_frac 0.6974098762602221 0.1158509942084444 0.1344441536038889 Zr
atom_frac 0.8085209873713332 0.1158509942084444 0.1344441536038889 Zr
atom_frac 0.9196320984824444 0.1158509942084444 0.1344441536038889 Zr
atom_frac 0.0307432095935556 0.2269621053195556 0.1344441536038889 Zr
atom_frac 0.1418543207046667 0.2269621053195556 0.1344441536038889 Zr
atom_frac 0.2529654318157777 0.2269621053195556 0.1344441536038889 Zr
atom_frac 0.3640765429268888 0.2269621053195556 0.1344441536038889 Zr
atom_frac 0.4751876540379999 0.2269621053195556 0.1344441536038889 Zr
atom_frac 0.5862987651491111 0.2269621053195556 0.1344441536038889 Zr
atom_frac 0.6974098762602221 0.2269621053195556 0.1344441536038889 Zr
atom_frac 0.8085209873713332 0.2269621053195556 0.1344441536038889 Zr
atom_frac 0.9196320984824444 0.2269621053195556 0.1344441536038889 Zr
atom_frac 0.0307432095935556 0.3380732164306667 0.1344441536038889 Zr
atom_frac 0.1418543207046667 0.3380732164306667 0.1344441536038889 Zr
atom_frac 0.2529654318157777 0.3380732164306667 0.1344441536038889 Zr
atom_frac 0.3640765429268888 0.3380732164306667 0.1344441536038889 Zr
atom_frac 0.4751876540379999 0.3380732164306667 0.1344441536038889 Zr
atom_frac 0.5862987651491111 0.3380732164306667 0.1344441536038889 Zr
atom_frac 0.6974098762602221 0.3380732164306667 0.1344441536038889 Zr
atom_frac 0.8085209873713332 0.3380732164306667 0.1344441536038889 Zr
atom_frac 0.9196320984824444 0.3380732164306667 0.1344441536038889 Zr
atom_frac 0.0307432095935556 0.4491843275417778 0.1344441536038889 Zr
atom_frac 0.1418543207046667 0.4491843275417778 0.1344441536038889 Zr
atom_frac 0.2529654318157777 0.4491843275417778 0.1344441536038889 Zr
atom_frac 0.3640765429268888 0.4491843275417778 0.1344441536038889 Zr
atom_frac 0.4751876540379999 0.4491843275417778 0.1344441536038889 Zr
atom_frac 0.5862987651491111 0.4491843275417778 0.1344441536038889 Zr
atom_frac 0.6974098762602221 0.4491843275417778 0.1344441536038889 Zr
atom_frac 0.8085209873713332 0.4491843275417778 0.1344441536038889 Zr
atom_frac 0.9196320984824444 0.4491843275417778 0.1344441536038889 Zr
atom_frac 0.0307432095935556 0.5602954386528889 0.1344441536038889 Zr
atom_frac 0.1418543207046667 0.5602954386528889 0.1344441536038889 Zr
atom_frac 0.2529654318157777 0.5602954386528889 0.1344441536038889 Zr
atom_frac 0.3640765429268888 0.5602954386528889 0.1344441536038889 Zr
atom_frac 0.4751876540379999 0.5602954386528889 0.1344441536038889 Zr
atom_frac 0.5862987651491111 0.5602954386528889 0.1344441536038889 Zr
atom_frac 0.6974098762602221 0.5602954386528889 0.1344441536038889 Zr
atom_frac 0.8085209873713332 0.5602954386528889 0.1344441536038889 Zr
atom_frac 0.9196320984824444 0.5602954386528889 0.1344441536038889 Zr
atom_frac 0.0307432095935556 0.6714065497639999 0.1344441536038889 Zr
atom_frac 0.1418543207046667 0.6714065497639999 0.1344441536038889 Zr
atom_frac 0.2529654318157777 0.6714065497639999 0.1344441536038889 Zr
atom_frac 0.3640765429268888 0.6714065497639999 0.1344441536038889 Zr
atom_frac 0.4751876540379999 0.6714065497639999 0.1344441536038889 Zr
atom_frac 0.5862987651491111 0.6714065497639999 0.1344441536038889 Zr
atom_frac 0.6974098762602221 0.6714065497639999 0.1344441536038889 Zr
atom_frac 0.8085209873713332 0.6714065497639999 0.1344441536038889 Zr
atom_frac 0.9196320984824444 0.6714065497639999 0.1344441536038889 Zr
atom_frac 0.0307432095935556 0.7825176608751111 0.1344441536038889 Zr
atom_frac 0.1418543207046667 0.7825176608751111 0.1344441536038889 Zr
atom_frac 0.2529654318157777 0.7825176608751111 0.1344441536038889 Zr
atom_frac 0.3640765429268888 0.7825176608751111 0.1344441536038889 Zr
atom_frac 0.4751876540379999 0.7825176608751111 0.1344441536038889 Zr
atom_frac 0.5862987651491111 0.7825176608751111 0.1344441536038889 Zr
atom_frac 0.6974098762602221 0.7825176608751111 0.1344441536038889 Zr
atom_frac 0.8085209873713332 0.7825176608751111 0.1344441536038889 Zr
atom_frac 0.9196320984824444 0.7825176608751111 0.1344441536038889 Zr
atom_frac 0.0307432095935556 0.8936287719862221 0.1344441536038889 Zr
atom_frac 0.1418543207046667 0.8936287719862221 0.1344441536038889 Zr
atom_frac 0.2529654318157777 0.8936287719862221 0.1344441536038889 Zr
atom_frac 0.3640765429268888 0.8936287719862221 0.1344441536038889 Zr
atom_frac 0.4751876540379999 0.8936287719862221 0.1344441536038889 Zr
atom_frac 0.5862987651491111 0.8936287719862221 0.1344441536038889 Zr
atom_frac 0.6974098762602221 0.8936287719862221 0.1344441536038889 Zr
atom_frac 0.8085209873713332 0.8936287719862221 0.1344441536038889 Zr
atom_frac 0.9196320984824444 0.8936287719862221 0.1344441536038889 Zr
atom_frac 0.0307432095935556 0.0047398830973333 0.2455552647150000 Zr
atom_frac 0.1418543207046667 0.0047398830973333 0.2455552647150000 Zr
atom_frac 0.2529654318157777 0.0047398830973333 0.2455552647150000 Zr
atom_frac 0.3640765429268888 0.0047398830973333 0.2455552647150000 Zr
atom_frac 0.4751876540379999 0.0047398830973333 0.2455552647150000 Zr
atom_frac 0.5862987651491111 0.0047398830973333 0.2455552647150000 Zr
atom_frac 0.6974098762602221 0.0047398830973333 0.2455552647150000 Zr
atom_frac 0.8085209873713332 0.0047398830973333 0.2455552647150000 Zr
atom_frac 0.9196320984824444 0.0047398830973333 0.2455552647150000 Zr
atom_frac 0.0307432095935556 0.1158509942084444 0.2455552647150000 Zr
atom_frac 0.1418543207046667 0.1158509942084444 0.2455552647150000 Zr
atom_frac 0.2529654318157777 0.1158509942084444 0.2455552647150000 Zr
atom_frac 0.3640765429268888 0.1158509942084444 0.2455552647150000 Zr
atom_frac 0.4751876540379999 0.1158509942084444 0.2455552647150000 Zr
atom_frac 0.5862987651491111 0.1158509942084444 0.2455552647150000 Zr
atom_frac 0.6974098762602221 0.1158509942084444 0.2455552647150000 Zr
atom_frac 0.8085209873713332 0.1158509942084444 0.2455552647150000 Zr
atom_frac 0.9196320984824444 0.1158509942084444 0.2455552647150000 Zr
atom_frac 0.0307432095935556 0.2269621053195556 0.2455552647150000 Zr
atom_frac 0.1418543207046667 0.2269621053195556 0.2455552647150000 Zr
atom_frac 0.2529654318157777 0.2269621053195556 0.2455552647150000 Zr
atom_frac 0.3640765429268888 0.2269621053195556 0.2455552647150000 Zr
atom_frac 0.4751876540379999 0.2269621053195556 0.2455552647150000 Zr
atom_frac 0.5862987651491111 0.2269621053195556 0.2455552647150000 Zr
atom_frac 0.6974098762602221 0.2269621053195556 0.2455552647150000 Zr
atom_frac 0.8085209873713332 0.2269621053195556 0.2455552647150000 Zr
atom_frac 0.9196320984824444 0.2269621053195556 0.2455552647150000 Zr
atom_frac 0.0307432095935556 0.3380732164306667 0.2455552647150000 Zr
atom_frac 0.1418543207046667 0.3380732164306667 0.2455552647150000 Zr
atom_frac 0.2529654318157777 0.3380732164306667 0.2455552647150000 Zr
atom_frac 0.3640765429268888 0.3380732164306667 0.2455552647150000 Zr
atom_frac 0.4751876540379999 0.3380732164306667 0.2455552647150000 Zr
atom_frac 0.5862987651491111 0.3380732164306667 0.2455552647150000 Zr
atom_frac 0.6974098762602221 0.3380732164306667 0.2455552647150000 Zr
atom_frac 0.8085209873713332 0.3380732164306667 0.2455552647150000 Zr
atom_frac 0.9196320984824444 0.3380732164306667 0.2455552647150000 Zr
atom_frac 0.0307432095935556 0.4491843275417778 0.2455552647150000 Zr
atom_frac 0.1418543207046667 0.4491843275417778 0.2455552647150000 Zr
atom_frac 0.2529654318157777 0.4491843275417778 0.2455552647150000 Zr
atom_frac 0.3640765429268888 0.4491843275417778 0.2455552647150000 Zr
atom_frac 0.4751876540379999 0.4491843275417778 0.2455552647150000 Zr
atom_frac 0.5862987651491111 0.4491843275417778 0.2455552647150000 Zr
atom_frac 0.6974098762602221 0.4491843275417778 0.2455552647150000 Zr
atom_frac 0.8085209873713332 0.4491843275417778 0.2455552647150000 Zr
atom_frac 0.9196320984824444 0.4491843275417778 0.2455552647150000 Zr
atom_frac 0.0307432095935556 0.5602954386528889 0.2455552647150000 Zr
atom_frac 0.1418543207046667 0.5602954386528889 0.2455552647150000 Zr
atom_frac 0.2529654318157777 0.5602954386528889 0.2455552647150000 Zr
atom_frac 0.3640765429268888 0.5602954386528889 0.2455552647150000 Zr
atom_frac 0.4751876540379999 0.5602954386528889 0.2455552647150000 Zr
atom_frac 0.5862987651491111 0.5602954386528889 0.2455552647150000 Zr
atom_frac 0.6974098762602221 0.5602954386528889 0.2455552647150000 Zr
atom_frac 0.8085209873713332 0.5602954386528889 0.2455552647150000 Zr
atom_frac 0.9196320984824444 0.5602954386528889 0.2455552647150000 Zr
atom_frac 0.0307432095935556 0.6714065497639999 0.2455552647150000 Zr
atom_frac 0.1418543207046667 0.6714065497639999 0.2455552647150000 Zr
atom_frac 0.2529654318157777 0.6714065497639999 0.2455552647150000 Zr
atom_frac 0.3640765429268888 0.6714065497639999 0.2455552647150000 Zr
atom_frac 0.4751876540379999 0.6714065497639999 0.2455552647150000 Zr
atom_frac 0.5862987651491111 0.6714065497639999 0.2455552647150000 Zr
atom_frac 0.6974098762602221 0.6714065497639999 0.2455552647150000 Zr
atom_frac 0.8085209873713332 0.6714065497639999 0.2455552647150000 Zr
atom_frac 0.9196320984824444 0.6714065497639999 0.2455552647150000 Zr
atom_frac 0.0307432095935556 0.7825176608751111 0.2455552647150000 Zr
atom_frac 0.1418543207046667 0.7825176608751111 0.2455552647150000 Zr
atom_frac 0.2529654318157777 0.7825176608751111 0.2455552647150000 Zr
atom_frac 0.3640765429268888 0.7825176608751111 0.2455552647150000 Zr
atom_frac 0.4751876540379999 0.7825176608751111 0.2455552647150000 Zr
atom_frac 0.5862987651491111 0.7825176608751111 0.2455552647150000 Zr
atom_frac 0.6974098762602221 0.7825176608751111 0.2455552647150000 Zr
atom_frac 0.8085209873713332 0.7825176608751111 0.2455552647150000 Zr
atom_frac 0.9196320984824444 0.7825176608751111 0.2455552647150000 Zr
atom_frac 0.0307432095935556 0.8936287719862221 0.2455552647150000 Zr
atom_frac 0.1418543207046667 0.8936287719862221 0.2455552647150000 Zr
atom_frac 0.2529654318157777 0.8936287719862221 0.2455552647150000 Zr
atom_frac 0.3640765429268888 0.8936287719862221 0.2455552647150000 Zr
atom_frac 0.4751876540379999 0.8936287719862221 0.2455552647150000 Zr
atom_frac 0.5862987651491111 0.8936287719862221 0.2455552647150000 Zr
atom_frac 0.6974098762602221 0.8936287719862221 0.2455552647150000 Zr
atom_frac 0.8085209873713332 0.8936287719862221 0.2455552647150000 Zr
atom_frac 0.9196320984824444 0.8936287719862221 0.2455552647150000 Zr
atom_frac 0.0307432095935556 0.0047398830973333 0.3566663758261112 Zr
atom_frac 0.1418543207046667 0.0047398830973333 0.3566663758261112 Zr
atom_frac 0.2529654318157778 0.0047398830973333 0.3566663758261112 Zr
atom_frac 0.3640765429268888 0.0047398830973333 0.3566663758261112 Zr
atom_frac 0.4751876540379999 0.0047398830973333 0.3566663758261112 Zr
atom_frac 0.5862987651491111 0.0047398830973333 0.3566663758261112 Zr
atom_frac 0.6974098762602221 0.0047398830973333 0.3566663758261112 Zr
atom_frac 0.8085209873713332 0.0047398830973333 0.3566663758261112 Zr
atom_frac 0.9196320984824444 0.0047398830973333 0.3566663758261112 Zr
atom_frac 0.0307432095935556 0.1158509942084444 0.3566663758261112 Zr
atom_frac 0.1418543207046667 0.1158509942084444 0.3566663758261112 Zr
atom_frac 0.2529654318157778 0.1158509942084444 0.3566663758261112 Zr
atom_frac 0.3640765429268888 0.1158509942084444 0.3566663758261112 Zr
atom_frac 0.4751876540379999 0.1158509942084444 0.3566663758261112 Zr
atom_frac 0.5862987651491111 0.1158509942084444 0.3566663758261112 Zr
atom_frac 0.6974098762602221 0.1158509942084444 0.3566663758261112 Zr
atom_frac 0.8085209873713332 0.1158509942084444 0.3566663758261112 Zr
atom_frac 0.9196320984824444 0.1158509942084444 0.3566663758261112 Zr
atom_frac 0.0307432095935556 0.2269621053195556 0.3566663758261112 Zr
atom_frac 0.1418543207046667 0.2269621053195556 0.3566663758261112 Zr
atom_frac 0.2529654318157778 0.2269621053195556 0.3566663758261112 Zr
atom_frac 0.3640765429268888 0.2269621053195556 0.3566663758261112 Zr
atom_frac 0.4751876540379999 0.2269621053195556 0.3566663758261112 Zr
atom_frac 0.5862987651491111 0.2269621053195556 0.3566663758261112 Zr
atom_frac 0.6974098762602221 0.2269621053195556 0.3566663758261112 Zr
atom_frac 0.8085209873713332 0.2269621053195556 0.3566663758261112 Zr
atom_frac 0.9196320984824444 0.2269621053195556 0.3566663758261112 Zr
atom_frac 0.0307432095935556 0.3380732164306667 0.3566663758261112 Zr
atom_frac 0.1418543207046667 0.3380732164306667 0.3566663758261112 Zr
atom_frac 0.2529654318157778 0.3380732164306667 0.3566663758261112 Zr
atom_frac 0.3640765429268888 0.3380732164306667 0.3566663758261112 Zr
atom_frac 0.4751876540379999 0.3380732164306667 0.3566663758261112 Zr
atom_frac 0.5862987651491111 0.3380732164306667 0.3566663758261112 Zr
atom_frac 0.6974098762602221 0.3380732164306667 0.3566663758261112 Zr
atom_frac 0.8085209873713332 0.3380732164306667 0.3566663758261112 Zr
atom_frac 0.9196320984824444 0.3380732164306667 0.3566663758261112 Zr
atom_frac 0.0307432095935556 0.4491843275417778 0.3566663758261112 Zr
atom_frac 0.1418543207046667 0.4491843275417778 0.3566663758261112 Zr
atom_frac 0.2529654318157778 0.4491843275417778 0.3566663758261112 Zr
atom_frac 0.3640765429268888 0.4491843275417778 0.3566663758261112 Zr
atom_frac 0.4751876540379999 0.4491843275417778 0.3566663758261112 Zr
atom_frac 0.5862987651491111 0.4491843275417778 0.3566663758261112 Zr
atom_frac 0.6974098762602221 0.4491843275417778 0.3566663758261112 Zr
atom_frac 0.8085209873713332 0.4491843275417778 0.3566663758261112 Zr
atom_frac 0.9196320984824444 0.4491843275417778 0.3566663758261112 Zr
atom_frac 0.0307432095935556 0.5602954386528889 0.3566663758261112 Zr
atom_frac 0.1418543207046667 0.5602954386528889 0.3566663758261112 Zr
atom_frac 0.2529654318157778 0.5602954386528889 0.3566663758261112 Zr
atom_frac 0.3640765429268888 0.5602954386528889 0.3566663758261112 Zr
atom_frac 0.4751876540379999 0.5602954386528889 0.3566663758261112 Zr
atom_frac 0.5862987651491111 0.5602954386528889 0.3566663758261112 Zr
atom_frac 0.6974098762602221 0.5602954386528889 0.3566663758261112 Zr
atom_frac 0.8085209873713332 0.5602954386528889 0.3566663758261112 Zr
atom_frac 0.9196320984824444 0.5602954386528889 0.3566663758261112 Zr
atom_frac 0.0307432095935556 0.6714065497639999 0.3566663758261112 Zr
atom_frac 0.1418543207046667 0.6714065497639999 0.3566663758261112 Zr
atom_frac 0.2529654318157778 0.6714065497639999 0.3566663758261112 Zr
atom_frac 0.3640765429268888 0.6714065497639999 0.3566663758261112 Zr
atom_frac 0.4751876540379999 0.6714065497639999 0.3566663758261112 Zr
atom_frac 0.5862987651491111 0.6714065497639999 0.3566663758261112 Zr
atom_frac 0.6974098762602221 0.6714065497639999 0.3566663758261112 Zr
atom_frac 0.8085209873713332 0.6714065497639999 0.3566663758261112 Zr
atom_frac 0.9196320984824444 0.6714065497639999 0.3566663758261112 Zr
atom_frac 0.0307432095935556 0.7825176608751111 0.3566663758261112 Zr
atom_frac 0.1418543207046667 0.7825176608751111 0.3566663758261112 Zr
atom_frac 0.2529654318157778 0.7825176608751111 0.3566663758261112 Zr
atom_frac 0.3640765429268888 0.7825176608751111 0.3566663758261112 Zr
atom_frac 0.4751876540379999 0.7825176608751111 0.3566663758261112 Zr
atom_frac 0.5862987651491111 0.7825176608751111 0.3566663758261112 Zr
atom_frac 0.6974098762602221 0.7825176608751111 0.3566663758261112 Zr
atom_frac 0.8085209873713332 0.7825176608751111 0.3566663758261112 Zr
atom_frac 0.9196320984824444 0.7825176608751111 0.3566663758261112 Zr
atom_frac 0.0307432095935556 0.8936287719862221 0.3566663758261112 Zr
atom_frac 0.1418543207046667 0.8936287719862221 0.3566663758261112 Zr
atom_frac 0.2529654318157778 0.8936287719862221 0.3566663758261112 Zr
atom_frac 0.3640765429268888 0.8936287719862221 0.3566663758261112 Zr
atom_frac 0.4751876540379999 0.8936287719862221 0.3566663758261112 Zr
atom_frac 0.5862987651491111 0.8936287719862221 0.3566663758261112 Zr
atom_frac 0.6974098762602221 0.8936287719862221 0.3566663758261112 Zr
atom_frac 0.8085209873713332 0.8936287719862221 0.3566663758261112 Zr
atom_frac 0.9196320984824444 0.8936287719862221 0.3566663758261112 Zr
atom_frac 0.0307432095935556 0.0047398830973333 0.4677774869372222 Zr
atom_frac 0.1418543207046667 0.0047398830973333 0.4677774869372222 Zr
atom_frac 0.2529654318157777 0.0047398830973333 0.4677774869372222 Zr
atom_frac 0.3640765429268888 0.0047398830973333 0.4677774869372222 Zr
atom_frac 0.4751876540379999 0.0047398830973333 0.4677774869372222 Zr
atom_frac 0.5862987651491111 0.0047398830973333 0.4677774869372222 Zr
atom_frac 0.6974098762602221 0.0047398830973333 0.4677774869372222 Zr
atom_frac 0.8085209873713332 0.0047398830973333 0.4677774869372222 Zr
atom_frac 0.9196320984824444 0.0047398830973333 0.4677774869372222 Zr
atom_frac 0.0307432095935556 0.1158509942084444 0.4677774869372222 Zr
atom_frac 0.1418543207046667 0.1158509942084444 0.4677774869372222 Zr
atom_frac 0.2529654318157777 0.1158509942084444 0.4677774869372222 Zr
atom_frac 0.3640765429268888 0.1158509942084444 0.4677774869372222 Zr
atom_frac 0.4751876540379999 0.1158509942084444 0.4677774869372222 Zr
atom_frac 0.5862987651491111 0.1158509942084444 0.4677774869372222 Zr
atom_frac 0.6974098762602221 0.1158509942084444 0.4677774869372222 Zr
atom_frac 0.8085209873713332 0.1158509942084444 0.4677774869372222 Zr
atom_frac 0.9196320984824444 0.1158509942084444 0.4677774869372222 Zr
atom_frac 0.0307432095935556 0.2269621053195556 0.4677774869372222 Zr
atom_frac 0.1418543207046667 0.2269621053195556 0.4677774869372222 Zr
atom_frac 0.2529654318157777 0.2269621053195556 0.4677774869372222 Zr
atom_frac 0.3640765429268888 0.2269621053195556 0.4677774869372222 Zr
atom_frac 0.4751876540379999 0.2269621053195556 0.4677774869372222 Zr
atom_frac 0.5862987651491111 0.2269621053195556 0.4677774869372222 Zr
atom_frac 0.6974098762602221 0.2269621053195556 0.4677774869372222 Zr
atom_frac 0.8085209873713332 0.2269621053195556 0.4677774869372222 Zr
atom_frac 0.9196320984824444 0.2269621053195556 0.4677774869372222 Zr
atom_frac 0.0307432095935556 0.3380732164306667 0.4677774869372222 Zr
atom_frac 0.1418543207046667 0.3380732164306667 0.4677774869372222 Zr
atom_frac 0.2529654318157777 0.3380732164306667 0.4677774869372222 Zr
atom_frac 0.3640765429268888 0.3380732164306667 0.4677774869372222 Zr
atom_frac 0.4751876540379999 0.3380732164306667 0.4677774869372222 Zr
atom_frac 0.5862987651491111 0.3380732164306667 0.4677774869372222 Zr
atom_frac 0.6974098762602221 0.3380732164306667 0.4677774869372222 Zr
atom_frac 0.8085209873713332 0.3380732164306667 0.4677774869372222 Zr
atom_frac 0.9196320984824444 0.3380732164306667 0.4677774869372222 Zr
atom_frac 0.0307432095935556 0.4491843275417778 0.4677774869372222 Zr
atom_frac 0.1418543207046667 0.4491843275417778 0.4677774869372222 Zr
atom_frac 0.2529654318157777 0.4491843275417778 0.4677774869372222 Zr
atom_frac 0.3640765429268888 0.4491843275417778 0.4677774869372222 Zr
atom_frac 0.4751876540379999 0.4491843275417778 0.4677774869372222 Zr
atom_frac 0.5862987651491111 0.4491843275417778 0.4677774869372222 Zr
atom_frac 0.6974098762602221 0.4491843275417778 0.4677774869372222 Zr
atom_frac 0.8085209873713332 0.4491843275417778 0.4677774869372222 Zr
atom_frac 0.9196320984824444 0.4491843275417778 0.4677774869372222 Zr
atom_frac 0.0307432095935556 0.5602954386528889 0.4677774869372222 Zr
atom_frac 0.1418543207046667 0.5602954386528889 0.4677774869372222 Zr
atom_frac 0.2529654318157777 0.5602954386528889 0.4677774869372222 Zr
atom_frac 0.3640765429268888 0.5602954386528889 0.4677774869372222 Zr
atom_frac 0.4751876540379999 0.5602954386528889 0.4677774869372222 Zr
atom_frac 0.5862987651491111 0.5602954386528889 0.4677774869372222 Zr
atom_frac 0.6974098762602221 0.5602954386528889 0.4677774869372222 Zr
atom_frac 0.8085209873713332 0.5602954386528889 0.4677774869372222 Zr
atom_frac 0.9196320984824444 0.5602954386528889 0.4677774869372222 Zr
atom_frac 0.0307432095935556 0.6714065497639999 0.4677774869372222 Zr
atom_frac 0.1418543207046667 0.6714065497639999 0.4677774869372222 Zr
atom_frac 0.2529654318157777 0.6714065497639999 0.4677774869372222 Zr
atom_frac 0.3640765429268888 0.6714065497639999 0.4677774869372222 Zr
atom_frac 0.4751876540379999 0.6714065497639999 0.4677774869372222 Zr
atom_frac 0.5862987651491111 0.6714065497639999 0.4677774869372222 Zr
atom_frac 0.6974098762602221 0.6714065497639999 0.4677774869372222 Zr
atom_frac 0.8085209873713332 0.6714065497639999 0.4677774869372222 Zr
atom_frac 0.9196320984824444 0.6714065497639999 0.4677774869372222 Zr
atom_frac 0.0307432095935556 0.7825176608751111 0.4677774869372222 Zr
atom_frac 0.1418543207046667 0.7825176608751111 0.4677774869372222 Zr
atom_frac 0.2529654318157777 0.7825176608751111 0.4677774869372222 Zr
atom_frac 0.3640765429268888 0.7825176608751111 0.4677774869372222 Zr
atom_frac 0.4751876540379999 0.7825176608751111 0.4677774869372222 Zr
atom_frac 0.5862987651491111 0.7825176608751111 0.4677774869372222 Zr
atom_frac 0.6974098762602221 0.7825176608751111 0.4677774869372222 Zr
atom_frac 0.8085209873713332 0.7825176608751111 0.4677774869372222 Zr
atom_frac 0.9196320984824444 0.7825176608751111 0.4677774869372222 Zr
atom_frac 0.0307432095935556 0.8936287719862221 0.4677774869372222 Zr
atom_frac 0.1418543207046667 0.8936287719862221 0.4677774869372222 Zr
atom_frac 0.2529654318157777 0.8936287719862221 0.4677774869372222 Zr
atom_frac 0.3640765429268888 0.8936287719862221 0.4677774869372222 Zr
atom_frac 0.4751876540379999 0.8936287719862221 0.4677774869372222 Zr
atom_frac 0.5862987651491111 0.8936287719862221 0.4677774869372222 Zr
atom_frac 0.6974098762602221 0.8936287719862221 0.4677774869372222 Zr
atom_frac 0.8085209873713332 0.8936287719862221 0.4677774869372222 Zr
atom_frac 0.9196320984824444 0.8936287719862221 0.4677774869372222 Zr
atom_frac 0.0307432095935556 0.0047398830973333 0.5788885980483333 Zr
atom_frac 0.1418543207046667 0.0047398830973333 0.5788885980483333 Zr
atom_frac 0.2529654318157777 0.0047398830973333 0.5788885980483333 Zr
atom_frac 0.3640765429268888 0.0047398830973333 0.5788885980483333 Zr
atom_frac 0.4751876540379999 0.0047398830973333 0.5788885980483333 Zr
atom_frac 0.5862987651491111 0.0047398830973333 0.5788885980483333 Zr
atom_frac 0.6974098762602221 0.0047398830973333 0.5788885980483333 Zr
atom_frac 0.8085209873713332 0.0047398830973333 0.5788885980483333 Zr
atom_frac 0.9196320984824444 0.0047398830973333 0.5788885980483333 Zr
atom_frac 0.0307432095935556 0.1158509942084444 0.5788885980483333 Zr
atom_frac 0.1418543207046667 0.1158509942084444 0.5788885980483333 Zr
atom_frac 0.2529654318157777 0.1158509942084444 0.5788885980483333 Zr
atom_frac 0.3640765429268888 0.1158509942084444 0.5788885980483333 Zr