#=======================================================
# FHI-aims file: 450_geometry.in.primitive.supercell_6144
# Created using the Atomic Simulation Environment (ASE)
# Tue Oct 18 13:09:42 2022

# Additional information:
#  Number of atoms:     6144
#  Spacegroup:          14
#  supercell:           True
#  supercell_matrix:    [8, 0, 0, 0, 8, 0, 0, 0, 8]
#  Supercell matrix:    [8 0 0 0 8 0 0 0 8]
#=======================================================
lattice_vector 41.2319999999999993 0.0000000000000000 0.0000000000000000 
lattice_vector 0.0000000000000000 41.6880000000000024 0.0000000000000000 
lattice_vector -6.8511096538184182 0.0000000000000000 42.0211621984846602 
atom_frac 0.0345861107927500 0.0053323684845000 0.0262496728043750 Zr
atom_frac 0.1595861107927500 0.0053323684845000 0.0262496728043750 Zr
atom_frac 0.2845861107927500 0.0053323684845000 0.0262496728043750 Zr
atom_frac 0.4095861107927499 0.0053323684845000 0.0262496728043750 Zr
atom_frac 0.5345861107927500 0.0053323684845000 0.0262496728043750 Zr
atom_frac 0.6595861107927500 0.0053323684845000 0.0262496728043750 Zr
atom_frac 0.7845861107927500 0.0053323684845000 0.0262496728043750 Zr
atom_frac 0.9095861107927500 0.0053323684845000 0.0262496728043750 Zr
atom_frac 0.0345861107927500 0.1303323684845000 0.0262496728043750 Zr
atom_frac 0.1595861107927500 0.1303323684845000 0.0262496728043750 Zr
atom_frac 0.2845861107927500 0.1303323684845000 0.0262496728043750 Zr
atom_frac 0.4095861107927499 0.1303323684845000 0.0262496728043750 Zr
atom_frac 0.5345861107927500 0.1303323684845000 0.0262496728043750 Zr
atom_frac 0.6595861107927500 0.1303323684845000 0.0262496728043750 Zr
atom_frac 0.7845861107927500 0.1303323684845000 0.0262496728043750 Zr
atom_frac 0.9095861107927500 0.1303323684845000 0.0262496728043750 Zr
atom_frac 0.0345861107927500 0.2553323684845001 0.0262496728043750 Zr
atom_frac 0.1595861107927500 0.2553323684845001 0.0262496728043750 Zr
atom_frac 0.2845861107927500 0.2553323684845001 0.0262496728043750 Zr
atom_frac 0.4095861107927499 0.2553323684845001 0.0262496728043750 Zr
atom_frac 0.5345861107927500 0.2553323684845001 0.0262496728043750 Zr
atom_frac 0.6595861107927500 0.2553323684845001 0.0262496728043750 Zr
atom_frac 0.7845861107927500 0.2553323684845001 0.0262496728043750 Zr
atom_frac 0.9095861107927500 0.2553323684845001 0.0262496728043750 Zr
atom_frac 0.0345861107927500 0.3803323684845001 0.0262496728043750 Zr
atom_frac 0.1595861107927500 0.3803323684845001 0.0262496728043750 Zr
atom_frac 0.2845861107927500 0.3803323684845001 0.0262496728043750 Zr
atom_frac 0.4095861107927499 0.3803323684845001 0.0262496728043750 Zr
atom_frac 0.5345861107927500 0.3803323684845001 0.0262496728043750 Zr
atom_frac 0.6595861107927500 0.3803323684845001 0.0262496728043750 Zr
atom_frac 0.7845861107927500 0.3803323684845001 0.0262496728043750 Zr
atom_frac 0.9095861107927500 0.3803323684845001 0.0262496728043750 Zr
atom_frac 0.0345861107927500 0.5053323684845000 0.0262496728043750 Zr
atom_frac 0.1595861107927500 0.5053323684845000 0.0262496728043750 Zr
atom_frac 0.2845861107927500 0.5053323684845000 0.0262496728043750 Zr
atom_frac 0.4095861107927499 0.5053323684845000 0.0262496728043750 Zr
atom_frac 0.5345861107927500 0.5053323684845000 0.0262496728043750 Zr
atom_frac 0.6595861107927500 0.5053323684845000 0.0262496728043750 Zr
atom_frac 0.7845861107927500 0.5053323684845000 0.0262496728043750 Zr
atom_frac 0.9095861107927500 0.5053323684845000 0.0262496728043750 Zr
atom_frac 0.0345861107927500 0.6303323684845000 0.0262496728043750 Zr
atom_frac 0.1595861107927500 0.6303323684845000 0.0262496728043750 Zr
atom_frac 0.2845861107927500 0.6303323684845000 0.0262496728043750 Zr
atom_frac 0.4095861107927499 0.6303323684845000 0.0262496728043750 Zr
atom_frac 0.5345861107927500 0.6303323684845000 0.0262496728043750 Zr
atom_frac 0.6595861107927500 0.6303323684845000 0.0262496728043750 Zr
atom_frac 0.7845861107927500 0.6303323684845000 0.0262496728043750 Zr
atom_frac 0.9095861107927500 0.6303323684845000 0.0262496728043750 Zr
atom_frac 0.0345861107927500 0.7553323684845000 0.0262496728043750 Zr
atom_frac 0.1595861107927500 0.7553323684845000 0.0262496728043750 Zr
atom_frac 0.2845861107927500 0.7553323684845000 0.0262496728043750 Zr
atom_frac 0.4095861107927499 0.7553323684845000 0.0262496728043750 Zr
atom_frac 0.5345861107927500 0.7553323684845000 0.0262496728043750 Zr
atom_frac 0.6595861107927500 0.7553323684845000 0.0262496728043750 Zr
atom_frac 0.7845861107927500 0.7553323684845000 0.0262496728043750 Zr
atom_frac 0.9095861107927500 0.7553323684845000 0.0262496728043750 Zr
atom_frac 0.0345861107927500 0.8803323684845001 0.0262496728043750 Zr
atom_frac 0.1595861107927500 0.8803323684845001 0.0262496728043750 Zr
atom_frac 0.2845861107927500 0.8803323684845001 0.0262496728043750 Zr
atom_frac 0.4095861107927499 0.8803323684845001 0.0262496728043750 Zr
atom_frac 0.5345861107927500 0.8803323684845001 0.0262496728043750 Zr
atom_frac 0.6595861107927500 0.8803323684845001 0.0262496728043750 Zr
atom_frac 0.7845861107927500 0.8803323684845001 0.0262496728043750 Zr
atom_frac 0.9095861107927500 0.8803323684845001 0.0262496728043750 Zr
atom_frac 0.0345861107927500 0.0053323684845000 0.1512496728043750 Zr
atom_frac 0.1595861107927500 0.0053323684845000 0.1512496728043750 Zr
atom_frac 0.2845861107927500 0.0053323684845000 0.1512496728043750 Zr
atom_frac 0.4095861107927499 0.0053323684845000 0.1512496728043750 Zr
atom_frac 0.5345861107927500 0.0053323684845000 0.1512496728043750 Zr
atom_frac 0.6595861107927500 0.0053323684845000 0.1512496728043750 Zr
atom_frac 0.7845861107927500 0.0053323684845000 0.1512496728043750 Zr
atom_frac 0.9095861107927500 0.0053323684845000 0.1512496728043750 Zr
atom_frac 0.0345861107927500 0.1303323684845000 0.1512496728043750 Zr
atom_frac 0.1595861107927500 0.1303323684845000 0.1512496728043750 Zr
atom_frac 0.2845861107927500 0.1303323684845000 0.1512496728043750 Zr
atom_frac 0.4095861107927499 0.1303323684845000 0.1512496728043750 Zr
atom_frac 0.5345861107927500 0.1303323684845000 0.1512496728043750 Zr
atom_frac 0.6595861107927500 0.1303323684845000 0.1512496728043750 Zr
atom_frac 0.7845861107927500 0.1303323684845000 0.1512496728043750 Zr
atom_frac 0.9095861107927500 0.1303323684845000 0.1512496728043750 Zr
atom_frac 0.0345861107927500 0.2553323684845001 0.1512496728043750 Zr
atom_frac 0.1595861107927500 0.2553323684845001 0.1512496728043750 Zr
atom_frac 0.2845861107927500 0.2553323684845001 0.1512496728043750 Zr
atom_frac 0.4095861107927499 0.2553323684845001 0.1512496728043750 Zr
atom_frac 0.5345861107927500 0.2553323684845001 0.1512496728043750 Zr
atom_frac 0.6595861107927500 0.2553323684845001 0.1512496728043750 Zr
atom_frac 0.7845861107927500 0.2553323684845001 0.1512496728043750 Zr
atom_frac 0.9095861107927500 0.2553323684845001 0.1512496728043750 Zr
atom_frac 0.0345861107927500 0.3803323684845001 0.1512496728043750 Zr
atom_frac 0.1595861107927500 0.3803323684845001 0.1512496728043750 Zr
atom_frac 0.2845861107927500 0.3803323684845001 0.1512496728043750 Zr
atom_frac 0.4095861107927499 0.3803323684845001 0.1512496728043750 Zr
atom_frac 0.5345861107927500 0.3803323684845001 0.1512496728043750 Zr
atom_frac 0.6595861107927500 0.3803323684845001 0.1512496728043750 Zr
atom_frac 0.7845861107927500 0.3803323684845001 0.1512496728043750 Zr
atom_frac 0.9095861107927500 0.3803323684845001 0.1512496728043750 Zr
atom_frac 0.0345861107927500 0.5053323684845000 0.1512496728043750 Zr
atom_frac 0.1595861107927500 0.5053323684845000 0.1512496728043750 Zr
atom_frac 0.2845861107927500 0.5053323684845000 0.1512496728043750 Zr
atom_frac 0.4095861107927499 0.5053323684845000 0.1512496728043750 Zr
atom_frac 0.5345861107927500 0.5053323684845000 0.1512496728043750 Zr
atom_frac 0.6595861107927500 0.5053323684845000 0.1512496728043750 Zr
atom_frac 0.7845861107927500 0.5053323684845000 0.1512496728043750 Zr
atom_frac 0.9095861107927500 0.5053323684845000 0.1512496728043750 Zr
atom_frac 0.0345861107927500 0.6303323684845000 0.1512496728043750 Zr
atom_frac 0.1595861107927500 0.6303323684845000 0.1512496728043750 Zr
atom_frac 0.2845861107927500 0.6303323684845000 0.1512496728043750 Zr
atom_frac 0.4095861107927499 0.6303323684845000 0.1512496728043750 Zr
atom_frac 0.5345861107927500 0.6303323684845000 0.1512496728043750 Zr
atom_frac 0.6595861107927500 0.6303323684845000 0.1512496728043750 Zr
atom_frac 0.7845861107927500 0.6303323684845000 0.1512496728043750 Zr
atom_frac 0.9095861107927500 0.6303323684845000 0.1512496728043750 Zr
atom_frac 0.0345861107927500 0.7553323684845000 0.1512496728043750 Zr
atom_frac 0.1595861107927500 0.7553323684845000 0.1512496728043750 Zr
atom_frac 0.2845861107927500 0.7553323684845000 0.1512496728043750 Zr
atom_frac 0.4095861107927499 0.7553323684845000 0.1512496728043750 Zr
atom_frac 0.5345861107927500 0.7553323684845000 0.1512496728043750 Zr
atom_frac 0.6595861107927500 0.7553323684845000 0.1512496728043750 Zr
atom_frac 0.7845861107927500 0.7553323684845000 0.1512496728043750 Zr
atom_frac 0.9095861107927500 0.7553323684845000 0.1512496728043750 Zr
atom_frac 0.0345861107927500 0.8803323684845001 0.1512496728043750 Zr
atom_frac 0.1595861107927500 0.8803323684845001 0.1512496728043750 Zr
atom_frac 0.2845861107927500 0.8803323684845001 0.1512496728043750 Zr
atom_frac 0.4095861107927499 0.8803323684845001 0.1512496728043750 Zr
atom_frac 0.5345861107927500 0.8803323684845001 0.1512496728043750 Zr
atom_frac 0.6595861107927500 0.8803323684845001 0.1512496728043750 Zr
atom_frac 0.7845861107927500 0.8803323684845001 0.1512496728043750 Zr
atom_frac 0.9095861107927500 0.8803323684845001 0.1512496728043750 Zr
atom_frac 0.0345861107927500 0.0053323684845000 0.2762496728043751 Zr
atom_frac 0.1595861107927500 0.0053323684845000 0.2762496728043751 Zr
atom_frac 0.2845861107927500 0.0053323684845000 0.2762496728043751 Zr
atom_frac 0.4095861107927499 0.0053323684845000 0.2762496728043751 Zr
atom_frac 0.5345861107927500 0.0053323684845000 0.2762496728043751 Zr
atom_frac 0.6595861107927500 0.0053323684845000 0.2762496728043751 Zr
atom_frac 0.7845861107927500 0.0053323684845000 0.2762496728043751 Zr
atom_frac 0.9095861107927500 0.0053323684845000 0.2762496728043751 Zr
atom_frac 0.0345861107927500 0.1303323684845000 0.2762496728043751 Zr
atom_frac 0.1595861107927500 0.1303323684845000 0.2762496728043751 Zr
atom_frac 0.2845861107927500 0.1303323684845000 0.2762496728043751 Zr
atom_frac 0.4095861107927499 0.1303323684845000 0.2762496728043751 Zr
atom_frac 0.5345861107927500 0.1303323684845000 0.2762496728043751 Zr
atom_frac 0.6595861107927500 0.1303323684845000 0.2762496728043751 Zr
atom_frac 0.7845861107927500 0.1303323684845000 0.2762496728043751 Zr
atom_frac 0.9095861107927500 0.1303323684845000 0.2762496728043751 Zr
atom_frac 0.0345861107927500 0.2553323684845001 0.2762496728043751 Zr
atom_frac 0.1595861107927500 0.2553323684845001 0.2762496728043751 Zr
atom_frac 0.2845861107927500 0.2553323684845001 0.2762496728043751 Zr
atom_frac 0.4095861107927499 0.2553323684845001 0.2762496728043751 Zr
atom_frac 0.5345861107927500 0.2553323684845001 0.2762496728043751 Zr
atom_frac 0.6595861107927500 0.2553323684845001 0.2762496728043751 Zr
atom_frac 0.7845861107927500 0.2553323684845001 0.2762496728043751 Zr
atom_frac 0.9095861107927500 0.2553323684845001 0.2762496728043751 Zr
atom_frac 0.0345861107927500 0.3803323684845001 0.2762496728043751 Zr
atom_frac 0.1595861107927500 0.3803323684845001 0.2762496728043751 Zr
atom_frac 0.2845861107927500 0.3803323684845001 0.2762496728043751 Zr
atom_frac 0.4095861107927499 0.3803323684845001 0.2762496728043751 Zr
atom_frac 0.5345861107927500 0.3803323684845001 0.2762496728043751 Zr
atom_frac 0.6595861107927500 0.3803323684845001 0.2762496728043751 Zr
atom_frac 0.7845861107927500 0.3803323684845001 0.2762496728043751 Zr
atom_frac 0.9095861107927500 0.3803323684845001 0.2762496728043751 Zr
atom_frac 0.0345861107927500 0.5053323684845000 0.2762496728043751 Zr
atom_frac 0.1595861107927500 0.5053323684845000 0.2762496728043751 Zr
atom_frac 0.2845861107927500 0.5053323684845000 0.2762496728043751 Zr
atom_frac 0.4095861107927499 0.5053323684845000 0.2762496728043751 Zr
atom_frac 0.5345861107927500 0.5053323684845000 0.2762496728043751 Zr
atom_frac 0.6595861107927500 0.5053323684845000 0.2762496728043751 Zr
atom_frac 0.7845861107927500 0.5053323684845000 0.2762496728043751 Zr
atom_frac 0.9095861107927500 0.5053323684845000 0.2762496728043751 Zr
atom_frac 0.0345861107927500 0.6303323684845000 0.2762496728043751 Zr
atom_frac 0.1595861107927500 0.6303323684845000 0.2762496728043751 Zr
atom_frac 0.2845861107927500 0.6303323684845000 0.2762496728043751 Zr
atom_frac 0.4095861107927499 0.6303323684845000 0.2762496728043751 Zr
atom_frac 0.5345861107927500 0.6303323684845000 0.2762496728043751 Zr
atom_frac 0.6595861107927500 0.6303323684845000 0.2762496728043751 Zr
atom_frac 0.7845861107927500 0.6303323684845000 0.2762496728043751 Zr
atom_frac 0.9095861107927500 0.6303323684845000 0.2762496728043751 Zr
atom_frac 0.0345861107927500 0.7553323684845000 0.2762496728043751 Zr
atom_frac 0.1595861107927500 0.7553323684845000 0.2762496728043751 Zr
atom_frac 0.2845861107927500 0.7553323684845000 0.2762496728043751 Zr
atom_frac 0.4095861107927499 0.7553323684845000 0.2762496728043751 Zr
atom_frac 0.5345861107927500 0.7553323684845000 0.2762496728043751 Zr
atom_frac 0.6595861107927500 0.7553323684845000 0.2762496728043751 Zr
atom_frac 0.7845861107927500 0.7553323684845000 0.2762496728043751 Zr
atom_frac 0.9095861107927500 0.7553323684845000 0.2762496728043751 Zr
atom_frac 0.0345861107927500 0.8803323684845001 0.2762496728043751 Zr
atom_frac 0.1595861107927500 0.8803323684845001 0.2762496728043751 Zr
atom_frac 0.2845861107927500 0.8803323684845001 0.2762496728043751 Zr
atom_frac 0.4095861107927499 0.8803323684845001 0.2762496728043751 Zr
atom_frac 0.5345861107927500 0.8803323684845001 0.2762496728043751 Zr
atom_frac 0.6595861107927500 0.8803323684845001 0.2762496728043751 Zr
atom_frac 0.7845861107927500 0.8803323684845001 0.2762496728043751 Zr
atom_frac 0.9095861107927500 0.8803323684845001 0.2762496728043751 Zr
atom_frac 0.0345861107927500 0.0053323684845000 0.4012496728043751 Zr
atom_frac 0.1595861107927500 0.0053323684845000 0.4012496728043751 Zr
atom_frac 0.2845861107927500 0.0053323684845000 0.4012496728043751 Zr
atom_frac 0.4095861107927499 0.0053323684845000 0.4012496728043751 Zr
atom_frac 0.5345861107927500 0.0053323684845000 0.4012496728043751 Zr
atom_frac 0.6595861107927500 0.0053323684845000 0.4012496728043751 Zr
atom_frac 0.7845861107927500 0.0053323684845000 0.4012496728043751 Zr
atom_frac 0.9095861107927500 0.0053323684845000 0.4012496728043751 Zr
atom_frac 0.0345861107927500 0.1303323684845000 0.4012496728043751 Zr
atom_frac 0.1595861107927500 0.1303323684845000 0.4012496728043751 Zr
atom_frac 0.2845861107927500 0.1303323684845000 0.4012496728043751 Zr
atom_frac 0.4095861107927499 0.1303323684845000 0.4012496728043751 Zr
atom_frac 0.5345861107927500 0.1303323684845000 0.4012496728043751 Zr
atom_frac 0.6595861107927500 0.1303323684845000 0.4012496728043751 Zr
atom_frac 0.7845861107927500 0.1303323684845000 0.4012496728043751 Zr
atom_frac 0.9095861107927500 0.1303323684845000 0.4012496728043751 Zr
atom_frac 0.0345861107927500 0.2553323684845001 0.4012496728043751 Zr
atom_frac 0.1595861107927500 0.2553323684845001 0.4012496728043751 Zr
atom_frac 0.2845861107927500 0.2553323684845001 0.4012496728043751 Zr
atom_frac 0.4095861107927499 0.2553323684845001 0.4012496728043751 Zr
atom_frac 0.5345861107927500 0.2553323684845001 0.4012496728043751 Zr
atom_frac 0.6595861107927500 0.2553323684845001 0.4012496728043751 Zr
atom_frac 0.7845861107927500 0.2553323684845001 0.4012496728043751 Zr
atom_frac 0.9095861107927500 0.2553323684845001 0.4012496728043751 Zr
atom_frac 0.0345861107927500 0.3803323684845001 0.4012496728043751 Zr
atom_frac 0.1595861107927500 0.3803323684845001 0.4012496728043751 Zr
atom_frac 0.2845861107927500 0.3803323684845001 0.4012496728043751 Zr
atom_frac 0.4095861107927499 0.3803323684845001 0.4012496728043751 Zr
atom_frac 0.5345861107927500 0.3803323684845001 0.4012496728043751 Zr
atom_frac 0.6595861107927500 0.3803323684845001 0.4012496728043751 Zr
atom_frac 0.7845861107927500 0.3803323684845001 0.4012496728043751 Zr
atom_frac 0.9095861107927500 0.3803323684845001 0.4012496728043751 Zr
atom_frac 0.0345861107927500 0.5053323684845000 0.4012496728043751 Zr
atom_frac 0.1595861107927500 0.5053323684845000 0.4012496728043751 Zr
atom_frac 0.2845861107927500 0.5053323684845000 0.4012496728043751 Zr
atom_frac 0.4095861107927499 0.5053323684845000 0.4012496728043751 Zr
atom_frac 0.5345861107927500 0.5053323684845000 0.4012496728043751 Zr
atom_frac 0.6595861107927500 0.5053323684845000 0.4012496728043751 Zr
atom_frac 0.7845861107927500 0.5053323684845000 0.4012496728043751 Zr
atom_frac 0.9095861107927500 0.5053323684845000 0.4012496728043751 Zr
atom_frac 0.0345861107927500 0.6303323684845000 0.4012496728043751 Zr
atom_frac 0.1595861107927500 0.6303323684845000 0.4012496728043751 Zr
atom_frac 0.2845861107927500 0.6303323684845000 0.4012496728043751 Zr
atom_frac 0.4095861107927499 0.6303323684845000 0.4012496728043751 Zr
atom_frac 0.5345861107927500 0.6303323684845000 0.4012496728043751 Zr
atom_frac 0.6595861107927500 0.6303323684845000 0.4012496728043751 Zr
atom_frac 0.7845861107927500 0.6303323684845000 0.4012496728043751 Zr
atom_frac 0.9095861107927500 0.6303323684845000 0.4012496728043751 Zr
atom_frac 0.0345861107927500 0.7553323684845000 0.4012496728043751 Zr
atom_frac 0.1595861107927500 0.7553323684845000 0.4012496728043751 Zr
atom_frac 0.2845861107927500 0.7553323684845000 0.4012496728043751 Zr
atom_frac 0.4095861107927499 0.7553323684845000 0.4012496728043751 Zr
atom_frac 0.5345861107927500 0.7553323684845000 0.4012496728043751 Zr
atom_frac 0.6595861107927500 0.7553323684845000 0.4012496728043751 Zr
atom_frac 0.7845861107927500 0.7553323684845000 0.4012496728043751 Zr
atom_frac 0.9095861107927500 0.7553323684845000 0.4012496728043751 Zr
atom_frac 0.0345861107927500 0.8803323684845001 0.4012496728043751 Zr
atom_frac 0.1595861107927500 0.8803323684845001 0.4012496728043751 Zr
atom_frac 0.2845861107927500 0.8803323684845001 0.4012496728043751 Zr
atom_frac 0.4095861107927499 0.8803323684845001 0.4012496728043751 Zr
atom_frac 0.5345861107927500 0.8803323684845001 0.4012496728043751 Zr
atom_frac 0.6595861107927500 0.8803323684845001 0.4012496728043751 Zr
atom_frac 0.7845861107927500 0.8803323684845001 0.4012496728043751 Zr
atom_frac 0.9095861107927500 0.8803323684845001 0.4012496728043751 Zr
atom_frac 0.0345861107927500 0.0053323684845000 0.5262496728043750 Zr
atom_frac 0.1595861107927500 0.0053323684845000 0.5262496728043750 Zr
atom_frac 0.2845861107927500 0.0053323684845000 0.5262496728043750 Zr
atom_frac 0.4095861107927499 0.0053323684845000 0.5262496728043750 Zr
atom_frac 0.5345861107927500 0.0053323684845000 0.5262496728043750 Zr
atom_frac 0.6595861107927500 0.0053323684845000 0.5262496728043750 Zr
atom_frac 0.7845861107927500 0.0053323684845000 0.5262496728043750 Zr
atom_frac 0.9095861107927500 0.0053323684845000 0.5262496728043750 Zr
atom_frac 0.0345861107927500 0.1303323684845000 0.5262496728043750 Zr
atom_frac 0.1595861107927500 0.1303323684845000 0.5262496728043750 Zr
atom_frac 0.2845861107927500 0.1303323684845000 0.5262496728043750 Zr
atom_frac 0.4095861107927499 0.1303323684845000 0.5262496728043750 Zr
atom_frac 0.5345861107927500 0.1303323684845000 0.5262496728043750 Zr
atom_frac 0.6595861107927500 0.1303323684845000 0.5262496728043750 Zr
atom_frac 0.7845861107927500 0.1303323684845000 0.5262496728043750 Zr
atom_frac 0.9095861107927500 0.1303323684845000 0.5262496728043750 Zr
atom_frac 0.0345861107927500 0.2553323684845001 0.5262496728043750 Zr
atom_frac 0.1595861107927500 0.2553323684845001 0.5262496728043750 Zr
atom_frac 0.2845861107927500 0.2553323684845001 0.5262496728043750 Zr
atom_frac 0.4095861107927499 0.2553323684845001 0.5262496728043750 Zr
atom_frac 0.5345861107927500 0.2553323684845001 0.5262496728043750 Zr
atom_frac 0.6595861107927500 0.2553323684845001 0.5262496728043750 Zr
atom_frac 0.7845861107927500 0.2553323684845001 0.5262496728043750 Zr
atom_frac 0.9095861107927500 0.2553323684845001 0.5262496728043750 Zr
atom_frac 0.0345861107927500 0.3803323684845001 0.5262496728043750 Zr
atom_frac 0.1595861107927500 0.3803323684845001 0.5262496728043750 Zr
atom_frac 0.2845861107927500 0.3803323684845001 0.5262496728043750 Zr
atom_frac 0.4095861107927499 0.3803323684845001 0.5262496728043750 Zr
atom_frac 0.5345861107927500 0.3803323684845001 0.5262496728043750 Zr
atom_frac 0.6595861107927500 0.3803323684845001 0.5262496728043750 Zr
atom_frac 0.7845861107927500 0.3803323684845001 0.5262496728043750 Zr
atom_frac 0.9095861107927500 0.3803323684845001 0.5262496728043750 Zr
atom_frac 0.0345861107927500 0.5053323684845000 0.5262496728043750 Zr
atom_frac 0.1595861107927500 0.5053323684845000 0.5262496728043750 Zr
atom_frac 0.2845861107927500 0.5053323684845000 0.5262496728043750 Zr
atom_frac 0.4095861107927499 0.5053323684845000 0.5262496728043750 Zr
atom_frac 0.5345861107927500 0.5053323684845000 0.5262496728043750 Zr
atom_frac 0.6595861107927500 0.5053323684845000 0.5262496728043750 Zr
atom_frac 0.7845861107927500 0.5053323684845000 0.5262496728043750 Zr
atom_frac 0.9095861107927500 0.5053323684845000 0.5262496728043750 Zr
atom_frac 0.0345861107927500 0.6303323684845000 0.5262496728043750 Zr
atom_frac 0.1595861107927500 0.6303323684845000 0.5262496728043750 Zr
atom_frac 0.2845861107927500 0.6303323684845000 0.5262496728043750 Zr
atom_frac 0.4095861107927499 0.6303323684845000 0.5262496728043750 Zr
atom_frac 0.5345861107927500 0.6303323684845000 0.5262496728043750 Zr
atom_frac 0.6595861107927500 0.6303323684845000 0.5262496728043750 Zr
atom_frac 0.7845861107927500 0.6303323684845000 0.5262496728043750 Zr
atom_frac 0.9095861107927500 0.6303323684845000 0.5262496728043750 Zr
atom_frac 0.0345861107927500 0.7553323684845000 0.5262496728043750 Zr
atom_frac 0.1595861107927500 0.7553323684845000 0.5262496728043750 Zr
atom_frac 0.2845861107927500 0.7553323684845000 0.5262496728043750 Zr
atom_frac 0.4095861107927499 0.7553323684845000 0.5262496728043750 Zr
atom_frac 0.5345861107927500 0.7553323684845000 0.5262496728043750 Zr
atom_frac 0.6595861107927500 0.7553323684845000 0.5262496728043750 Zr
atom_frac 0.7845861107927500 0.7553323684845000 0.5262496728043750 Zr
atom_frac 0.9095861107927500 0.7553323684845000 0.5262496728043750 Zr
atom_frac 0.0345861107927500 0.8803323684845001 0.5262496728043750 Zr
atom_frac 0.1595861107927500 0.8803323684845001 0.5262496728043750 Zr
atom_frac 0.2845861107927500 0.8803323684845001 0.5262496728043750 Zr
atom_frac 0.4095861107927499 0.8803323684845001 0.5262496728043750 Zr
atom_frac 0.5345861107927500 0.8803323684845001 0.5262496728043750 Zr
atom_frac 0.6595861107927500 0.8803323684845001 0.5262496728043750 Zr
atom_frac 0.7845861107927500 0.8803323684845001 0.5262496728043750 Zr
atom_frac 0.9095861107927500 0.8803323684845001 0.5262496728043750 Zr
atom_frac 0.0345861107927500 0.0053323684845000 0.6512496728043750 Zr
atom_frac 0.1595861107927500 0.0053323684845000 0.6512496728043750 Zr
atom_frac 0.2845861107927500 0.0053323684845000 0.6512496728043750 Zr
atom_frac 0.4095861107927499 0.0053323684845000 0.6512496728043750 Zr
atom_frac 0.5345861107927500 0.0053323684845000 0.6512496728043750 Zr
atom_frac 0.6595861107927500 0.0053323684845000 0.6512496728043750 Zr
atom_frac 0.7845861107927500 0.0053323684845000 0.6512496728043750 Zr
atom_frac 0.9095861107927500 0.0053323684845000 0.6512496728043750 Zr
atom_frac 0.0345861107927500 0.1303323684845000 0.6512496728043750 Zr
atom_frac 0.1595861107927500 0.1303323684845000 0.6512496728043750 Zr
atom_frac 0.2845861107927500 0.1303323684845000 0.6512496728043750 Zr
atom_frac 0.4095861107927499 0.1303323684845000 0.6512496728043750 Zr
atom_frac 0.5345861107927500 0.1303323684845000 0.6512496728043750 Zr
atom_frac 0.6595861107927500 0.1303323684845000 0.6512496728043750 Zr
atom_frac 0.7845861107927500 0.1303323684845000 0.6512496728043750 Zr
atom_frac 0.9095861107927500 0.1303323684845000 0.6512496728043750 Zr
atom_frac 0.0345861107927500 0.2553323684845001 0.6512496728043750 Zr
atom_frac 0.1595861107927500 0.2553323684845001 0.6512496728043750 Zr
atom_frac 0.2845861107927500 0.2553323684845001 0.6512496728043750 Zr
atom_frac 0.4095861107927499 0.2553323684845001 0.6512496728043750 Zr
atom_frac 0.5345861107927500 0.2553323684845001 0.6512496728043750 Zr
atom_frac 0.6595861107927500 0.2553323684845001 0.6512496728043750 Zr
atom_frac 0.7845861107927500 0.2553323684845001 0.6512496728043750 Zr
atom_frac 0.9095861107927500 0.2553323684845001 0.6512496728043750 Zr
atom_frac 0.0345861107927500 0.3803323684845001 0.6512496728043750 Zr
atom_frac 0.1595861107927500 0.3803323684845001 0.6512496728043750 Zr
atom_frac 0.2845861107927500 0.3803323684845001 0.6512496728043750 Zr
atom_frac 0.4095861107927499 0.3803323684845001 0.6512496728043750 Zr
atom_frac 0.5345861107927500 0.3803323684845001 0.6512496728043750 Zr
atom_frac 0.6595861107927500 0.3803323684845001 0.6512496728043750 Zr
atom_frac 0.7845861107927500 0.3803323684845001 0.6512496728043750 Zr
atom_frac 0.9095861107927500 0.3803323684845001 0.6512496728043750 Zr
atom_frac 0.0345861107927500 0.5053323684845000 0.6512496728043750 Zr
atom_frac 0.1595861107927500 0.5053323684845000 0.6512496728043750 Zr
atom_frac 0.2845861107927500 0.5053323684845000 0.6512496728043750 Zr
atom_frac 0.4095861107927499 0.5053323684845000 0.6512496728043750 Zr
atom_frac 0.5345861107927500 0.5053323684845000 0.6512496728043750 Zr
atom_frac 0.6595861107927500 0.5053323684845000 0.6512496728043750 Zr
atom_frac 0.7845861107927500 0.5053323684845000 0.6512496728043750 Zr
atom_frac 0.9095861107927500 0.5053323684845000 0.6512496728043750 Zr
atom_frac 0.0345861107927500 0.6303323684845000 0.6512496728043750 Zr
atom_frac 0.1595861107927500 0.6303323684845000 0.6512496728043750 Zr
atom_frac 0.2845861107927500 0.6303323684845000 0.6512496728043750 Zr
atom_frac 0.4095861107927499 0.6303323684845000 0.6512496728043750 Zr
atom_frac 0.5345861107927500 0.6303323684845000 0.6512496728043750 Zr
atom_frac 0.6595861107927500 0.6303323684845000 0.6512496728043750 Zr
atom_frac 0.7845861107927500 0.6303323684845000 0.6512496728043750 Zr
atom_frac 0.9095861107927500 0.6303323684845000 0.6512496728043750 Zr
atom_frac 0.0345861107927500 0.7553323684845000 0.6512496728043750 Zr
atom_frac 0.1595861107927500 0.7553323684845000 0.6512496728043750 Zr
atom_frac 0.2845861107927500 0.7553323684845000 0.6512496728043750 Zr
atom_frac 0.4095861107927499 0.7553323684845000 0.6512496728043750 Zr
atom_frac 0.5345861107927500 0.7553323684845000 0.6512496728043750 Zr
atom_frac 0.6595861107927500 0.7553323684845000 0.6512496728043750 Zr
atom_frac 0.7845861107927500 0.7553323684845000 0.6512496728043750 Zr
atom_frac 0.9095861107927500 0.7553323684845000 0.6512496728043750 Zr
atom_frac 0.0345861107927500 0.8803323684845001 0.6512496728043750 Zr
atom_frac 0.1595861107927500 0.8803323684845001 0.6512496728043750 Zr
atom_frac 0.2845861107927500 0.8803323684845001 0.6512496728043750 Zr
atom_frac 0.4095861107927499 0.8803323684845001 0.6512496728043750 Zr
atom_frac 0.5345861107927500 0.8803323684845001 0.6512496728043750 Zr
atom_frac 0.6595861107927500 0.8803323684845001 0.6512496728043750 Zr
atom_frac 0.7845861107927500 0.8803323684845001 0.6512496728043750 Zr
atom_frac 0.9095861107927500 0.8803323684845001 0.6512496728043750 Zr
atom_frac 0.0345861107927500 0.0053323684845000 0.7762496728043751 Zr
atom_frac 0.1595861107927500 0.0053323684845000 0.7762496728043751 Zr
atom_frac 0.2845861107927500 0.0053323684845000 0.7762496728043751 Zr
atom_frac 0.4095861107927499 0.0053323684845000 0.7762496728043751 Zr
atom_frac 0.5345861107927500 0.0053323684845000 0.7762496728043751 Zr
atom_frac 0.6595861107927500 0.0053323684845000 0.7762496728043751 Zr
atom_frac 0.7845861107927500 0.0053323684845000 0.7762496728043751 Zr
atom_frac 0.9095861107927500 0.0053323684845000 0.7762496728043751 Zr
atom_frac 0.0345861107927500 0.1303323684845000 0.7762496728043751 Zr
atom_frac 0.1595861107927500 0.1303323684845000 0.7762496728043751 Zr
atom_frac 0.2845861107927500 0.1303323684845000 0.7762496728043751 Zr
atom_frac 0.4095861107927499 0.1303323684845000 0.7762496728043751 Zr
atom_frac 0.5345861107927500 0.1303323684845000 0.7762496728043751 Zr
atom_frac 0.6595861107927500 0.1303323684845000 0.7762496728043751 Zr
atom_frac 0.7845861107927500 0.1303323684845000 0.7762496728043751 Zr
atom_frac 0.9095861107927500 0.1303323684845000 0.7762496728043751 Zr
atom_frac 0.0345861107927500 0.2553323684845001 0.7762496728043751 Zr
atom_frac 0.1595861107927500 0.2553323684845001 0.7762496728043751 Zr
atom_frac 0.2845861107927500 0.2553323684845001 0.7762496728043751 Zr
atom_frac 0.4095861107927499 0.2553323684845001 0.7762496728043751 Zr
atom_frac 0.5345861107927500 0.2553323684845001 0.7762496728043751 Zr
atom_frac 0.6595861107927500 0.2553323684845001 0.7762496728043751 Zr
atom_frac 0.7845861107927500 0.2553323684845001 0.7762496728043751 Zr
atom_frac 0.9095861107927500 0.2553323684845001 0.7762496728043751 Zr
atom_frac 0.0345861107927500 0.3803323684845001 0.7762496728043751 Zr
atom_frac 0.1595861107927500 0.3803323684845001 0.7762496728043751 Zr
atom_frac 0.2845861107927500 0.3803323684845001 0.7762496728043751 Zr
atom_frac 0.4095861107927499 0.3803323684845001 0.7762496728043751 Zr
atom_frac 0.5345861107927500 0.3803323684845001 0.7762496728043751 Zr
atom_frac 0.6595861107927500 0.3803323684845001 0.7762496728043751 Zr
atom_frac 0.7845861107927500 0.3803323684845001 0.7762496728043751 Zr
atom_frac 0.9095861107927500 0.3803323684845001 0.7762496728043751 Zr
atom_frac 0.0345861107927500 0.5053323684845000 0.7762496728043751 Zr
atom_frac 0.1595861107927500 0.5053323684845000 0.7762496728043751 Zr