#=======================================================
# FHI-aims file: 450_geometry.in.primitive.supercell_96.0010K
# Created using the Atomic Simulation Environment (ASE)
# Tue Oct 18 13:10:22 2022

# Additional information:
#  created from MB distrubtion
#  T = 10.0 K
#  quantum:             False
#  deterministic:       False
#  plus_minus:          False
#  gauge_eigenvectors:  False
#  Random seed:         400516731
#  Sample number:       1
#=======================================================
lattice_vector 10.3079999999999998 0.0000000000000000 0.0000000000000000 
lattice_vector 0.0000000000000000 10.4220000000000006 0.0000000000000000 
lattice_vector -1.7127774134546045 0.0000000000000000 10.5052905496211650 
atom 1.2462151334470397 0.2222957773818360 1.1030417585697936 Zr
    velocity -0.1408377114811794 -0.6311950291629330 -0.5651330781553965
atom 6.4002151334470403 0.2222957773818360 1.1030417585697936 Zr
    velocity -0.2726808777206072 -0.2018226445563076 0.2380062630545655
atom 1.2462151334470397 5.4332957773818364 1.1030417585697936 Zr
    velocity -0.1201955070977576 0.1263623380669689 0.2035569858785948
atom 6.4002151334470403 5.4332957773818364 1.1030417585697936 Zr
    velocity -0.1355759818566691 -0.0318260071032172 0.4178051707847696
atom 0.3898264267197374 0.2222957773818360 6.3556870333803763 Zr
    velocity 0.1098136447897723 0.4296714544445643 -0.1197682314346860
atom 5.5438264267197379 0.2222957773818360 6.3556870333803763 Zr
    velocity -0.0929505957806594 0.3591095125030310 -0.2061600879170520
atom 0.3898264267197374 5.4332957773818364 6.3556870333803763 Zr
    velocity -0.1355522603467394 0.2127089196389925 0.3168216359955878
atom 5.5438264267197379 5.4332957773818364 6.3556870333803763 Zr
    velocity 0.0195303953366006 0.3252185218351814 -0.4680902380927509
atom 3.0513958540582138 4.9887042226181650 4.1496035897778230 Zr
    velocity -0.2002558108786164 -0.7352478585672866 0.2954917131252243
atom 8.2053958540582155 4.9887042226181650 4.1496035897778230 Zr
    velocity 0.3774139886637415 -0.0211817976700436 -0.0303321137055303
atom 3.0513958540582138 10.1997042226181662 4.1496035897778230 Zr
    velocity -0.2135975297696809 0.0268222711474932 0.4900094569300067
atom 8.2053958540582155 10.1997042226181662 4.1496035897778230 Zr
    velocity -0.1022718529869121 0.2781807700419674 0.2199620978268894
atom 2.1950071473309123 4.9887042226181650 9.4022488645884081 Zr
    velocity -0.3502509283122944 0.3234063181514243 -0.0002810984105417
atom 7.3490071473309131 4.9887042226181650 9.4022488645884081 Zr
    velocity 0.1894497808775321 0.1960661285680418 -0.0222995813534073
atom 2.1950071473309123 10.1997042226181662 9.4022488645884081 Zr
    velocity -0.3535773298294597 -0.2216169449208653 -0.1855122629086993
atom 7.3490071473309131 10.1997042226181662 9.4022488645884081 Zr
    velocity -0.0234053465351792 -0.2047037262937070 0.2405609519840695
atom 3.4795902074218672 2.8277957773818372 1.5232809523725328 Zr
    velocity 0.1692629157297648 0.1774770364905907 0.1336212005571862
atom 8.6335902074218662 2.8277957773818372 1.5232809523725328 Zr
    velocity 0.0178613163340368 -0.2494900710488491 0.0650799435158548
atom 3.4795902074218672 8.0387957773818375 1.5232809523725328 Zr
    velocity 0.3636671952792519 -0.3112391130445288 0.1776219272389550
atom 8.6335902074218662 8.0387957773818375 1.5232809523725328 Zr
    velocity -0.7515996668881345 0.0661777828544302 0.5349757944703512
atom 2.6232015006945648 2.8277957773818372 6.7759262271831160 Zr
    velocity 0.5224517274349447 0.3583495168412518 0.2165300485232359
atom 7.7772015006945638 2.8277957773818372 6.7759262271831160 Zr
    velocity 0.2438375104187092 -0.3977925131251561 -0.1971354565859731
atom 2.6232015006945648 8.0387957773818375 6.7759262271831160 Zr
    velocity 0.0304878289550264 0.2624525668566481 -0.2247918365412607
atom 7.7772015006945638 8.0387957773818375 6.7759262271831160 Zr
    velocity -0.4427527901214784 -0.1556638636008476 -0.1671780732872736
atom 0.8180207800833886 2.3832042226181640 3.7293643959750846 Zr
    velocity -0.0831070655793102 0.0609662119648276 -0.4843424638783344
atom 5.9720207800833887 2.3832042226181640 3.7293643959750846 Zr
    velocity 0.5182044949148447 -0.3357691415589119 0.0783138242732758
atom 0.8180207800833886 7.5942042226181643 3.7293643959750846 Zr
    velocity -0.2377078760177005 0.1408411278481944 0.2864160672959745
atom 5.9720207800833887 7.5942042226181643 3.7293643959750846 Zr
    velocity -0.0240763959174629 0.5201256080201467 -0.0659414744760709
atom -0.0383679266439139 2.3832042226181640 8.9820096707856685 Zr
    velocity 0.2317238308666212 -0.0117648752360537 0.5520328085681983
atom 5.1156320733560863 2.3832042226181640 8.9820096707856685 Zr
    velocity -0.3275708917803297 -0.2642700254442190 -0.6857156898539096
atom -0.0383679266439139 7.5942042226181643 8.9820096707856685 Zr
    velocity 0.2944437378222438 0.0169901599814157 0.0938774256271722
atom 5.1156320733560863 7.5942042226181643 8.9820096707856685 Zr
    velocity 0.1921994293683589 -0.3484059316031934 -0.0445016510616559
atom 0.0645593105799487 1.7452020582561960 1.7999685047182779 O
    velocity -0.9960259459910573 -0.6676678062205301 -0.7648052226265367
atom 5.2185593105799484 1.7452020582561960 1.7999685047182779 O
    velocity 0.4377438219265218 0.5223823242594678 -0.4075692969633843
atom 0.0645593105799487 6.9562020582561965 1.7999685047182779 O
    velocity 0.0587804690294626 -1.2030946064959886 -0.4204918058827690
atom 5.2185593105799484 6.9562020582561965 1.7999685047182779 O
    velocity -0.5318798813050413 -0.4058051319653837 -1.4593923641878366
atom -0.7918293961473537 1.7452020582561960 7.0526137795288610 O
    velocity -0.8345664399719741 0.4505231767287812 -0.4701880104702560
atom 4.3621706038526460 1.7452020582561960 7.0526137795288610 O
    velocity 0.6524731519097331 1.1614679410648800 0.6309577959129002
atom -0.7918293961473537 6.9562020582561965 7.0526137795288610 O
    velocity 0.6655225031320806 0.8201233854871409 -0.4724633156288013
atom 4.3621706038526460 6.9562020582561965 7.0526137795288610 O
    velocity 0.3349241721054811 0.4585819695894511 1.3636060743956406
atom 4.2330516769253057 3.4657979417438054 3.4526768436293396 O
    velocity 0.1061461670849483 -0.8802425936554928 -0.9342469350601674
atom 9.3870516769253065 3.4657979417438054 3.4526768436293396 O
    velocity -0.9419649487129585 0.3595567239243887 0.9367729842030005
atom 4.2330516769253057 8.6767979417438053 3.4526768436293396 O
    velocity -0.5181205289171354 0.2401357899530973 -1.1713605187098781
atom 9.3870516769253065 8.6767979417438053 3.4526768436293396 O
    velocity -1.0547226161783141 0.2153481527720873 -0.6135394122737650
atom 3.3766629701980033 3.4657979417438054 8.7053221184399234 O
    velocity 0.8801732813686857 -0.4037586546785696 0.8716934367591982
atom 8.5306629701980050 3.4657979417438054 8.7053221184399234 O
    velocity -0.1006441652855798 -0.6494323407433953 0.0919651074849683
atom 3.3766629701980033 8.6767979417438053 8.7053221184399234 O
    velocity -0.8369973552627733 -0.2586053060753063 -1.3628397260941802
atom 8.5306629701980050 8.6767979417438053 8.7053221184399234 O
    velocity -0.4240981665732955 0.3666238081525388 0.3315367669911309
atom 4.6612460302889556 4.3507020582561973 0.8263542062240473 O
    velocity 0.1272739074521663 0.1585871581874325 0.7830164253026550
atom 9.8152460302889573 4.3507020582561973 0.8263542062240473 O
    velocity 1.0055023606198636 0.9394919867933251 -1.9290761705760773
atom 4.6612460302889556 9.5617020582561985 0.8263542062240473 O
    velocity -0.7096866620277740 0.9307430513362431 -0.5707906615612299
atom 9.8152460302889573 9.5617020582561985 0.8263542062240473 O
    velocity 0.4447914268308432 0.2738600597601336 0.9052256592024148
atom 3.8048573235616545 4.3507020582561973 6.0789994810346304 O
    velocity 0.7735250433092900 -0.5043650867182122 0.0102394945580308
atom 8.9588573235616558 4.3507020582561973 6.0789994810346304 O
    velocity -0.4924001196299048 0.2414841905484592 0.1729492951589000
atom 3.8048573235616545 9.5617020582561985 6.0789994810346304 O
    velocity -0.7752091744482359 -1.0661527961422599 0.5369548494826797
atom 8.9588573235616558 9.5617020582561985 6.0789994810346304 O
    velocity 0.6566814030271577 -0.9189835159679284 -1.0060508729519726
atom -0.3636350427837026 0.8602979417438040 4.4262911421235698 O
    velocity 0.7563087427651274 0.1189673961839203 0.5379695303624522
atom 4.7903649572162967 0.8602979417438040 4.4262911421235698 O
    velocity 0.7588936307161526 -0.4086732246890153 0.1226782463507751
atom -0.3636350427837026 6.0712979417438042 4.4262911421235698 O
    velocity 0.7299794479504302 1.5053360647468323 0.0030961657672968
atom 4.7903649572162967 6.0712979417438042 4.4262911421235698 O
    velocity 0.7570456974342172 -0.9761935683603641 -0.1039203778829166
atom -1.2200237495110051 0.8602979417438040 9.6789364169341532 O
    velocity -1.9578033930756391 -1.7022157884636733 0.1958113417899854
atom 3.9339762504889944 0.8602979417438040 9.6789364169341532 O
    velocity 0.9409280390756114 0.5148394737080967 -0.2994056641618799
atom -1.2200237495110051 6.0712979417438042 9.6789364169341532 O
    velocity -0.0568744017765318 -0.6644133458830760 0.2437774609729950
atom 3.9339762504889944 6.0712979417438042 9.6789364169341532 O
    velocity 0.2020392992788619 -0.2539645154171092 0.6996093291537397
atom 1.9049336892228839 3.9469704856184893 2.5171159375517633 O
    velocity -0.0258993074147983 -0.7835026269139921 0.4548199541995971
atom 7.0589336892228838 3.9469704856184893 2.5171159375517633 O
    velocity -1.2083908912725083 0.3702250883188586 0.5814047788823221
atom 1.9049336892228839 9.1579704856184883 2.5171159375517633 O
    velocity 0.8487110964127869 0.1163020875828205 0.0802370020204836
atom 7.0589336892228838 9.1579704856184883 2.5171159375517633 O
    velocity 0.5236205819887628 -0.0312353401761574 -0.2834058125622658
atom 1.0485449824955815 3.9469704856184893 7.7697612123623472 O
    velocity 0.1912946254911162 0.5983932998904291 -0.7212776858903612
atom 6.2025449824955805 3.9469704856184893 7.7697612123623472 O
    velocity -0.2785867063431874 -0.7870808621006219 -0.3551112305148452
atom 1.0485449824955815 9.1579704856184883 7.7697612123623472 O
    velocity 1.0150685630129992 -1.2464764084397308 0.5389056930828672
atom 6.2025449824955805 9.1579704856184883 7.7697612123623472 O
    velocity 0.9734221423296777 0.7040995267435178 0.4859445283146047
atom 2.3926772982823712 1.2640295143815121 2.7355294107958539 O
    velocity 0.5100905248957092 0.9707974751523156 -1.3814428654377431
atom 7.5466772982823702 1.2640295143815121 2.7355294107958539 O
    velocity 1.2017326645610191 -0.0295897714612613 0.5580683941666384
atom 2.3926772982823712 6.4750295143815126 2.7355294107958539 O
    velocity 0.0553977495023602 -0.1846075351621475 0.7495369300990071
atom 7.5466772982823702 6.4750295143815126 2.7355294107958539 O
    velocity -0.7335118534157252 -0.0696027287706522 0.1760354468805447
atom 1.5362885915550686 1.2640295143815121 7.9881746856064382 O
    velocity -0.3183962902764946 0.1827010439567692 -1.2195628088969741
atom 6.6902885915550678 1.2640295143815121 7.9881746856064382 O
    velocity 0.5069606034291104 -0.3832627866815209 -0.9451992981231651
atom 1.5362885915550686 6.4750295143815126 7.9881746856064382 O
    velocity -0.2617603367630076 -0.1293902175211698 -0.9611817551866322
atom 6.6902885915550678 6.4750295143815126 7.9881746856064382 O
    velocity -0.1715497417416333 0.4289751886561468 -0.4217589691654097
atom 2.8208716516460224 1.3414704856184880 0.1092067733905616 O
    velocity -0.8683580690626099 0.6036970067530903 0.9607315936270305
atom 7.9748716516460219 1.3414704856184880 0.1092067733905616 O
    velocity 0.9338325085002745 -0.9456007752737232 0.7803706487463092
atom 2.8208716516460224 6.5524704856184890 0.1092067733905616 O
    velocity 0.4886939157045889 0.0079830818818821 -0.3147125156218937
atom 7.9748716516460219 6.5524704856184890 0.1092067733905616 O
    velocity -0.7977116724613347 0.3337334430378945 -0.9000366021340118
atom 1.9644829449187200 1.3414704856184880 5.3618520482011442 O
    velocity 0.3668215131989507 0.4540919023504580 0.7544098662711303
atom 7.1184829449187195 1.3414704856184880 5.3618520482011442 O
    velocity 0.6736750168467662 0.0079446598152993 -0.4502347829380010
atom 1.9644829449187200 6.5524704856184890 5.3618520482011442 O
    velocity 0.4244985177864957 -0.3271777007242148 -1.2565302513738337
atom 7.1184829449187195 6.5524704856184890 5.3618520482011442 O
    velocity 0.4593696404887800 1.1900722212470514 -0.7966533203901095
atom 1.4767393358592324 3.8695295143815134 5.1434385749570568 O
    velocity -0.0289050085516704 0.3655533056787310 0.1928211589668193
atom 6.6307393358592321 3.8695295143815134 5.1434385749570568 O
    velocity 0.0614917062005563 -0.6410123613214899 1.0870467101486285
atom 1.4767393358592324 9.0805295143815137 5.1434385749570568 O
    velocity 1.0503364603933050 0.1262440545344336 -0.3065021839577796
atom 6.6307393358592321 9.0805295143815137 5.1434385749570568 O
    velocity -0.2310580570741720 0.8870046302193436 0.1322789147323833
atom 0.6203506291319300 3.8695295143815134 10.3960838497676402 O
    velocity -1.6543749859724914 0.5126042274424433 -0.8000065642192207
atom 5.7743506291319298 3.8695295143815134 10.3960838497676402 O
    velocity 0.1310027625723300 0.0882857778455999 0.8658707396212041
atom 0.6203506291319300 9.0805295143815137 10.3960838497676402 O
    velocity 0.8946273595636384 -0.8701934484588953 -0.4635938349687995
atom 5.7743506291319298 9.0805295143815137 10.3960838497676402 O
    velocity -0.6411069258826042 1.5400484686751041 0.4920287020712072
