#=======================================================
# FHI-aims file: 450_geometry.in.primitive.supercell_324.0010K
# Created using the Atomic Simulation Environment (ASE)
# Tue Oct 18 13:10:27 2022

# Additional information:
#  created from MB distrubtion
#  T = 10.0 K
#  quantum:             False
#  deterministic:       False
#  plus_minus:          False
#  gauge_eigenvectors:  False
#  Random seed:         1039465787
#  Sample number:       1
#=======================================================
lattice_vector 15.4619999999999997 0.0000000000000000 0.0000000000000000 
lattice_vector 0.0000000000000000 15.6330000000000009 0.0000000000000000 
lattice_vector -2.5691661201819067 0.0000000000000000 15.7579358244317476 
atom 1.2462151334470404 0.2222957773818360 1.1030417585697929 Zr
    velocity -0.2188096043302678 -0.3597390487762906 -0.0869583403992513
atom 6.4002151334470403 0.2222957773818360 1.1030417585697929 Zr
    velocity -0.0295045326304829 0.0618773873536399 0.3991020021645025
atom 11.5542151334470393 0.2222957773818360 1.1030417585697929 Zr
    velocity -0.0062769937171493 0.5019057444684850 0.4677214106595753
atom 1.2462151334470404 5.4332957773818356 1.1030417585697929 Zr
    velocity -0.2287134194760176 -0.2603699231512262 0.0295523391200030
atom 6.4002151334470403 5.4332957773818356 1.1030417585697929 Zr
    velocity 0.1526259364062734 0.1260537974417390 0.3184492479307066
atom 11.5542151334470393 5.4332957773818356 1.1030417585697929 Zr
    velocity -0.2741428390804806 -0.0053269462284264 0.2119986291902460
atom 1.2462151334470404 10.6442957773818367 1.1030417585697929 Zr
    velocity 0.1647854709132220 0.2301713303590574 0.2424714147387593
atom 6.4002151334470403 10.6442957773818367 1.1030417585697929 Zr
    velocity 0.0559044686550802 0.0607977730720222 0.1160324344026704
atom 11.5542151334470393 10.6442957773818367 1.1030417585697929 Zr
    velocity -0.3721872360538986 0.2765489562737390 0.0743896218265098
atom 0.3898264267197379 0.2222957773818360 6.3556870333803763 Zr
    velocity 0.0575764212651356 0.0363300307936905 -0.2116222678256637
atom 5.5438264267197379 0.2222957773818360 6.3556870333803763 Zr
    velocity -0.2750469383920243 -0.2075230130166168 -0.4150942807954867
atom 10.6978264267197343 0.2222957773818360 6.3556870333803763 Zr
    velocity -0.0676463244923472 -0.0452793393784661 0.2524157327194272
atom 0.3898264267197379 5.4332957773818356 6.3556870333803763 Zr
    velocity -0.3763567912471161 0.3839252422628895 0.0371797049148756
atom 5.5438264267197379 5.4332957773818356 6.3556870333803763 Zr
    velocity -0.0114714813373748 0.2921396641857550 -0.4485556492640428
atom 10.6978264267197343 5.4332957773818356 6.3556870333803763 Zr
    velocity 0.0721520309910739 0.1606370497666393 -0.2635398203626981
atom 0.3898264267197379 10.6442957773818367 6.3556870333803763 Zr
    velocity 0.3881955643380058 -0.2081554436323383 -0.0773037681344563
atom 5.5438264267197379 10.6442957773818367 6.3556870333803763 Zr
    velocity 0.4519021379190522 -0.0711980581946058 -0.0990937091176760
atom 10.6978264267197343 10.6442957773818367 6.3556870333803763 Zr
    velocity 0.1205047381987951 0.3027633153329521 0.0213998063284606
atom -0.4665622800075642 0.2222957773818360 11.6083323081909580 Zr
    velocity 0.0974749821891459 0.1637978149793178 -0.6192355945354233
atom 4.6874377199924355 0.2222957773818360 11.6083323081909580 Zr
    velocity -0.2086154167602687 0.0903852191861765 -0.2017742188424106
atom 9.8414377199924346 0.2222957773818360 11.6083323081909580 Zr
    velocity -0.4599700723963241 -0.2147250689570294 0.0827659574262296
atom -0.4665622800075642 5.4332957773818356 11.6083323081909580 Zr
    velocity -0.5016132023517942 -0.0839785981339603 -0.1228678374935474
atom 4.6874377199924355 5.4332957773818356 11.6083323081909580 Zr
    velocity -0.1286711863896263 0.1802484765825584 0.0905460936865676
atom 9.8414377199924346 5.4332957773818356 11.6083323081909580 Zr
    velocity -0.0906851858306635 -0.2284502763113717 0.0354419286280367
atom -0.4665622800075642 10.6442957773818367 11.6083323081909580 Zr
    velocity 0.1322735352991468 -0.0795461500087483 0.3215190649812312
atom 4.6874377199924355 10.6442957773818367 11.6083323081909580 Zr
    velocity 0.6604445014652111 0.2595233737897036 -0.0145582128986277
atom 9.8414377199924346 10.6442957773818367 11.6083323081909580 Zr
    velocity -0.6474385866834086 0.3514866292623113 -0.1508678096143998
atom 3.0513958540582147 4.9887042226181650 4.1496035897778238 Zr
    velocity -0.5262114027333789 -0.3589585411656940 0.0074315846185880
atom 8.2053958540582137 4.9887042226181650 4.1496035897778238 Zr
    velocity 0.3821149932225508 0.4727856109368646 -0.3785416431044457
atom 13.3593958540582118 4.9887042226181650 4.1496035897778238 Zr
    velocity -0.0333181049124212 0.2214348705867923 0.5001925866405986
atom 3.0513958540582147 10.1997042226181627 4.1496035897778238 Zr
    velocity -0.4001259560612478 0.0428153883073357 -0.4090999684503315
atom 8.2053958540582137 10.1997042226181627 4.1496035897778238 Zr
    velocity -0.0902380131060583 -0.1225368272637476 0.1667640879635154
atom 13.3593958540582118 10.1997042226181627 4.1496035897778238 Zr
    velocity -0.2967444427004965 -0.0617755283531521 -0.1253131462261846
atom 3.0513958540582147 15.4107042226181665 4.1496035897778238 Zr
    velocity -0.0079885421899137 0.4043644414289490 -0.2193937544864698
atom 8.2053958540582137 15.4107042226181665 4.1496035897778238 Zr
    velocity -0.3098850857646696 -0.1718582030272837 0.0248124136495660
atom 13.3593958540582118 15.4107042226181665 4.1496035897778238 Zr
    velocity -0.1879673490253660 -0.3568716243698500 0.7746490036567959
atom 2.1950071473309127 4.9887042226181650 9.4022488645884046 Zr
    velocity 0.3635293032578941 -0.0512418113915338 -0.2450161804444522
atom 7.3490071473309113 4.9887042226181650 9.4022488645884046 Zr
    velocity 0.2549854647932940 0.0171791356748036 -0.2021969948052557
atom 12.5030071473309103 4.9887042226181650 9.4022488645884046 Zr
    velocity 0.6666018642664543 -0.0851861922909393 0.8319943007873875
atom 2.1950071473309127 10.1997042226181627 9.4022488645884046 Zr
    velocity 0.7240001138153705 -0.7694442001468051 -0.3926840562551242
atom 7.3490071473309113 10.1997042226181627 9.4022488645884046 Zr
    velocity -0.0435730776474639 0.5052560576675758 -0.0267635246745720
atom 12.5030071473309103 10.1997042226181627 9.4022488645884046 Zr
    velocity -0.0300949122733717 -0.3440537536449079 -0.0710760730760283
atom 2.1950071473309127 15.4107042226181665 9.4022488645884046 Zr
    velocity -0.1510529377448750 0.0987105833107792 -0.6210587325538380
atom 7.3490071473309113 15.4107042226181665 9.4022488645884046 Zr
    velocity -0.3477904943596302 0.0645699145472255 0.2865197221488518
atom 12.5030071473309103 15.4107042226181665 9.4022488645884046 Zr
    velocity 0.1628342338499031 0.2769185012920998 0.3128283608760346
atom 1.3386184406036103 4.9887042226181650 14.6548941393989889 Zr
    velocity -0.3913263049063030 -0.1277265840392658 0.2909385343776722
atom 6.4926184406036089 4.9887042226181650 14.6548941393989889 Zr
    velocity -0.1496467082578954 0.1375259269872619 0.1794240498209242
atom 11.6466184406036071 4.9887042226181650 14.6548941393989889 Zr
    velocity -0.0555166640255685 -0.3014002160812845 0.7031350361719824
atom 1.3386184406036103 10.1997042226181627 14.6548941393989889 Zr
    velocity -0.3609075930598654 0.3717826593663519 0.3817234359923591
atom 6.4926184406036089 10.1997042226181627 14.6548941393989889 Zr
    velocity -0.2272178817463753 -0.2730454760584438 -0.3524783677512433
atom 11.6466184406036071 10.1997042226181627 14.6548941393989889 Zr
    velocity 0.2512552718472448 -0.0152142284391709 0.0540039480295009
atom 1.3386184406036103 15.4107042226181665 14.6548941393989889 Zr
    velocity 0.5639534374948940 -0.1453431262880342 0.0768512395204355
atom 6.4926184406036089 15.4107042226181665 14.6548941393989889 Zr
    velocity -0.0984427876450817 -0.0819782170471214 0.2381085748443256
atom 11.6466184406036071 15.4107042226181665 14.6548941393989889 Zr
    velocity 0.3719168622290986 0.1058357096524025 -0.0553706598875170
atom 3.4795902074218663 2.8277957773818367 1.5232809523725315 Zr
    velocity 0.1375291236302190 -0.1274780305951923 -0.0396048310259490
atom 8.6335902074218644 2.8277957773818367 1.5232809523725315 Zr
    velocity 0.3326886997536598 -0.3031863750183185 0.3779559032781573
atom 13.7875902074218626 2.8277957773818367 1.5232809523725315 Zr
    velocity 0.2690532382035596 -0.3209547296585808 0.1015253856904932
atom 3.4795902074218663 8.0387957773818375 1.5232809523725315 Zr
    velocity -0.2836510494418852 -0.3474873888147429 0.1668062009474713
atom 8.6335902074218644 8.0387957773818375 1.5232809523725315 Zr
    velocity 0.7630553151460645 0.1497701101095800 -0.1012431550606842
atom 13.7875902074218626 8.0387957773818375 1.5232809523725315 Zr
    velocity 0.0275613234222993 0.0541609627044731 -0.0665977705218003
atom 3.4795902074218663 13.2497957773818378 1.5232809523725315 Zr
    velocity -0.0104133280001456 -0.1488514632812021 -0.0745835362110926
atom 8.6335902074218644 13.2497957773818378 1.5232809523725315 Zr
    velocity -0.3127883638463740 0.1343491022311525 0.2161406339500817
atom 13.7875902074218626 13.2497957773818378 1.5232809523725315 Zr
    velocity -0.2732818940601086 -0.0203622371211499 -0.1475215254341312
atom 2.6232015006945635 2.8277957773818367 6.7759262271831151 Zr
    velocity -0.2549829544609730 0.2112179157434881 0.3358350279162970
atom 7.7772015006945621 2.8277957773818367 6.7759262271831151 Zr
    velocity 0.3504531188729227 0.2599527394600650 0.1196371042708889
atom 12.9312015006945611 2.8277957773818367 6.7759262271831151 Zr
    velocity 0.6931873087496904 -0.1770753837708625 -0.2799294190967608
atom 2.6232015006945635 8.0387957773818375 6.7759262271831151 Zr
    velocity 0.0026872263844115 -0.1783847970069996 0.1320231277172618
atom 7.7772015006945621 8.0387957773818375 6.7759262271831151 Zr
    velocity 0.0793887363983864 -0.1660154656754688 0.7708995573084062
atom 12.9312015006945611 8.0387957773818375 6.7759262271831151 Zr
    velocity 0.5372615619711284 0.0654041379126840 0.0476183548000185
atom 2.6232015006945635 13.2497957773818378 6.7759262271831151 Zr
    velocity -0.5883120146060107 -0.0834948681871158 -0.2589403088202829
atom 7.7772015006945621 13.2497957773818378 6.7759262271831151 Zr
    velocity -0.1009063652851880 0.0138942462680072 -0.1313352381081067
atom 12.9312015006945611 13.2497957773818378 6.7759262271831151 Zr
    velocity -0.3253347128639545 -0.0538685025935027 0.2780400772949700
atom 1.7668127939672615 2.8277957773818367 12.0285715019936976 Zr
    velocity 0.0065873102140309 -0.1101924709913592 0.3603752669098221
atom 6.9208127939672597 2.8277957773818367 12.0285715019936976 Zr
    velocity -0.0049158465072894 0.5536494298013227 0.0445323439978337
atom 12.0748127939672578 2.8277957773818367 12.0285715019936976 Zr
    velocity 0.3189332888918955 0.1181501849975566 -0.1982847567692511
atom 1.7668127939672615 8.0387957773818375 12.0285715019936976 Zr
    velocity -0.1724842008644874 -0.3755564432464371 0.2262859206726724
atom 6.9208127939672597 8.0387957773818375 12.0285715019936976 Zr
    velocity -0.2497750353422661 -0.3173928444080971 0.1756203587469746
atom 12.0748127939672578 8.0387957773818375 12.0285715019936976 Zr
    velocity -0.3981879315630952 0.1763844406663324 -0.1812595546826143
atom 1.7668127939672615 13.2497957773818378 12.0285715019936976 Zr
    velocity 0.0499054072054209 -0.1791185112480770 0.0844281757637676
atom 6.9208127939672597 13.2497957773818378 12.0285715019936976 Zr
    velocity -0.5687545700870389 -0.3763108012619191 -0.0671501129362050
atom 12.0748127939672578 13.2497957773818378 12.0285715019936976 Zr
    velocity 0.3610657766607985 0.0945407625031764 -0.3872523725455896
atom 0.8180207800833891 2.3832042226181631 3.7293643959750846 Zr
    velocity -0.2996038479943889 0.2945430434581670 0.0419173578194044
atom 5.9720207800833887 2.3832042226181631 3.7293643959750846 Zr
    velocity 0.0005281489167161 0.2681555176334384 0.0104521145685828
atom 11.1260207800833886 2.3832042226181631 3.7293643959750846 Zr
    velocity 0.2220866310822124 -0.3594047994990320 -0.2191391571204714
atom 0.8180207800833891 7.5942042226181643 3.7293643959750846 Zr
    velocity -0.3709245115297884 0.9797801267918618 -0.0695532268343877
atom 5.9720207800833887 7.5942042226181643 3.7293643959750846 Zr
    velocity 0.3701780484033724 0.1780407854375387 0.0573767685640420
atom 11.1260207800833886 7.5942042226181643 3.7293643959750846 Zr
    velocity -0.0729624985992982 -0.0352563298398772 0.4141490863742539
atom 0.8180207800833891 12.8052042226181637 3.7293643959750846 Zr
    velocity 0.4334628079512546 -0.8069715224387239 0.2170177067723492
atom 5.9720207800833887 12.8052042226181637 3.7293643959750846 Zr
    velocity -0.0991072932796669 -0.3388091033956409 0.2023208494224552
atom 11.1260207800833886 12.8052042226181637 3.7293643959750846 Zr
    velocity 0.3704023307859374 -0.1293624521158289 0.0314548724454083
atom -0.0383679266439132 2.3832042226181631 8.9820096707856685 Zr
    velocity 0.0426862292950065 -0.3767835298947650 -0.4070308035608600
atom 5.1156320733560863 2.3832042226181631 8.9820096707856685 Zr
    velocity -0.0338333681573171 0.2106066987823922 -0.1054411062394692
atom 10.2696320733560853 2.3832042226181631 8.9820096707856685 Zr
    velocity 0.1204150172392122 0.1914767508332457 0.3391423658602405
atom -0.0383679266439132 7.5942042226181643 8.9820096707856685 Zr
    velocity 0.1896897919192206 0.1164311857671990 -0.2350711851128604
atom 5.1156320733560863 7.5942042226181643 8.9820096707856685 Zr
    velocity -0.0280409387077107 -0.1637800047411463 -0.3891975685834178
atom 10.2696320733560853 7.5942042226181643 8.9820096707856685 Zr
    velocity 0.0952239363027465 -0.2613573468028147 0.5584931275517242
atom -0.0383679266439132 12.8052042226181637 8.9820096707856685 Zr
    velocity 0.1820865952724872 0.1547102198756153 -0.0201317861664964
atom 5.1156320733560863 12.8052042226181637 8.9820096707856685 Zr
    velocity -0.2890864681046038 -0.0906475065932591 -0.0560821348628875
atom 10.2696320733560853 12.8052042226181637 8.9820096707856685 Zr
    velocity 0.2623052665841385 0.1511276785355844 0.4205490480330153
atom -0.8947566333712170 2.3832042226181631 14.2346549455962492 Zr
    velocity -0.2377939732199134 -0.0453321650097548 0.0236441615019503
atom 4.2592433666287848 2.3832042226181631 14.2346549455962492 Zr
    velocity -0.0110191858099448 -0.1407557521773655 -0.2922380371345241
atom 9.4132433666287838 2.3832042226181631 14.2346549455962492 Zr
    velocity 0.3435478513062412 -0.1268844964852567 -0.1736640187765690
atom -0.8947566333712170 7.5942042226181643 14.2346549455962492 Zr
    velocity -0.5926736603558800 -0.0966637815155802 -0.4044418301526042
atom 4.2592433666287848 7.5942042226181643 14.2346549455962492 Zr
    velocity 0.2012839527232511 -0.4768535375190343 -0.4038942114811314
atom 9.4132433666287838 7.5942042226181643 14.2346549455962492 Zr
    velocity 0.0391165664618859 0.0025943796270643 0.5856353267739169
atom -0.8947566333712170 12.8052042226181637 14.2346549455962492 Zr
    velocity -0.2205637400955043 -0.6595246016113165 -0.3041387706817935
atom 4.2592433666287848 12.8052042226181637 14.2346549455962492 Zr
    velocity 0.1315850049218282 0.2236656608158468 0.0328676777959873
atom 9.4132433666287838 12.8052042226181637 14.2346549455962492 Zr
    velocity 0.0645943847974437 0.3124431654664554 0.0042831845391800
atom 0.0645593105799491 1.7452020582561960 1.7999685047182783 O
    velocity 0.9725853978255034 -1.3663060181590698 -0.4430403245998273
atom 5.2185593105799466 1.7452020582561960 1.7999685047182783 O
    velocity 1.5958110992820387 -1.0677005067036676 0.3753296681049532
atom 10.3725593105799465 1.7452020582561960 1.7999685047182783 O
    velocity 0.1254691720907605 1.1671400419309950 0.7408791813971701
atom 0.0645593105799491 6.9562020582561956 1.7999685047182783 O
    velocity -0.1633063505080228 -0.1217686505569960 -1.3446254473873303
atom 5.2185593105799466 6.9562020582561956 1.7999685047182783 O
    velocity -0.2916235026910124 -0.4393654405568247 -0.2483701992745654
atom 10.3725593105799465 6.9562020582561956 1.7999685047182783 O
    velocity 0.6233165722623933 1.4897361562993416 -0.0287950853577622
atom 0.0645593105799491 12.1672020582561959 1.7999685047182783 O
    velocity -0.4492448710551390 1.0091384138975326 0.6487668750272734
atom 5.2185593105799466 12.1672020582561959 1.7999685047182783 O
    velocity -1.9775844304455565 -0.9204746457697471 -1.1634775054753079
atom 10.3725593105799465 12.1672020582561959 1.7999685047182783 O
    velocity 0.0576088475543482 0.0013412027973416 0.1092200471424369
atom -0.7918293961473530 1.7452020582561960 7.0526137795288601 O
    velocity -0.2173005751060140 -0.2927404795595416 -0.0804546518463025
atom 4.3621706038526451 1.7452020582561960 7.0526137795288601 O
    velocity -1.1697799522894379 -0.0666607778586135 1.0732948467473296
atom 9.5161706038526432 1.7452020582561960 7.0526137795288601 O
    velocity 0.9965431939667374 0.4969122206305289 0.9719581959477439
atom -0.7918293961473530 6.9562020582561956 7.0526137795288601 O
    velocity -0.7306840751375070 -0.3492708313339414 -0.1431735894246609
atom 4.3621706038526451 6.9562020582561956 7.0526137795288601 O
    velocity 0.7493844598208625 0.6092457926294601 -0.1011584671806056
atom 9.5161706038526432 6.9562020582561956 7.0526137795288601 O
    velocity 0.3531550226608340 -0.2151429816717077 -0.0847156422463469
atom -0.7918293961473530 12.1672020582561959 7.0526137795288601 O
    velocity -0.6152151827601307 1.5304097071876037 -0.1958611016511021
atom 4.3621706038526451 12.1672020582561959 7.0526137795288601 O
    velocity -0.6662323525977241 -0.2843262958915613 -1.7150700882248577
atom 9.5161706038526432 12.1672020582561959 7.0526137795288601 O
    velocity 0.1007108745693426 -0.5876402187337493 -0.1048675037274548
atom -1.6482181028746554 1.7452020582561960 12.3052590543394427 O
    velocity -0.8894410436421308 0.1752493338470739 -0.2312459162705024
atom 3.5057818971253427 1.7452020582561960 12.3052590543394427 O
    velocity -0.0404592971935565 0.0574796585988634 -1.2004689710598166
atom 8.6597818971253417 1.7452020582561960 12.3052590543394427 O
    velocity -0.6430432075847747 -0.2206747604883647 0.2831384758017969
atom -1.6482181028746554 6.9562020582561956 12.3052590543394427 O
    velocity 0.2420285329899709 -1.1218472069645149 -1.2511022549771056
atom 3.5057818971253427 6.9562020582561956 12.3052590543394427 O
    velocity 0.9983276833435368 -0.6967555407206810 1.1077023646721942
atom 8.6597818971253417 6.9562020582561956 12.3052590543394427 O
    velocity -0.6009070716500646 0.4577626215525878 -0.4344838491744983
atom -1.6482181028746554 12.1672020582561959 12.3052590543394427 O
    velocity 0.3269398897363190 -1.7242009147089976 -0.4401459402654583
atom 3.5057818971253427 12.1672020582561959 12.3052590543394427 O
    velocity 0.9719587997836983 -0.4155599361052577 -0.8816172043142921
atom 8.6597818971253417 12.1672020582561959 12.3052590543394427 O
    velocity 0.7338958827273183 0.0997166902770987 0.1562545624491869
atom 4.2330516769253057 3.4657979417438054 3.4526768436293396 O
    velocity -0.6211830118309026 -0.6734840471070908 0.7317325939559437
atom 9.3870516769253065 3.4657979417438054 3.4526768436293396 O
    velocity 0.2608102995554790 -0.6304355294045784 0.0433010609914491
atom 14.5410516769253046 3.4657979417438054 3.4526768436293396 O
    velocity -0.4207116115775620 -0.6766910435045753 -1.1772603794017924
atom 4.2330516769253057 8.6767979417438035 3.4526768436293396 O
    velocity -1.0884475620644274 0.7800888222303902 1.5159825049471738
atom 9.3870516769253065 8.6767979417438035 3.4526768436293396 O
    velocity 0.3766656436860643 0.3496432412841299 -0.7044796560211944
atom 14.5410516769253046 8.6767979417438035 3.4526768436293396 O
    velocity -0.2542980017331458 0.1697648893908703 0.0947051711330067
atom 4.2330516769253057 13.8877979417438056 3.4526768436293396 O
    velocity 0.2821223755689660 0.6176510913458274 0.9502253536202160
atom 9.3870516769253065 13.8877979417438056 3.4526768436293396 O
    velocity -0.6152808088448658 -0.5295833230193839 -0.0241486949435819
atom 14.5410516769253046 13.8877979417438056 3.4526768436293396 O
    velocity 0.7011736860820182 0.0936956353494023 0.2660352878775569
atom 3.3766629701980038 3.4657979417438054 8.7053221184399199 O
    velocity -0.9177957058873711 0.2848656649503077 0.0574585385583979
atom 8.5306629701980050 3.4657979417438054 8.7053221184399199 O
    velocity 0.3621885562877379 0.1395863744951108 -0.9159698199456221
atom 13.6846629701980032 3.4657979417438054 8.7053221184399199 O
    velocity 0.5227903526728351 0.6299257783468759 0.3640591708796310
atom 3.3766629701980038 8.6767979417438035 8.7053221184399199 O
    velocity 0.1781825927499951 -0.3645258945490493 0.8542982890451138
atom 8.5306629701980050 8.6767979417438035 8.7053221184399199 O
    velocity -0.3205076328708301 0.1721285482434088 -1.4884559868403979
atom 13.6846629701980032 8.6767979417438035 8.7053221184399199 O
    velocity -0.3997128915245953 0.3617285100427450 -0.0838735095202314
atom 3.3766629701980038 13.8877979417438056 8.7053221184399199 O
    velocity -0.7795363890797011 1.0651695334780409 -0.8729927913690411
atom 8.5306629701980050 13.8877979417438056 8.7053221184399199 O
    velocity 0.1152077251391155 1.2738130383550714 0.4002069505641210
atom 13.6846629701980032 13.8877979417438056 8.7053221184399199 O
    velocity 1.1272161088979398 -0.1968165068795022 -0.0855533493231417
atom 2.5202742634707014 3.4657979417438054 13.9579673932505042 O
    velocity 0.6309518449352799 -0.9017889415573680 0.8457048743729146
atom 7.6742742634707017 3.4657979417438054 13.9579673932505042 O
    velocity -0.6915905320377544 -0.1872604685537364 0.5405085135734269
atom 12.8282742634706999 3.4657979417438054 13.9579673932505042 O
    velocity 0.4112623891024818 0.0567289956763473 0.0560017887441804
atom 2.5202742634707014 8.6767979417438035 13.9579673932505042 O
    velocity 1.6594657855594706 0.0442168930595711 0.4375682339665123
atom 7.6742742634707017 8.6767979417438035 13.9579673932505042 O
    velocity -0.3716048226507753 -0.1055246192839788 0.0672876252074773
atom 12.8282742634706999 8.6767979417438035 13.9579673932505042 O
    velocity -0.8494642729274331 -0.0179105855288632 0.3760434030232645
atom 2.5202742634707014 13.8877979417438056 13.9579673932505042 O
    velocity -0.2772213724176262 -0.2914925879329821 -1.0428040522388939
atom 7.6742742634707017 13.8877979417438056 13.9579673932505042 O
    velocity 0.2482622891370772 0.1428866568925804 -0.8947663394362471
atom 12.8282742634706999 13.8877979417438056 13.9579673932505042 O
    velocity -0.6291609763366536 0.6817059073304369 -0.4997630718200880
atom 4.6612460302889556 4.3507020582561964 0.8263542062240480 O
    velocity -0.9270695099918003 0.7567880393304383 1.2046215238068341
atom 9.8152460302889573 4.3507020582561964 0.8263542062240480 O
    velocity 0.8199890435025555 0.5604860452615547 -1.0635411605986334
atom 14.9692460302889536 4.3507020582561964 0.8263542062240480 O
    velocity -0.0833999345248198 -0.6871469834463363 -0.6653086602104088
atom 4.6612460302889556 9.5617020582561967 0.8263542062240480 O
    velocity -0.7513241842106470 -0.4413563942892059 -0.9269095131556393
atom 9.8152460302889573 9.5617020582561967 0.8263542062240480 O
    velocity -0.7750830209739668 0.4569487357166657 -0.3492263403916398
atom 14.9692460302889536 9.5617020582561967 0.8263542062240480 O
    velocity 0.5266070352196012 -0.3609374699473777 1.1682668836449088
atom 4.6612460302889556 14.7727020582561934 0.8263542062240480 O
    velocity -0.8208843195672476 1.3925906740725491 -0.0650613211727258
atom 9.8152460302889573 14.7727020582561934 0.8263542062240480 O
    velocity -0.8906351915105877 -0.3917211051754336 -0.0293820238038428
atom 14.9692460302889536 14.7727020582561934 0.8263542062240480 O
    velocity 1.0397086216433435 -0.3888854289617213 0.1379355019336322
atom 3.8048573235616536 4.3507020582561964 6.0789994810346295 O
    velocity 0.7088828487631914 0.2914164202298198 0.8529878733077035
atom 8.9588573235616558 4.3507020582561964 6.0789994810346295 O
    velocity 0.5435899823777155 -0.6076062282607291 0.6567458214037417
atom 14.1128573235616521 4.3507020582561964 6.0789994810346295 O
    velocity -0.6339965597684158 -0.2722988486579124 -0.3978890025434776
atom 3.8048573235616536 9.5617020582561967 6.0789994810346295 O
    velocity -0.4090997108989639 0.8741241048851740 0.4428116903358630
atom 8.9588573235616558 9.5617020582561967 6.0789994810346295 O
    velocity -0.2852051750844733 -0.4695101520272499 0.4186125110194400
atom 14.1128573235616521 9.5617020582561967 6.0789994810346295 O
    velocity -0.5752243990448374 0.0927074532630673 1.2120885551087843
atom 3.8048573235616536 14.7727020582561934 6.0789994810346295 O
    velocity -0.9436296392674406 -0.8115692840819504 -0.7100410994686283
atom 8.9588573235616558 14.7727020582561934 6.0789994810346295 O
    velocity -1.3831739981899669 0.0386757562775751 -0.8026169918573355
atom 14.1128573235616521 14.7727020582561934 6.0789994810346295 O
    velocity -1.2557652458550697 -1.0757908733784849 -0.2479069882744919
atom 2.9484686168343517 4.3507020582561964 11.3316447558452129 O
    velocity 0.3843536703302889 1.0707963368043347 -0.2935744696984381
atom 8.1024686168343525 4.3507020582561964 11.3316447558452129 O
    velocity 0.7652277634528610 0.5760980235407988 0.0639527091900872
atom 13.2564686168343489 4.3507020582561964 11.3316447558452129 O
    velocity -0.2723328462985545 0.2286750228934817 -0.3438632929582758
atom 2.9484686168343517 9.5617020582561967 11.3316447558452129 O
    velocity 0.1078785246822587 0.2465588673978186 0.7763335382457477
atom 8.1024686168343525 9.5617020582561967 11.3316447558452129 O
    velocity 0.3901196773025100 0.1995144303809123 0.7942021353532860
atom 13.2564686168343489 9.5617020582561967 11.3316447558452129 O
    velocity -1.2215219696725870 0.1951066126082093 -0.4170703712638348
atom 2.9484686168343517 14.7727020582561934 11.3316447558452129 O
    velocity -0.4657383216389899 0.1416186381920122 1.0541146717093868
atom 8.1024686168343525 14.7727020582561934 11.3316447558452129 O
    velocity -0.3855927108083191 -0.3822437693213266 -0.1943466231242127
atom 13.2564686168343489 14.7727020582561934 11.3316447558452129 O
    velocity 0.0710468215456682 0.6960528693026071 -0.1294695402911835
atom -0.3636350427837021 0.8602979417438046 4.4262911421235707 O
    velocity -1.0184665170475506 0.5373501855533930 0.8834640351602530
atom 4.7903649572162958 0.8602979417438046 4.4262911421235707 O
    velocity 0.0211405197835999 -1.2104945114474834 0.2406474211251923
atom 9.9443649572162940 0.8602979417438046 4.4262911421235707 O
    velocity -0.0966819071278285 0.1417457657932464 -0.8355215853585201
atom -0.3636350427837021 6.0712979417438042 4.4262911421235707 O
    velocity -0.0918217054959769 -0.6127797614948125 0.3468953751306061
atom 4.7903649572162958 6.0712979417438042 4.4262911421235707 O
    velocity 0.2083904795608031 0.1670002309854421 0.3967193758633926
atom 9.9443649572162940 6.0712979417438042 4.4262911421235707 O
    velocity -0.2725407520455883 -0.4615948778332850 -0.0050702129124376
atom -0.3636350427837021 11.2822979417438010 4.4262911421235707 O
    velocity -0.4383332761072514 1.8964607418062043 -0.2688280744425951
atom 4.7903649572162958 11.2822979417438010 4.4262911421235707 O
    velocity -0.3253890387524077 -1.5714649516873778 -1.0031461838185318
atom 9.9443649572162940 11.2822979417438010 4.4262911421235707 O
    velocity 0.6861699141386987 1.6827488862718845 0.4569357587420543
atom -1.2200237495110042 0.8602979417438046 9.6789364169341532 O
    velocity 0.7152229530191062 -0.2527238674181438 -0.6448407869704421
atom 3.9339762504889935 0.8602979417438046 9.6789364169341532 O
    velocity -1.2904121148597394 1.3383224939652563 0.7662619041790203
atom 9.0879762504889925 0.8602979417438046 9.6789364169341532 O
    velocity 0.2329796568107096 -2.0266119441259285 -0.3712053893580667
atom -1.2200237495110042 6.0712979417438042 9.6789364169341532 O
    velocity 0.3989335573073662 0.6060975074878653 -0.4574326657669447
atom 3.9339762504889935 6.0712979417438042 9.6789364169341532 O
    velocity 0.2213180206632052 0.3211770122452061 0.2167018558232840
atom 9.0879762504889925 6.0712979417438042 9.6789364169341532 O
    velocity 0.1631704956704617 -0.6370843340892262 -0.3909396590288638
atom -1.2200237495110042 11.2822979417438010 9.6789364169341532 O
    velocity 0.9173391042678776 -0.3780614121566306 -0.3173578690973358
atom 3.9339762504889935 11.2822979417438010 9.6789364169341532 O
    velocity 1.2347055282825783 0.8127306257388711 -0.1463014952050723
atom 9.0879762504889925 11.2822979417438010 9.6789364169341532 O
    velocity -0.0058171333007666 -0.0634110805184137 0.5022348838614191
atom -2.0764124562383062 0.8602979417438046 14.9315816917447339 O
    velocity 1.0206310045989679 0.8501251377848581 -0.0518981949224709
atom 3.0775875437616915 0.8602979417438046 14.9315816917447339 O
    velocity 0.0317440725593796 0.6740287902077055 0.1214942851004020
atom 8.2315875437616910 0.8602979417438046 14.9315816917447339 O
    velocity -0.6918919013770665 0.5444297094605771 -0.1980634696270747
atom -2.0764124562383062 6.0712979417438042 14.9315816917447339 O
    velocity -0.3718942693383500 0.3374209771334148 -0.0848317316820292
atom 3.0775875437616915 6.0712979417438042 14.9315816917447339 O
    velocity -1.0647835635407497 -0.0578504612302017 0.7811696334721777
atom 8.2315875437616910 6.0712979417438042 14.9315816917447339 O
    velocity 0.0635563166848356 -0.6511842488973886 0.1945923700553940
atom -2.0764124562383062 11.2822979417438010 14.9315816917447339 O