#=======================================================
# FHI-aims file: 450_geometry.in.primitive.supercell_1500.0010K
# Created using the Atomic Simulation Environment (ASE)
# Tue Oct 18 13:11:28 2022

# Additional information:
#  created from MB distrubtion
#  T = 10.0 K
#  quantum:             False
#  deterministic:       False
#  plus_minus:          False
#  gauge_eigenvectors:  False
#  Random seed:         2030487754
#  Sample number:       1
#=======================================================
lattice_vector 25.7699999999999996 0.0000000000000000 0.0000000000000000 
lattice_vector 0.0000000000000000 26.0549999999999997 0.0000000000000000 
lattice_vector -4.2819435336365110 0.0000000000000000 26.2632263740529126 
atom 1.2462151334470397 0.2222957773818360 1.1030417585697936 Zr
    velocity 0.3223603836743438 0.2595584399655485 0.0104765835142892
atom 6.4002151334470403 0.2222957773818360 1.1030417585697936 Zr
    velocity -0.0023956082375875 -0.6555162620187365 -0.4686542127028925
atom 11.5542151334470411 0.2222957773818360 1.1030417585697936 Zr
    velocity -0.0346245852145149 0.3838730142271249 -0.0142219134270874
atom 16.7082151334470410 0.2222957773818360 1.1030417585697936 Zr
    velocity 0.5934031123611277 -0.1751806652814053 -0.1216475736258723
atom 21.8622151334470409 0.2222957773818360 1.1030417585697936 Zr
    velocity 0.0013191742952308 0.4541225377067982 0.2807307638997270
atom 1.2462151334470397 5.4332957773818356 1.1030417585697936 Zr
    velocity 0.1121940576767460 -0.4054634518318917 -0.1518096398746127
atom 6.4002151334470403 5.4332957773818356 1.1030417585697936 Zr
    velocity 0.3543491299302376 0.0413187773348074 0.1534954371842509
atom 11.5542151334470411 5.4332957773818356 1.1030417585697936 Zr
    velocity -0.0721921060676385 0.5792240688508817 -0.1500797407824103
atom 16.7082151334470410 5.4332957773818356 1.1030417585697936 Zr
    velocity -0.2510006102145479 0.0942167753681334 -0.4540662080896924
atom 21.8622151334470409 5.4332957773818356 1.1030417585697936 Zr
    velocity 0.4510441643022161 -0.5240885427117423 -0.1589807654740892
atom 1.2462151334470397 10.6442957773818385 1.1030417585697936 Zr
    velocity -0.1523985220160873 0.3928889712223765 -0.0846757014681181
atom 6.4002151334470403 10.6442957773818385 1.1030417585697936 Zr
    velocity -0.2970026319894362 0.2624727286520491 0.3321071608054747
atom 11.5542151334470411 10.6442957773818385 1.1030417585697936 Zr
    velocity 0.0648039678658245 0.0545918663406263 0.3082970453807047
atom 16.7082151334470410 10.6442957773818385 1.1030417585697936 Zr
    velocity 0.9061922716426368 0.3458375703010221 0.0313753732135538
atom 21.8622151334470409 10.6442957773818385 1.1030417585697936 Zr
    velocity -0.2328157796386845 -0.4234943321255307 0.1930033760942487
atom 1.2462151334470397 15.8552957773818370 1.1030417585697936 Zr
    velocity 0.2458611489938045 -0.4105034388648918 -0.1267835092009569
atom 6.4002151334470403 15.8552957773818370 1.1030417585697936 Zr
    velocity -0.1574600005696474 0.4871719569485309 -0.1413504183792028
atom 11.5542151334470411 15.8552957773818370 1.1030417585697936 Zr
    velocity 0.4091095016966858 -0.0158828190340152 0.0904339983472100
atom 16.7082151334470410 15.8552957773818370 1.1030417585697936 Zr
    velocity 0.0237201281298571 -0.0242783251234673 0.4354192317679871
atom 21.8622151334470409 15.8552957773818370 1.1030417585697936 Zr
    velocity 0.3716555469788123 0.0140737400244382 0.5645582629257148
atom 1.2462151334470397 21.0662957773818391 1.1030417585697936 Zr
    velocity -0.6832531365033279 0.6981890729239629 -0.0794888338989561
atom 6.4002151334470403 21.0662957773818391 1.1030417585697936 Zr
    velocity 0.1947653217892808 0.4523155072869645 -0.4406642262713185
atom 11.5542151334470411 21.0662957773818391 1.1030417585697936 Zr
    velocity 0.1328536303427005 -0.4252076537076735 0.0083783867480748
atom 16.7082151334470410 21.0662957773818391 1.1030417585697936 Zr
    velocity 0.1020656391557692 -0.0019717530639907 0.4130606689845435
atom 21.8622151334470409 21.0662957773818391 1.1030417585697936 Zr
    velocity -0.0202178433721708 0.0426219856811662 0.3567784622738919
atom 0.3898264267197376 0.2222957773818360 6.3556870333803754 Zr
    velocity -0.0053329098026669 0.0313600156249418 0.1057887629044794
atom 5.5438264267197379 0.2222957773818360 6.3556870333803754 Zr
    velocity -0.4145645034914991 0.0327079618698046 0.2947989371861248
atom 10.6978264267197396 0.2222957773818360 6.3556870333803754 Zr
    velocity -0.3055671932581054 -0.0231165799127295 -0.1675206193515592
atom 15.8518264267197395 0.2222957773818360 6.3556870333803754 Zr
    velocity 0.1937548402274230 0.2695427876832066 0.0170119916326745
atom 21.0058264267197394 0.2222957773818360 6.3556870333803754 Zr
    velocity -0.1658545910360520 -0.2220544216643703 0.1663918262975037
atom 0.3898264267197376 5.4332957773818356 6.3556870333803754 Zr
    velocity -0.0944857325654710 -0.1520130738242277 0.0551834211253512
atom 5.5438264267197379 5.4332957773818356 6.3556870333803754 Zr
    velocity -0.0229678286725534 -0.0651973805698061 0.2835860226437065
atom 10.6978264267197396 5.4332957773818356 6.3556870333803754 Zr
    velocity -0.0627859219842394 -0.0080076433525643 0.1760113061813742
atom 15.8518264267197395 5.4332957773818356 6.3556870333803754 Zr
    velocity -0.3200037971554189 0.1119140417442428 -0.0768527495496235
atom 21.0058264267197394 5.4332957773818356 6.3556870333803754 Zr
    velocity -0.0366520404940635 0.0136171752912239 -0.2348522802008643
atom 0.3898264267197376 10.6442957773818385 6.3556870333803754 Zr
    velocity -0.2266699022529003 -0.3733867041646188 -0.2796826900586758
atom 5.5438264267197379 10.6442957773818385 6.3556870333803754 Zr
    velocity 0.0630313883528352 -0.2291833702557774 -0.5370781983873284
atom 10.6978264267197396 10.6442957773818385 6.3556870333803754 Zr
    velocity -0.1746999737187935 0.2521380186863313 -0.0065396456605089
atom 15.8518264267197395 10.6442957773818385 6.3556870333803754 Zr
    velocity 0.2236927719653279 0.0318395101935734 0.0328614915991100
atom 21.0058264267197394 10.6442957773818385 6.3556870333803754 Zr
    velocity -0.3546109162620730 0.4565302876561554 -0.0995175017298216
atom 0.3898264267197376 15.8552957773818370 6.3556870333803754 Zr
    velocity 0.0078091704068311 0.2164389897665331 -0.3915731486414014
atom 5.5438264267197379 15.8552957773818370 6.3556870333803754 Zr
    velocity -0.3861777225239131 -0.5453702018733282 0.1364099174911950
atom 10.6978264267197396 15.8552957773818370 6.3556870333803754 Zr
    velocity -0.4751668831136096 0.5066976917904151 -0.4315537509297799
atom 15.8518264267197395 15.8552957773818370 6.3556870333803754 Zr
    velocity 0.2608640688041678 -0.1071597502085237 0.0994600547781018
atom 21.0058264267197394 15.8552957773818370 6.3556870333803754 Zr
    velocity -0.2085753619348770 -0.1559111176491449 0.1212044722194103
atom 0.3898264267197376 21.0662957773818391 6.3556870333803754 Zr
    velocity 0.1582116967851774 0.0046623830059700 0.1735272180964794
atom 5.5438264267197379 21.0662957773818391 6.3556870333803754 Zr
    velocity 0.3107442560495876 0.4891291068451177 -0.3679033217230440
atom 10.6978264267197396 21.0662957773818391 6.3556870333803754 Zr
    velocity 0.3516926376114039 -0.4750051223445992 0.3330200684077735
atom 15.8518264267197395 21.0662957773818391 6.3556870333803754 Zr
    velocity 0.3369461201880974 0.0011830188085298 0.4706739540814181
atom 21.0058264267197394 21.0662957773818391 6.3556870333803754 Zr
    velocity -0.2863350157199768 -0.0339145119568369 0.3831914782194491
atom -0.4665622800075651 0.2222957773818360 11.6083323081909615 Zr
    velocity -0.0992296933031582 -0.1690060849862699 -0.4395005800635363
atom 4.6874377199924355 0.2222957773818360 11.6083323081909615 Zr
    velocity -0.1415958771033777 0.2676661362371829 0.2344263075087662
atom 9.8414377199924363 0.2222957773818360 11.6083323081909615 Zr
    velocity -0.2892661999548159 -0.5007516296573387 0.1844211664198613
atom 14.9954377199924362 0.2222957773818360 11.6083323081909615 Zr
    velocity -0.1733671223245142 -0.3086796379783625 0.5043836954489622
atom 20.1494377199924344 0.2222957773818360 11.6083323081909615 Zr
    velocity -0.2183211098435874 0.0479226614880118 -0.3806539803573188
atom -0.4665622800075651 5.4332957773818356 11.6083323081909615 Zr
    velocity 0.2172284752704767 -0.1783440199952606 0.4927759381358600
atom 4.6874377199924355 5.4332957773818356 11.6083323081909615 Zr
    velocity 0.4231240009717169 0.1992565113679326 -0.3344837973532373
atom 9.8414377199924363 5.4332957773818356 11.6083323081909615 Zr
    velocity 0.6809295484475006 -0.0197528753731954 0.2635736852521495
atom 14.9954377199924362 5.4332957773818356 11.6083323081909615 Zr
    velocity 0.0570017814392800 0.2311809364254912 -0.0632497259005735
atom 20.1494377199924344 5.4332957773818356 11.6083323081909615 Zr
    velocity 0.1820105609807246 -0.0617328065642168 -0.0169640812811848
atom -0.4665622800075651 10.6442957773818385 11.6083323081909615 Zr
    velocity -0.0290150765979505 0.3169597967084189 0.0015867779211800
atom 4.6874377199924355 10.6442957773818385 11.6083323081909615 Zr
    velocity 0.0476050497474584 -0.5054783807965576 0.3854552989210678
atom 9.8414377199924363 10.6442957773818385 11.6083323081909615 Zr
    velocity 0.2980494651452712 0.2293223430315918 -0.0359651879411893
atom 14.9954377199924362 10.6442957773818385 11.6083323081909615 Zr
    velocity 0.2118214929180889 -0.3966228070749649 0.1898531661288180
atom 20.1494377199924344 10.6442957773818385 11.6083323081909615 Zr
    velocity -0.1733363829732742 -0.3233324782313440 -0.2264638847424571
atom -0.4665622800075651 15.8552957773818370 11.6083323081909615 Zr
    velocity 0.1065053599557238 -0.1338545027328105 -0.3352209208569000
atom 4.6874377199924355 15.8552957773818370 11.6083323081909615 Zr
    velocity 0.0649215009363362 0.3593017640090048 0.2549185143750871
atom 9.8414377199924363 15.8552957773818370 11.6083323081909615 Zr
    velocity -0.3252664589023199 -0.4159558947043311 -0.3747287871820394
atom 14.9954377199924362 15.8552957773818370 11.6083323081909615 Zr
    velocity 1.0249701444997443 0.2597829872089447 -0.0246453297411906
atom 20.1494377199924344 15.8552957773818370 11.6083323081909615 Zr
    velocity -0.7534851009814092 0.0749896374099526 -0.0793030115549846
atom -0.4665622800075651 21.0662957773818391 11.6083323081909615 Zr
    velocity -0.2997545507325030 -0.2797684811091613 0.1193627008203723
atom 4.6874377199924355 21.0662957773818391 11.6083323081909615 Zr
    velocity -0.4866789348540163 -0.1712349819986738 0.0589810406529563
atom 9.8414377199924363 21.0662957773818391 11.6083323081909615 Zr
    velocity 0.3794123816357661 -0.0024081432441275 0.0309519428902000
atom 14.9954377199924362 21.0662957773818391 11.6083323081909615 Zr
    velocity 0.0653737254133472 -0.1077461122096632 0.1978305215918706
atom 20.1494377199924344 21.0662957773818391 11.6083323081909615 Zr
    velocity 0.6081468478212706 0.1575694070853001 0.3039234214144136
atom -1.3229509867348672 0.2222957773818360 16.8609775830015423 Zr
    velocity 0.2493423462171845 0.4430731761987859 0.5068350124362686
atom 3.8310490132651331 0.2222957773818360 16.8609775830015423 Zr
    velocity 0.0711624386925415 0.0910452615875137 0.1299280124176637
atom 8.9850490132651348 0.2222957773818360 16.8609775830015423 Zr
    velocity 0.7122724647264650 0.4522170845596203 -0.3285864103789485
atom 14.1390490132651347 0.2222957773818360 16.8609775830015423 Zr
    velocity -0.4573363351821244 0.0190678296865166 0.1704884237879385
atom 19.2930490132651329 0.2222957773818360 16.8609775830015423 Zr
    velocity 0.0641529787197043 0.1963595647527101 -0.3558797575945560
atom -1.3229509867348672 5.4332957773818356 16.8609775830015423 Zr
    velocity 0.2606318561755153 0.2265708021349436 -0.1041521107315307
atom 3.8310490132651331 5.4332957773818356 16.8609775830015423 Zr
    velocity 0.2535277820713051 0.0999138991940675 0.3472703229595168
atom 8.9850490132651348 5.4332957773818356 16.8609775830015423 Zr
    velocity 0.4948944505404342 -0.2533228998953126 0.1600388462780165
atom 14.1390490132651347 5.4332957773818356 16.8609775830015423 Zr
    velocity 0.0389086789438920 -0.2321322158049541 0.2956559360715248
atom 19.2930490132651329 5.4332957773818356 16.8609775830015423 Zr
    velocity 0.4727260938605842 0.3364729836004709 -0.2435119722557899
atom -1.3229509867348672 10.6442957773818385 16.8609775830015423 Zr
    velocity -0.1414071815493457 -0.2281445112671062 0.3865589685440194
atom 3.8310490132651331 10.6442957773818385 16.8609775830015423 Zr
    velocity -0.3278019922658282 -0.1213263439259717 0.1947955893332133
atom 8.9850490132651348 10.6442957773818385 16.8609775830015423 Zr
    velocity -0.1527571466868097 0.3324355492903020 -0.6702455310884191
atom 14.1390490132651347 10.6442957773818385 16.8609775830015423 Zr
    velocity 0.4441101806542025 0.0067876274379223 -0.3465642589088522
atom 19.2930490132651329 10.6442957773818385 16.8609775830015423 Zr
    velocity 0.2881379786163741 0.0883344789110385 0.4146966012031696
atom -1.3229509867348672 15.8552957773818370 16.8609775830015423 Zr
    velocity -0.3864264976193135 0.0287804431461454 0.0529888821528387
atom 3.8310490132651331 15.8552957773818370 16.8609775830015423 Zr
    velocity 0.1657370571025776 0.1619967297719123 -0.3919855782066070
atom 8.9850490132651348 15.8552957773818370 16.8609775830015423 Zr
    velocity 0.1112756840771248 0.1013111265335513 0.2370896348383803
atom 14.1390490132651347 15.8552957773818370 16.8609775830015423 Zr
    velocity -0.1362920689521976 -0.2956273514530713 0.2870307055639588
atom 19.2930490132651329 15.8552957773818370 16.8609775830015423 Zr
    velocity 0.4216116792922649 -0.5030491629648467 -0.4965618722584141
atom -1.3229509867348672 21.0662957773818391 16.8609775830015423 Zr
    velocity 0.0518201773788053 0.3279596877659495 -0.2311853844479698
atom 3.8310490132651331 21.0662957773818391 16.8609775830015423 Zr
    velocity -0.1499983089025174 -0.1353407850118455 -0.0375860694620126
atom 8.9850490132651348 21.0662957773818391 16.8609775830015423 Zr
    velocity 0.2659209606147730 -0.1395171761062652 -0.1558922275239247
atom 14.1390490132651347 21.0662957773818391 16.8609775830015423 Zr
    velocity -0.0635558105843533 0.5172526820916370 0.2450520372339283
atom 19.2930490132651329 21.0662957773818391 16.8609775830015423 Zr
    velocity -0.1371521103203968 -0.3339926490896605 0.3960811498031832
atom -2.1793396934621692 0.2222957773818360 22.1136228578121248 Zr
    velocity 0.1889106424832370 -0.1410109916015883 0.0065923816789936
atom 2.9746603065378312 0.2222957773818360 22.1136228578121248 Zr
    velocity 0.3110344393053627 -0.0589134690264401 0.2371770477421806
atom 8.1286603065378316 0.2222957773818360 22.1136228578121248 Zr
    velocity 0.0460284236092711 0.5806690606077460 0.3192003718153003
atom 13.2826603065378315 0.2222957773818360 22.1136228578121248 Zr
    velocity 0.2666668623809365 -0.4438113390341055 0.5281823260106350
atom 18.4366603065378314 0.2222957773818360 22.1136228578121248 Zr
    velocity -0.2258753502370615 -0.1665812084082381 0.0278127445307062
atom -2.1793396934621692 5.4332957773818356 22.1136228578121248 Zr
    velocity -0.3574252263470816 -0.1113298782433229 -0.2337676187862887
atom 2.9746603065378312 5.4332957773818356 22.1136228578121248 Zr
    velocity 0.1726720380048550 -0.2289547046691923 -0.2018228302298548
atom 8.1286603065378316 5.4332957773818356 22.1136228578121248 Zr
    velocity 0.2109252059004806 0.0300296562175371 -0.3267052843485245
atom 13.2826603065378315 5.4332957773818356 22.1136228578121248 Zr
    velocity -0.0466427051050297 0.0223175896541440 0.1728794769371417
atom 18.4366603065378314 5.4332957773818356 22.1136228578121248 Zr
    velocity 0.0571176372196686 -0.3356299641135198 -0.1623929149119485
atom -2.1793396934621692 10.6442957773818385 22.1136228578121248 Zr
    velocity -0.2221983001472038 0.1706615548283623 -0.2400051166278452
atom 2.9746603065378312 10.6442957773818385 22.1136228578121248 Zr
    velocity 0.1294508382811578 -0.1448153868426247 0.1983412144136374
atom 8.1286603065378316 10.6442957773818385 22.1136228578121248 Zr
    velocity -0.2630372232110470 0.3376917389405887 -0.2192312115708188
atom 13.2826603065378315 10.6442957773818385 22.1136228578121248 Zr
    velocity -0.3368074315355846 -0.3682337980138856 -0.1746515274152911
atom 18.4366603065378314 10.6442957773818385 22.1136228578121248 Zr
    velocity -0.3350082779066472 0.5927940986823843 0.2130558074041119
atom -2.1793396934621692 15.8552957773818370 22.1136228578121248 Zr
    velocity -0.2074468939421917 -0.0160343593518812 0.0001348254798394
atom 2.9746603065378312 15.8552957773818370 22.1136228578121248 Zr
    velocity 0.0967877581972225 -0.1365994735529345 -0.1082151734763799
atom 8.1286603065378316 15.8552957773818370 22.1136228578121248 Zr
    velocity -0.6085632285999887 0.0995295821351687 0.4573936717179424
atom 13.2826603065378315 15.8552957773818370 22.1136228578121248 Zr
    velocity -0.3619464146626079 -0.1508494129633425 0.2024859088827038
atom 18.4366603065378314 15.8552957773818370 22.1136228578121248 Zr
    velocity 0.1427823244925706 -0.0237249063113287 0.1284724676175605
atom -2.1793396934621692 21.0662957773818391 22.1136228578121248 Zr
    velocity 0.3418715511195479 -0.7004436573578982 -0.0849082864135103
atom 2.9746603065378312 21.0662957773818391 22.1136228578121248 Zr
    velocity 0.2965489837927684 0.2495305561422691 0.0433989827355173
atom 8.1286603065378316 21.0662957773818391 22.1136228578121248 Zr
    velocity -0.1160630557869210 -0.2785873601488945 -0.2414929487589563
atom 13.2826603065378315 21.0662957773818391 22.1136228578121248 Zr
    velocity 0.2149971663507485 -0.0160799859801579 0.4423348613973360
atom 18.4366603065378314 21.0662957773818391 22.1136228578121248 Zr
    velocity -0.3008871926313104 -0.5068770682703878 0.1354652040720851
atom 3.0513958540582165 4.9887042226181642 4.1496035897778230 Zr
    velocity -0.1154874380604801 0.0757031730022418 -0.0990043481059348
atom 8.2053958540582173 4.9887042226181642 4.1496035897778230 Zr
    velocity -0.2205294753010126 -0.0430313995891600 -0.0425044716646077
atom 13.3593958540582154 4.9887042226181642 4.1496035897778230 Zr
    velocity -0.0353149252571458 0.2798875848107963 -0.0179624729710486
atom 18.5133958540582171 4.9887042226181642 4.1496035897778230 Zr
    velocity -0.0554377794449692 0.3207679516645432 -0.0920480174106172
atom 23.6673958540582170 4.9887042226181642 4.1496035897778230 Zr
    velocity 0.0671381399541678 0.5231729712182155 0.0079825186107111
atom 3.0513958540582165 10.1997042226181662 4.1496035897778230 Zr
    velocity -0.0930727374716170 -0.0436879032230214 0.6419815637801487
atom 8.2053958540582173 10.1997042226181662 4.1496035897778230 Zr
    velocity 0.0370711556109016 -0.0656288387013734 -0.2092868241361232
atom 13.3593958540582154 10.1997042226181662 4.1496035897778230 Zr
    velocity -0.4340047851868000 0.0685456412375991 0.0827514506749207
atom 18.5133958540582171 10.1997042226181662 4.1496035897778230 Zr
    velocity 0.0308831924131358 -0.2287701375896353 0.3015850202994367
atom 23.6673958540582170 10.1997042226181662 4.1496035897778230 Zr
    velocity -0.1460360388286640 0.1732110848677856 -0.3645748312658122
atom 3.0513958540582165 15.4107042226181647 4.1496035897778230 Zr
    velocity -0.2124323732948078 -0.2458216262745226 -0.0833532925310001
atom 8.2053958540582173 15.4107042226181647 4.1496035897778230 Zr
    velocity 0.5564999785270757 -0.0102585752993679 -0.0846224434347847
atom 13.3593958540582154 15.4107042226181647 4.1496035897778230 Zr
    velocity 0.0140871556798537 -0.0358142934692072 -0.4023939937287805
atom 18.5133958540582171 15.4107042226181647 4.1496035897778230 Zr
    velocity -0.2954558335136970 0.0034099187847568 0.1309238099562864
atom 23.6673958540582170 15.4107042226181647 4.1496035897778230 Zr
    velocity -0.4431748730984841 -0.3087505153751461 -0.1151142846612221
atom 3.0513958540582165 20.6217042226181668 4.1496035897778230 Zr
    velocity 0.3646355491633720 0.0859050713369660 0.0507376954471741
atom 8.2053958540582173 20.6217042226181668 4.1496035897778230 Zr
    velocity -0.1956061919040548 -0.2769566116268621 0.2941429045289963
atom 13.3593958540582154 20.6217042226181668 4.1496035897778230 Zr
    velocity -0.0147724109852400 0.3074656360413922 0.2127175258622841
atom 18.5133958540582171 20.6217042226181668 4.1496035897778230 Zr
    velocity -0.4379818687900556 -0.2873267887356185 -0.1777593388550958
atom 23.6673958540582170 20.6217042226181668 4.1496035897778230 Zr
    velocity 0.4087860241440111 0.0732539393165763 0.1373290408411867
atom 3.0513958540582165 25.8327042226181689 4.1496035897778230 Zr
    velocity 0.5768542771558988 -0.0654406026901888 0.3104845733493130
atom 8.2053958540582173 25.8327042226181689 4.1496035897778230 Zr
    velocity -0.3102117012634175 -0.0154273494929773 0.2090315841733368
atom 13.3593958540582154 25.8327042226181689 4.1496035897778230 Zr
    velocity -0.0028006174382347 -0.1072710752696568 -0.4780428870039029
atom 18.5133958540582171 25.8327042226181689 4.1496035897778230 Zr
    velocity 0.0825679735875273 0.0819788857817517 0.6238453752337697
atom 23.6673958540582170 25.8327042226181689 4.1496035897778230 Zr
    velocity -0.0445559159365595 -0.3944657290711013 -0.0143935519957465
atom 2.1950071473309136 4.9887042226181642 9.4022488645884081 Zr
    velocity 0.0363190241102515 -0.2284327162285399 -0.1480234701325855
atom 7.3490071473309149 4.9887042226181642 9.4022488645884081 Zr
    velocity -0.1086365211720210 -0.0832241987345102 0.0403010110391689
atom 12.5030071473309121 4.9887042226181642 9.4022488645884081 Zr
    velocity 0.2608056042296240 0.2457297190411842 -0.1464307748476742
atom 17.6570071473309156 4.9887042226181642 9.4022488645884081 Zr
    velocity -0.2783722137639373 -0.0633388711741270 -0.1278879672948183
atom 22.8110071473309155 4.9887042226181642 9.4022488645884081 Zr
    velocity -0.3316851834127603 0.2093250361264155 -0.0672893008485048
atom 2.1950071473309136 10.1997042226181662 9.4022488645884081 Zr
    velocity -0.2099295477327736 -0.0423414096057205 -0.0483921178457025
atom 7.3490071473309149 10.1997042226181662 9.4022488645884081 Zr
    velocity 0.0596576994901452 -0.1371903700908900 -0.3485918008500450
atom 12.5030071473309121 10.1997042226181662 9.4022488645884081 Zr
    velocity 0.5860658819594277 0.2929006237595693 0.2395215350544745
atom 17.6570071473309156 10.1997042226181662 9.4022488645884081 Zr
    velocity -0.1443197481245771 0.0590789564881965 0.0109172156695076
atom 22.8110071473309155 10.1997042226181662 9.4022488645884081 Zr
    velocity -0.1461183464996550 0.4211825547784609 0.2636947521227361
atom 2.1950071473309136 15.4107042226181647 9.4022488645884081 Zr
    velocity 0.4222806930145489 0.1307580577983037 0.1551271981682095
atom 7.3490071473309149 15.4107042226181647 9.4022488645884081 Zr
    velocity 0.0833409971729414 0.5163606207921624 0.0595256036908756
atom 12.5030071473309121 15.4107042226181647 9.4022488645884081 Zr
    velocity -0.4870431697282117 0.1947342629741051 -0.1857821535146589
atom 17.6570071473309156 15.4107042226181647 9.4022488645884081 Zr
    velocity -0.2277519034763129 -0.2421438836889749 0.2181072966268067
atom 22.8110071473309155 15.4107042226181647 9.4022488645884081 Zr
    velocity 0.5686011187637721 0.0832278710684189 -0.1348901832018102
atom 2.1950071473309136 20.6217042226181668 9.4022488645884081 Zr
    velocity 0.0109676229639964 -0.3933528693200641 -0.5351500886079579
atom 7.3490071473309149 20.6217042226181668 9.4022488645884081 Zr
    velocity 0.4349307944861098 -0.2931196712254150 -0.3343440582271840
atom 12.5030071473309121 20.6217042226181668 9.4022488645884081 Zr
    velocity -0.0115788630044220 -0.5710722373929227 -0.5114864550888294
atom 17.6570071473309156 20.6217042226181668 9.4022488645884081 Zr
    velocity -0.0583274270673204 0.1224719847651938 0.4230900735132950
atom 22.8110071473309155 20.6217042226181668 9.4022488645884081 Zr
    velocity -0.0435566679501277 0.5014192531235675 -0.5445939412180112
atom 2.1950071473309136 25.8327042226181689 9.4022488645884081 Zr
    velocity -0.2747911730465049 -0.0720069054794441 -0.5859977137176344
atom 7.3490071473309149 25.8327042226181689 9.4022488645884081 Zr
    velocity -0.1832280453407976 -0.0767086953656089 0.0681854332093327
atom 12.5030071473309121 25.8327042226181689 9.4022488645884081 Zr
    velocity 0.4519248100672567 -0.0594690144452795 0.2721143295854900
atom 17.6570071473309156 25.8327042226181689 9.4022488645884081 Zr
    velocity 0.8593781080564942 -0.3357739365586010 0.3650893287383289
atom 22.8110071473309155 25.8327042226181689 9.4022488645884081 Zr
    velocity 0.0476917252865195 0.2817630847972689 0.3039809595986386
atom 1.3386184406036119 4.9887042226181642 14.6548941393989889 Zr
    velocity -0.3810983993965226 0.1076853060418236 -0.1246312158443350
atom 6.4926184406036125 4.9887042226181642 14.6548941393989889 Zr
    velocity 0.0167489265762970 -0.4665983742371734 -0.2409551404061456
atom 11.6466184406036106 4.9887042226181642 14.6548941393989889 Zr
    velocity 0.5830784563800928 0.0286903815663960 0.4710552935258365
atom 16.8006184406036176 4.9887042226181642 14.6548941393989889 Zr
    velocity -0.0423185095000035 0.1144093625936726 0.0046758712034860
atom 21.9546184406036140 4.9887042226181642 14.6548941393989889 Zr
    velocity -0.4286451009366381 -0.2643565067063534 -0.1817427507698544
atom 1.3386184406036119 10.1997042226181662 14.6548941393989889 Zr
    velocity 0.3109980058403064 -0.1156791913484141 0.0793942366669207
atom 6.4926184406036125 10.1997042226181662 14.6548941393989889 Zr
    velocity 0.1656133898653490 0.4669374282867259 -0.3447961686186009
atom 11.6466184406036106 10.1997042226181662 14.6548941393989889 Zr
    velocity 0.3302883122511283 0.2192124641195812 0.2598307001585710
atom 16.8006184406036176 10.1997042226181662 14.6548941393989889 Zr
    velocity -0.5002456478739842 -0.5754160928896178 0.5124542077791672
atom 21.9546184406036140 10.1997042226181662 14.6548941393989889 Zr
    velocity 0.2686724381573229 0.1472813085411043 0.2682339661037374
atom 1.3386184406036119 15.4107042226181647 14.6548941393989889 Zr
    velocity 0.1835211808283667 0.0460001497200741 -0.2766825458268298
atom 6.4926184406036125 15.4107042226181647 14.6548941393989889 Zr
    velocity 0.1106301280755467 0.3666135152091781 0.5546081944542859
atom 11.6466184406036106 15.4107042226181647 14.6548941393989889 Zr
    velocity 0.1162470176513356 -0.6988544350462130 0.0711138940834284
atom 16.8006184406036176 15.4107042226181647 14.6548941393989889 Zr
    velocity -0.1663419580119013 -0.4561391681981572 -0.3724530485785808
atom 21.9546184406036140 15.4107042226181647 14.6548941393989889 Zr
    velocity -0.2586675228559744 0.0219298736895404 0.2159184964001617
atom 1.3386184406036119 20.6217042226181668 14.6548941393989889 Zr
    velocity -0.4161645483925799 0.0460406102259001 -0.2848821727138320
atom 6.4926184406036125 20.6217042226181668 14.6548941393989889 Zr
    velocity 0.1286185702558537 -0.2625861177020143 0.1706924238730532
atom 11.6466184406036106 20.6217042226181668 14.6548941393989889 Zr
    velocity -0.2561951802022104 -0.1340257405593322 -0.1575535609000625
atom 16.8006184406036176 20.6217042226181668 14.6548941393989889 Zr
    velocity -0.4347789381008745 0.0070115564499623 0.3158861920046011
atom 21.9546184406036140 20.6217042226181668 14.6548941393989889 Zr
    velocity -0.3248084992504273 0.0146704748970214 0.2946555008589645
atom 1.3386184406036119 25.8327042226181689 14.6548941393989889 Zr
    velocity -0.3734795083144156 0.0938365941444071 0.1347640008079744
atom 6.4926184406036125 25.8327042226181689 14.6548941393989889 Zr
    velocity -0.0472110482176344 0.6881409141389000 0.2057398083274407
atom 11.6466184406036106 25.8327042226181689 14.6548941393989889 Zr
    velocity 0.2008336454237162 0.3006807719919720 0.0031161965047328
atom 16.8006184406036176 25.8327042226181689 14.6548941393989889 Zr
    velocity 0.2034780165317529 -0.2090245723434008 -0.2364281276949320
atom 21.9546184406036140 25.8327042226181689 14.6548941393989889 Zr
    velocity -0.0725001511021771 -0.3451830147390730 -0.2072060867155141
atom 0.4822297338763094 4.9887042226181642 19.9075394142095732 Zr
    velocity -0.1558908739251389 -0.1139780625439780 -0.0785760195369127
atom 5.6362297338763101 4.9887042226181642 19.9075394142095732 Zr
    velocity 0.6783998693079937 0.1374455333697590 -0.0294339464192409
atom 10.7902297338763091 4.9887042226181642 19.9075394142095732 Zr
    velocity 0.4714941404384085 -0.0967115049807749 -0.1755451673710784
atom 15.9442297338763108 4.9887042226181642 19.9075394142095732 Zr
    velocity -0.2684715556596998 -0.0267463905192125 -0.4654375760688111
atom 21.0982297338763090 4.9887042226181642 19.9075394142095732 Zr
    velocity 0.7026672702579424 0.2788259753533913 -0.0940489288757767
atom 0.4822297338763094 10.1997042226181662 19.9075394142095732 Zr
    velocity 0.1277804230836967 -0.0164456975295693 0.2603713666435684
atom 5.6362297338763101 10.1997042226181662 19.9075394142095732 Zr
    velocity 0.4947241509354099 0.4327998056046072 0.4334622630512321
atom 10.7902297338763091 10.1997042226181662 19.9075394142095732 Zr
    velocity 0.1735062927583946 -0.0682960442912904 0.2127829814474629
atom 15.9442297338763108 10.1997042226181662 19.9075394142095732 Zr
    velocity -0.1684544722067156 -0.2092083960181495 -0.0147504475745661
atom 21.0982297338763090 10.1997042226181662 19.9075394142095732 Zr
    velocity -0.3734044240978784 -0.0670589350864745 0.4241340260951583
atom 0.4822297338763094 15.4107042226181647 19.9075394142095732 Zr
    velocity 0.2391699178597201 0.4365912318607079 0.2513897293801231
atom 5.6362297338763101 15.4107042226181647 19.9075394142095732 Zr