#=======================================================
# FHI-aims file: 450_geometry.in.primitive.supercell_2592.0010K
# Created using the Atomic Simulation Environment (ASE)
# Tue Oct 18 13:10:39 2022

# Additional information:
#  created from MB distrubtion
#  T = 10.0 K
#  quantum:             False
#  deterministic:       False
#  plus_minus:          False
#  gauge_eigenvectors:  False
#  Random seed:         623793665
#  Sample number:       1
#=======================================================
lattice_vector 30.9239999999999995 0.0000000000000000 0.0000000000000000 
lattice_vector 0.0000000000000000 31.2660000000000018 0.0000000000000000 
lattice_vector -5.1383322403638134 0.0000000000000000 31.5158716488634951 
atom 1.2462151334470384 0.2222957773818360 1.1030417585697945 Zr
    velocity 0.3699925377027010 0.5914634958388726 0.7084289829743275
atom 6.4002151334470403 0.2222957773818360 1.1030417585697945 Zr
    velocity 0.1223038402487120 0.7966930146236484 -0.2033053287759081
atom 11.5542151334470375 0.2222957773818360 1.1030417585697945 Zr
    velocity -0.3841091926229326 0.4187365906280107 0.3832635923435735
atom 16.7082151334470339 0.2222957773818360 1.1030417585697945 Zr
    velocity 0.0890359406651032 -0.0013774455792317 -0.0293060016460943
atom 21.8622151334470374 0.2222957773818360 1.1030417585697945 Zr
    velocity 0.1773543569278194 -0.6622050466117794 -0.0735339011262407
atom 27.0162151334470337 0.2222957773818360 1.1030417585697945 Zr
    velocity -0.1992106872267117 -0.0484121581935343 -0.0874937995775498
atom 1.2462151334470384 5.4332957773818338 1.1030417585697945 Zr
    velocity 0.0708905893538588 0.0979170169012037 -0.0191621399350636
atom 6.4002151334470403 5.4332957773818338 1.1030417585697945 Zr
    velocity 0.4718783217259397 0.4862112437769062 -0.4260419604651768
atom 11.5542151334470375 5.4332957773818338 1.1030417585697945 Zr
    velocity -0.3565122744287427 -0.0340704576457927 -0.0840192798972582
atom 16.7082151334470339 5.4332957773818338 1.1030417585697945 Zr
    velocity 0.3015778886114975 -0.5281752160033115 0.6346361041308912
atom 21.8622151334470374 5.4332957773818338 1.1030417585697945 Zr
    velocity -0.1627589285407083 0.4453488839737439 -0.1724654659491486
atom 27.0162151334470337 5.4332957773818338 1.1030417585697945 Zr
    velocity 0.2016340359793758 0.5253761475237760 -0.4363695991627318
atom 1.2462151334470384 10.6442957773818350 1.1030417585697945 Zr
    velocity 0.0119491493082083 -0.1203708411461357 -0.1640413242704146
atom 6.4002151334470403 10.6442957773818350 1.1030417585697945 Zr
    velocity 0.6942714659060594 0.2776873902352988 0.3253362876609813
atom 11.5542151334470375 10.6442957773818350 1.1030417585697945 Zr
    velocity 0.0268017842621525 -0.1061092290825205 0.3758527644077312
atom 16.7082151334470339 10.6442957773818350 1.1030417585697945 Zr
    velocity 0.0780682649798971 0.4347958113399688 -0.0896082078366220
atom 21.8622151334470374 10.6442957773818350 1.1030417585697945 Zr
    velocity -0.2414608308415303 -0.6463881382280035 0.2182907729028479
atom 27.0162151334470337 10.6442957773818350 1.1030417585697945 Zr
    velocity 0.2371733706457635 0.0096112489708732 0.0705678398002586
atom 1.2462151334470384 15.8552957773818353 1.1030417585697945 Zr
    velocity 0.0811357488176066 -0.1271566539150913 -0.1553125930594597
atom 6.4002151334470403 15.8552957773818353 1.1030417585697945 Zr
    velocity -0.0409609355419238 -0.2132718329127959 0.2568623696210408
atom 11.5542151334470375 15.8552957773818353 1.1030417585697945 Zr
    velocity -0.6193680342090636 -0.0114285543846149 0.0106276541427663
atom 16.7082151334470339 15.8552957773818353 1.1030417585697945 Zr
    velocity -0.0378388598000933 0.2745668753505179 -0.4586079473034532
atom 21.8622151334470374 15.8552957773818353 1.1030417585697945 Zr
    velocity -0.1124007856904501 0.2070113592313194 -0.0152529929523794
atom 27.0162151334470337 15.8552957773818353 1.1030417585697945 Zr
    velocity 0.2050383465389949 -0.0653270067145865 0.5876853987778556
atom 1.2462151334470384 21.0662957773818391 1.1030417585697945 Zr
    velocity -0.0231949129348617 0.0543872335316004 -0.1914376161119625
atom 6.4002151334470403 21.0662957773818391 1.1030417585697945 Zr
    velocity 0.1845639777703412 -0.4067451276157351 0.4449964050443234
atom 11.5542151334470375 21.0662957773818391 1.1030417585697945 Zr
    velocity -0.0561167081364682 -0.1051775113010028 0.4085054731554115
atom 16.7082151334470339 21.0662957773818391 1.1030417585697945 Zr
    velocity -0.1844607501244011 0.2052334222755733 -0.0237650320338160
atom 21.8622151334470374 21.0662957773818391 1.1030417585697945 Zr
    velocity -0.1703727831833108 0.4226748299321738 0.2494078905743092
atom 27.0162151334470337 21.0662957773818391 1.1030417585697945 Zr
    velocity 0.2972350034565520 -0.0248031857390025 0.1505620178856413
atom 1.2462151334470384 26.2772957773818376 1.1030417585697945 Zr
    velocity -0.0861188472605823 -0.3057786599054147 0.3988722079329119
atom 6.4002151334470403 26.2772957773818376 1.1030417585697945 Zr
    velocity -0.0392343823373891 -0.3985085416347840 -0.2286986276434877
atom 11.5542151334470375 26.2772957773818376 1.1030417585697945 Zr
    velocity -0.0658177180652150 0.4224653947141787 0.2560463791756861
atom 16.7082151334470339 26.2772957773818376 1.1030417585697945 Zr
    velocity 0.1810176824764037 -0.1634074817833651 -0.2001867270618170
atom 21.8622151334470374 26.2772957773818376 1.1030417585697945 Zr
    velocity -0.1695116316086394 -0.1929566090458528 0.2935987245359601
atom 27.0162151334470337 26.2772957773818376 1.1030417585697945 Zr
    velocity -0.3969386770039700 0.3453425911501882 0.2460800904912775
atom 0.3898264267197363 0.2222957773818360 6.3556870333803754 Zr
    velocity 0.1391279711077273 0.1764931896262148 -0.0357399016475372
atom 5.5438264267197379 0.2222957773818360 6.3556870333803754 Zr
    velocity 0.1738851930635161 -0.1616812696099726 -0.4091527251940956
atom 10.6978264267197360 0.2222957773818360 6.3556870333803754 Zr
    velocity -0.3369249802998808 -0.1910552850347356 -0.4174515125485327
atom 15.8518264267197324 0.2222957773818360 6.3556870333803754 Zr
    velocity 0.0563126038808444 -0.1192663601989358 -0.2250633153367300
atom 21.0058264267197359 0.2222957773818360 6.3556870333803754 Zr
    velocity -0.6524541262700243 -0.2466205965516385 -0.0235971242292284
atom 26.1598264267197322 0.2222957773818360 6.3556870333803754 Zr
    velocity 0.1323296522112425 -0.1230786952005752 -0.0787638418840287
atom 0.3898264267197363 5.4332957773818338 6.3556870333803754 Zr
    velocity 0.4440384491799123 0.3506575023022028 -0.1052984767994486
atom 5.5438264267197379 5.4332957773818338 6.3556870333803754 Zr
    velocity -0.5460396022438793 0.0391199967237768 0.1961906470063718
atom 10.6978264267197360 5.4332957773818338 6.3556870333803754 Zr
    velocity -0.3097885309813893 0.4038501711464130 0.4018011969701344
atom 15.8518264267197324 5.4332957773818338 6.3556870333803754 Zr
    velocity 0.2704950787809681 -0.0705164222898289 0.1888600669520166
atom 21.0058264267197359 5.4332957773818338 6.3556870333803754 Zr
    velocity 0.2971950970155448 0.2296115543532936 0.7789554258846617
atom 26.1598264267197322 5.4332957773818338 6.3556870333803754 Zr
    velocity -0.3909427273165311 -0.4819252915238384 0.0061907372265954
atom 0.3898264267197363 10.6442957773818350 6.3556870333803754 Zr
    velocity -0.0051388342920500 -0.0300603412512490 0.4209947841640576
atom 5.5438264267197379 10.6442957773818350 6.3556870333803754 Zr
    velocity -0.1655309594871646 -0.0486974832059254 0.0169760621783152
atom 10.6978264267197360 10.6442957773818350 6.3556870333803754 Zr
    velocity 0.2818239394290400 0.3530390834694814 -0.4798191215490502
atom 15.8518264267197324 10.6442957773818350 6.3556870333803754 Zr
    velocity 0.2027008813008811 -0.5633998007306171 0.3150549918175771
atom 21.0058264267197359 10.6442957773818350 6.3556870333803754 Zr
    velocity -0.6152156048520513 -0.1799514310035290 0.2252915647256860
atom 26.1598264267197322 10.6442957773818350 6.3556870333803754 Zr
    velocity 0.3959719639884902 -0.5715257935833077 -0.1788929623684621
atom 0.3898264267197363 15.8552957773818353 6.3556870333803754 Zr
    velocity 0.3398340487979539 0.4579014563041544 0.1803082545192952
atom 5.5438264267197379 15.8552957773818353 6.3556870333803754 Zr
    velocity 0.1396843266762507 -0.0440383477405673 0.1628154431739755
atom 10.6978264267197360 15.8552957773818353 6.3556870333803754 Zr
    velocity 0.0755333801211638 0.1387457735036409 0.1301946945562254
atom 15.8518264267197324 15.8552957773818353 6.3556870333803754 Zr
    velocity -0.0893682261529799 -0.0593761881117599 -0.3555887442258663
atom 21.0058264267197359 15.8552957773818353 6.3556870333803754 Zr
    velocity 0.0558589029920401 0.2561240265710408 -0.4180765640992085
atom 26.1598264267197322 15.8552957773818353 6.3556870333803754 Zr
    velocity -0.0460742377972258 -0.2781895190214004 0.2138488769613820
atom 0.3898264267197363 21.0662957773818391 6.3556870333803754 Zr
    velocity -0.1969558668889108 -0.0417534723840375 -0.0573713730244656
atom 5.5438264267197379 21.0662957773818391 6.3556870333803754 Zr
    velocity -0.1014698495071864 -0.1814784954586028 0.0360187111664877
atom 10.6978264267197360 21.0662957773818391 6.3556870333803754 Zr
    velocity -0.1855994672494292 -0.4649449760872189 -0.5656176095937555
atom 15.8518264267197324 21.0662957773818391 6.3556870333803754 Zr
    velocity 0.2858066815017813 -0.2581017155264201 -0.0473364458180349
atom 21.0058264267197359 21.0662957773818391 6.3556870333803754 Zr
    velocity 0.2660017532718990 0.3585859924001207 0.3549507195284265
atom 26.1598264267197322 21.0662957773818391 6.3556870333803754 Zr
    velocity -0.1826117132841879 -0.0055903401015971 0.2973256464441999
atom 0.3898264267197363 26.2772957773818376 6.3556870333803754 Zr
    velocity -0.1507963716163234 0.0421026160005101 0.1340247768866222
atom 5.5438264267197379 26.2772957773818376 6.3556870333803754 Zr
    velocity 0.2427668508188569 -0.2368103607853715 -0.1098382966482452
atom 10.6978264267197360 26.2772957773818376 6.3556870333803754 Zr
    velocity 0.1707435513939200 0.0290079002304627 -0.1702930725920574
atom 15.8518264267197324 26.2772957773818376 6.3556870333803754 Zr
    velocity -0.4887948076260988 0.0897790240078126 0.2991061287798004
atom 21.0058264267197359 26.2772957773818376 6.3556870333803754 Zr
    velocity -0.0680927974508168 -0.1529977790942800 0.3491236367591317
atom 26.1598264267197322 26.2772957773818376 6.3556870333803754 Zr
    velocity -0.1126349064463950 -0.2292054306275027 0.0652623321385279
atom -0.4665622800075660 0.2222957773818360 11.6083323081909580 Zr
    velocity 0.2648896926609616 0.0685674785391461 -0.1186784124636203
atom 4.6874377199924355 0.2222957773818360 11.6083323081909580 Zr
    velocity -0.4976479723329238 -0.2718346812545437 -0.0165622936297780
atom 9.8414377199924328 0.2222957773818360 11.6083323081909580 Zr
    velocity -0.5243327513115892 0.2863092629158684 -0.0790940949764610
atom 14.9954377199924291 0.2222957773818360 11.6083323081909580 Zr
    velocity 0.0132168170455310 -0.1003909183262919 -0.1076815332285125
atom 20.1494377199924344 0.2222957773818360 11.6083323081909580 Zr
    velocity 0.1077708706573794 0.0061005472909423 0.2727014454714455
atom 25.3034377199924307 0.2222957773818360 11.6083323081909580 Zr
    velocity 0.1570220309405157 0.2395695276780326 -0.1458869612717524
atom -0.4665622800075660 5.4332957773818338 11.6083323081909580 Zr
    velocity -0.3873780348233256 -0.4454701110412850 -0.1024165056017417
atom 4.6874377199924355 5.4332957773818338 11.6083323081909580 Zr
    velocity -0.1141924870719612 0.0305796930215215 0.0134917411361221
atom 9.8414377199924328 5.4332957773818338 11.6083323081909580 Zr
    velocity 0.8181056313821402 0.4549282513010568 0.3088349533790471
atom 14.9954377199924291 5.4332957773818338 11.6083323081909580 Zr
    velocity 0.3370746786741883 0.1643153473306685 0.2800508614735641
atom 20.1494377199924344 5.4332957773818338 11.6083323081909580 Zr
    velocity 0.0276132487504990 -0.0979348046779213 0.4018191397546245
atom 25.3034377199924307 5.4332957773818338 11.6083323081909580 Zr
    velocity -0.2735086586999985 0.2959093248170845 0.0215245997321472
atom -0.4665622800075660 10.6442957773818350 11.6083323081909580 Zr
    velocity 0.0188824423499063 0.1804229196708577 -0.2271039203330507
atom 4.6874377199924355 10.6442957773818350 11.6083323081909580 Zr
    velocity -0.4126913675369488 -0.0105671609370206 0.0170871734336415
atom 9.8414377199924328 10.6442957773818350 11.6083323081909580 Zr
    velocity -0.3085125050178348 0.2990747204980947 -0.3003404120694507
atom 14.9954377199924291 10.6442957773818350 11.6083323081909580 Zr
    velocity -0.0548167738888146 -0.3016191398973340 -0.2273746961018077
atom 20.1494377199924344 10.6442957773818350 11.6083323081909580 Zr
    velocity 0.1787712590689854 0.2682142565360910 0.0629056158882886
atom 25.3034377199924307 10.6442957773818350 11.6083323081909580 Zr
    velocity -0.1814158062707727 -0.2407996954182962 0.2912276231060028
atom -0.4665622800075660 15.8552957773818353 11.6083323081909580 Zr
    velocity 0.5154792368159891 0.1523626420841803 -0.4354365898536688
atom 4.6874377199924355 15.8552957773818353 11.6083323081909580 Zr
    velocity -0.3974150099645684 -0.1931525496639999 0.1177783300059242
atom 9.8414377199924328 15.8552957773818353 11.6083323081909580 Zr
    velocity 0.1835478991886065 0.5036554248728656 -0.4513171918399225
atom 14.9954377199924291 15.8552957773818353 11.6083323081909580 Zr
    velocity 0.1449647703618538 0.0434358158468671 -0.1772722976368383
atom 20.1494377199924344 15.8552957773818353 11.6083323081909580 Zr
    velocity -0.0472042197533652 -0.0287528229356144 -0.0992875275825628
atom 25.3034377199924307 15.8552957773818353 11.6083323081909580 Zr
    velocity -0.0485958257790847 -0.0134328410678870 0.1556848994893014
atom -0.4665622800075660 21.0662957773818391 11.6083323081909580 Zr
    velocity 0.4683393604834507 -0.4542661275658574 0.3019208964695189
atom 4.6874377199924355 21.0662957773818391 11.6083323081909580 Zr
    velocity -0.2793680081408995 0.3343596460998688 0.5141078581880174
atom 9.8414377199924328 21.0662957773818391 11.6083323081909580 Zr
    velocity 0.4704563249835287 0.2249665133930902 0.4337175825544073
atom 14.9954377199924291 21.0662957773818391 11.6083323081909580 Zr
    velocity -0.2331410994622972 -0.6632387489915581 -0.2805342359661046
atom 20.1494377199924344 21.0662957773818391 11.6083323081909580 Zr
    velocity 0.2164411512475383 0.2481917277937166 -0.1354967095989813
atom 25.3034377199924307 21.0662957773818391 11.6083323081909580 Zr
    velocity 0.7497728489837012 -0.0543885203543456 0.4353373497090002
atom -0.4665622800075660 26.2772957773818376 11.6083323081909580 Zr
    velocity 0.5663861100944595 -0.2797901708171976 0.0403294298635800
atom 4.6874377199924355 26.2772957773818376 11.6083323081909580 Zr
    velocity -0.0658628383487601 0.2613495103345766 0.0019715005495380
atom 9.8414377199924328 26.2772957773818376 11.6083323081909580 Zr
    velocity 0.1793368279559526 0.6107357242974660 -0.2763661125603386
atom 14.9954377199924291 26.2772957773818376 11.6083323081909580 Zr
    velocity -0.4183852120805533 0.4097340541773561 0.0678053460271520
atom 20.1494377199924344 26.2772957773818376 11.6083323081909580 Zr
    velocity 0.2364008120854772 0.0771672773784541 0.2416773957230664
atom 25.3034377199924307 26.2772957773818376 11.6083323081909580 Zr
    velocity -0.4488223068810282 0.3666834692875168 -0.5021892587837582
atom -1.3229509867348683 0.2222957773818360 16.8609775830015423 Zr
    velocity 0.2015369164336648 -0.3234258096834207 -0.0271579265970772
atom 3.8310490132651331 0.2222957773818360 16.8609775830015423 Zr
    velocity 0.0666062151681499 -0.1204591696848905 0.3243991460629628
atom 8.9850490132651348 0.2222957773818360 16.8609775830015423 Zr
    velocity -0.3658022952904934 -0.0243799525130281 -0.1095763004650253
atom 14.1390490132651276 0.2222957773818360 16.8609775830015423 Zr
    velocity -0.0906841720995710 0.1858894870069099 0.0329634287161659
atom 19.2930490132651293 0.2222957773818360 16.8609775830015423 Zr
    velocity -0.2254897866508260 0.0060561088601332 -0.3533735639271067
atom 24.4470490132651257 0.2222957773818360 16.8609775830015423 Zr
    velocity -0.0982510805184942 -0.1645283908157160 -0.3051715976989741
atom -1.3229509867348683 5.4332957773818338 16.8609775830015423 Zr
    velocity 0.1246476607073130 -0.1571945962630853 -0.4303540261994111
atom 3.8310490132651331 5.4332957773818338 16.8609775830015423 Zr
    velocity 0.2972585247527064 0.1742421948562772 0.0996938267308749
atom 8.9850490132651348 5.4332957773818338 16.8609775830015423 Zr
    velocity -0.0828042119570610 -0.5684348225841072 0.3650753011921579
atom 14.1390490132651276 5.4332957773818338 16.8609775830015423 Zr
    velocity 0.4829656762544336 -0.5720805389100724 0.3948539794403242
atom 19.2930490132651293 5.4332957773818338 16.8609775830015423 Zr
    velocity 0.1133791355015126 -0.0439864009902341 -0.5546700568623553
atom 24.4470490132651257 5.4332957773818338 16.8609775830015423 Zr
    velocity 0.0741708328177208 -0.0151351209081373 0.3075943949239761
atom -1.3229509867348683 10.6442957773818350 16.8609775830015423 Zr
    velocity 0.5029630247011800 0.2296212596223778 0.2126164255045729
atom 3.8310490132651331 10.6442957773818350 16.8609775830015423 Zr
    velocity -0.2586318964023861 0.6858273910030136 0.2018062119604800
atom 8.9850490132651348 10.6442957773818350 16.8609775830015423 Zr
    velocity 0.2736417433725976 0.3227774601089221 0.2307379903120946
atom 14.1390490132651276 10.6442957773818350 16.8609775830015423 Zr
    velocity 0.3980244123533701 -0.2139643175522591 -0.1099556404949063
atom 19.2930490132651293 10.6442957773818350 16.8609775830015423 Zr
    velocity -0.5375760876683714 -0.3112375640718593 -0.0909942705140792
atom 24.4470490132651257 10.6442957773818350 16.8609775830015423 Zr
    velocity 0.3834482727235913 0.1329771513221493 0.5477962912958367
atom -1.3229509867348683 15.8552957773818353 16.8609775830015423 Zr
    velocity -0.0264283599879611 0.0141729710933080 -0.5033841786336408
atom 3.8310490132651331 15.8552957773818353 16.8609775830015423 Zr
    velocity -0.5650161809345368 0.4470310618660258 0.2387270628628257
atom 8.9850490132651348 15.8552957773818353 16.8609775830015423 Zr
    velocity -0.5394815683296187 -0.2596861393465753 0.2143150737699521
atom 14.1390490132651276 15.8552957773818353 16.8609775830015423 Zr
    velocity -0.0097482182946988 0.1379823997319140 0.0676374385949042
atom 19.2930490132651293 15.8552957773818353 16.8609775830015423 Zr
    velocity -0.1967436660312592 -0.0786103209673375 -0.2506741981274326
atom 24.4470490132651257 15.8552957773818353 16.8609775830015423 Zr
    velocity 0.0055386148233497 0.3701182043618114 -0.1021129032549129
atom -1.3229509867348683 21.0662957773818391 16.8609775830015423 Zr
    velocity 0.2326427219597701 0.5031200271234800 -0.1004995161974539
atom 3.8310490132651331 21.0662957773818391 16.8609775830015423 Zr
    velocity 0.5454896667703051 -0.0101475112786813 -0.2160546702615546
atom 8.9850490132651348 21.0662957773818391 16.8609775830015423 Zr
    velocity 0.1190001253134591 -0.2717343534616469 -0.0902267067273761
atom 14.1390490132651276 21.0662957773818391 16.8609775830015423 Zr
    velocity 0.0527672091316055 0.4083160420561426 0.4870687085538238
atom 19.2930490132651293 21.0662957773818391 16.8609775830015423 Zr
    velocity -0.2819303693542541 -0.6618019930523223 0.3129213795034334
atom 24.4470490132651257 21.0662957773818391 16.8609775830015423 Zr
    velocity -0.2037510065618982 -0.1376527946562965 -0.7208027835463738
atom -1.3229509867348683 26.2772957773818376 16.8609775830015423 Zr
    velocity 0.0891046318821221 0.0471729396892627 -0.0461655003045169
atom 3.8310490132651331 26.2772957773818376 16.8609775830015423 Zr
    velocity 0.1568782621338708 -0.1208856622071600 0.2425709253109498
atom 8.9850490132651348 26.2772957773818376 16.8609775830015423 Zr
    velocity 0.4189077322133165 0.1235333360654429 0.0611850942587705
atom 14.1390490132651276 26.2772957773818376 16.8609775830015423 Zr
    velocity 0.2537560785105650 0.1578764128793675 -0.2621065808176066
atom 19.2930490132651293 26.2772957773818376 16.8609775830015423 Zr
    velocity -0.1317334113178615 -0.0285495343144218 0.1008305812204391
atom 24.4470490132651257 26.2772957773818376 16.8609775830015423 Zr
    velocity -0.0003667452512316 -0.2808592913806681 0.1744988753813937
atom -2.1793396934621700 0.2222957773818360 22.1136228578121212 Zr
    velocity 0.0575477810980982 -0.3761848339712409 -0.0490247053675500
atom 2.9746603065378316 0.2222957773818360 22.1136228578121212 Zr
    velocity 0.2810511364984095 -0.5585507829900807 0.1705134832950734
atom 8.1286603065378333 0.2222957773818360 22.1136228578121212 Zr
    velocity -0.0628078108846265 -0.0745593225306583 0.1855010410861855
atom 13.2826603065378261 0.2222957773818360 22.1136228578121212 Zr
    velocity -0.5849667657313455 -0.2156859241676803 -0.1156620148750633
atom 18.4366603065378278 0.2222957773818360 22.1136228578121212 Zr
    velocity 0.4701376180952487 0.2700003366545254 -0.1428801815414410
atom 23.5906603065378242 0.2222957773818360 22.1136228578121212 Zr
    velocity 0.1418277482987050 -0.3932247342703943 0.0433000459968900
atom -2.1793396934621700 5.4332957773818338 22.1136228578121212 Zr
    velocity -0.6156572771931331 0.3671344712943171 -0.1023702641577626
atom 2.9746603065378316 5.4332957773818338 22.1136228578121212 Zr
    velocity 0.0706907636765405 0.0342519189265485 -0.0288562922414043
atom 8.1286603065378333 5.4332957773818338 22.1136228578121212 Zr
    velocity 0.1191411358661180 0.4670949471812074 0.2873572347127283
atom 13.2826603065378261 5.4332957773818338 22.1136228578121212 Zr
    velocity 0.1500451742196710 0.5782807350380849 -0.0491449241576016
atom 18.4366603065378278 5.4332957773818338 22.1136228578121212 Zr
    velocity -0.0625033658341877 -0.2642582965165414 0.2902765022664084
atom 23.5906603065378242 5.4332957773818338 22.1136228578121212 Zr
    velocity 0.3338095871080218 -0.0600046486433168 -0.0199130199768555
atom -2.1793396934621700 10.6442957773818350 22.1136228578121212 Zr
    velocity 0.1250657882448909 -0.0819641376489949 -0.1512444560892219
atom 2.9746603065378316 10.6442957773818350 22.1136228578121212 Zr
    velocity -0.0923687142748260 0.3463568146102351 0.7758645463486745
atom 8.1286603065378333 10.6442957773818350 22.1136228578121212 Zr
    velocity 0.2434114000525234 0.1469577026594123 0.1541155203358332
atom 13.2826603065378261 10.6442957773818350 22.1136228578121212 Zr
    velocity -0.2743900975629077 -0.5127746970831357 0.2225159960338456
atom 18.4366603065378278 10.6442957773818350 22.1136228578121212 Zr
    velocity -0.2565206348784905 -0.2533702254754224 0.2164388097998226
atom 23.5906603065378242 10.6442957773818350 22.1136228578121212 Zr
    velocity 0.3006622596693853 0.3294997237913107 0.1873981922477029
atom -2.1793396934621700 15.8552957773818353 22.1136228578121212 Zr
    velocity 0.4274868056139122 0.1970663252775895 0.2612255951831782
atom 2.9746603065378316 15.8552957773818353 22.1136228578121212 Zr
    velocity 0.0108368767207261 -0.3752514709873769 0.0378444097876646
atom 8.1286603065378333 15.8552957773818353 22.1136228578121212 Zr
    velocity 0.0867165155785524 0.6073540185828135 0.1511875303239231
atom 13.2826603065378261 15.8552957773818353 22.1136228578121212 Zr
    velocity -0.4402198022160238 -0.1304923144414034 0.0897846637662141
atom 18.4366603065378278 15.8552957773818353 22.1136228578121212 Zr
    velocity 0.2420707267416924 0.6837063755897047 0.4473578807212843
atom 23.5906603065378242 15.8552957773818353 22.1136228578121212 Zr
    velocity -0.0237032197560414 0.2644549942262619 -0.7253918573361889
atom -2.1793396934621700 21.0662957773818391 22.1136228578121212 Zr
    velocity 0.0375899236404469 0.1599962137229991 0.0048861841482772
atom 2.9746603065378316 21.0662957773818391 22.1136228578121212 Zr
    velocity -0.5012215711841239 -0.4156382737712800 -0.1275618902132297
atom 8.1286603065378333 21.0662957773818391 22.1136228578121212 Zr
    velocity 0.4776520341592265 -0.1154136087032116 -0.4631336283262454
atom 13.2826603065378261 21.0662957773818391 22.1136228578121212 Zr
    velocity -0.0762783952403111 -0.5618025285230482 0.2509676879194344
atom 18.4366603065378278 21.0662957773818391 22.1136228578121212 Zr
    velocity -0.0392324547856349 0.3023373099090499 -0.2344180234579913
atom 23.5906603065378242 21.0662957773818391 22.1136228578121212 Zr
    velocity 0.1830513487879032 0.3451832206695264 -0.0570981017171382
atom -2.1793396934621700 26.2772957773818376 22.1136228578121212 Zr
    velocity 0.0036297010160657 0.0293670659394735 -0.0322622926290251
atom 2.9746603065378316 26.2772957773818376 22.1136228578121212 Zr
    velocity 0.6815261853866664 0.3756571965526978 -0.4574831549304267
atom 8.1286603065378333 26.2772957773818376 22.1136228578121212 Zr
    velocity -0.3743749338735154 -0.1349026469632449 -0.2658398599892065
atom 13.2826603065378261 26.2772957773818376 22.1136228578121212 Zr
    velocity 0.1340001686711827 -0.1934329311892862 0.0195051724309724
atom 18.4366603065378278 26.2772957773818376 22.1136228578121212 Zr
    velocity -0.3558764191987570 0.3721135836250291 0.3287427485309702
atom 23.5906603065378242 26.2772957773818376 22.1136228578121212 Zr
    velocity -0.0319782091727290 0.1311574019654095 -0.1071592484225932
atom -3.0357284001894724 0.2222957773818360 27.3662681326227037 Zr
    velocity -0.4782683013930099 -0.4048975937966345 -0.1377846321919323
atom 2.1182715998105293 0.2222957773818360 27.3662681326227037 Zr
    velocity 0.2315307855700689 -0.2778456767537169 -0.3470184807966432
atom 7.2722715998105265 0.2222957773818360 27.3662681326227037 Zr
    velocity -0.5672703125987618 0.1913552730669026 -0.0831517696131000
atom 12.4262715998105229 0.2222957773818360 27.3662681326227037 Zr
    velocity -0.0422320267560160 0.1393087243090563 -0.1155876399161838
atom 17.5802715998105263 0.2222957773818360 27.3662681326227037 Zr
    velocity 0.3692984595214554 -0.1137836143183093 -0.2063640746450281
atom 22.7342715998105227 0.2222957773818360 27.3662681326227037 Zr
    velocity 0.3878990175724876 0.1961045638229440 -0.1503146610505918
atom -3.0357284001894724 5.4332957773818338 27.3662681326227037 Zr
    velocity -0.5773375483415761 0.4405895742392804 -0.3121603275288534
atom 2.1182715998105293 5.4332957773818338 27.3662681326227037 Zr
    velocity -0.3663898433677467 -0.3064079645516470 0.2151133484565869
atom 7.2722715998105265 5.4332957773818338 27.3662681326227037 Zr
    velocity 0.0611918777093158 -0.1179428765926481 0.0786685603792589
atom 12.4262715998105229 5.4332957773818338 27.3662681326227037 Zr
    velocity 0.2850278912610562 -0.5452498633955222 0.1622540788546479
atom 17.5802715998105263 5.4332957773818338 27.3662681326227037 Zr
    velocity 0.0581604561919543 -0.2936614975263265 -0.1276560351798586
atom 22.7342715998105227 5.4332957773818338 27.3662681326227037 Zr
    velocity 0.1472877883506095 -0.2607476270212088 0.0357062222229051
atom -3.0357284001894724 10.6442957773818350 27.3662681326227037 Zr
    velocity -0.1406094818614958 -0.1379841212998503 -0.1995878878703681
atom 2.1182715998105293 10.6442957773818350 27.3662681326227037 Zr
    velocity 0.2692164591451535 -0.1131780905013268 -0.0839990401419220
atom 7.2722715998105265 10.6442957773818350 27.3662681326227037 Zr
    velocity 0.0441674434724931 0.6099894509958842 0.1991388713362150
atom 12.4262715998105229 10.6442957773818350 27.3662681326227037 Zr
    velocity 0.2112300734382370 0.3110356408034581 -0.2267178832487783
atom 17.5802715998105263 10.6442957773818350 27.3662681326227037 Zr
    velocity 0.0958289464742067 0.2251323237179170 0.2144194765938443
atom 22.7342715998105227 10.6442957773818350 27.3662681326227037 Zr
    velocity 0.0596965229310576 0.1209154489006274 -0.4506971932418600
atom -3.0357284001894724 15.8552957773818353 27.3662681326227037 Zr
    velocity -0.4943054522638350 0.2383287358812012 -0.0257100700519645
atom 2.1182715998105293 15.8552957773818353 27.3662681326227037 Zr
    velocity 0.1728063937919531 0.2467993728437011 -0.0707895362728251
atom 7.2722715998105265 15.8552957773818353 27.3662681326227037 Zr
    velocity 0.4476823968110433 -0.2774558769697056 -0.1927587130701016
atom 12.4262715998105229 15.8552957773818353 27.3662681326227037 Zr
    velocity 0.1328063134171650 -0.2360898780794887 0.1149979158210159
atom 17.5802715998105263 15.8552957773818353 27.3662681326227037 Zr
    velocity 0.0642250780130045 -0.1859711507771640 0.1345371414689015
atom 22.7342715998105227 15.8552957773818353 27.3662681326227037 Zr
    velocity 0.0315966200822856 0.1425707855033647 0.0943676064727766
atom -3.0357284001894724 21.0662957773818391 27.3662681326227037 Zr
    velocity 0.3039484511265194 -0.0755605795059777 -0.0088195697672337
atom 2.1182715998105293 21.0662957773818391 27.3662681326227037 Zr
    velocity -0.1704999039328400 0.1646145916684131 -0.1154207245905654
atom 7.2722715998105265 21.0662957773818391 27.3662681326227037 Zr
    velocity 0.2393928601675780 0.4892037882325686 0.2194580017384367
atom 12.4262715998105229 21.0662957773818391 27.3662681326227037 Zr
    velocity 0.4757816932503923 0.1118833274747148 -0.3354170073219396
atom 17.5802715998105263 21.0662957773818391 27.3662681326227037 Zr
    velocity -0.0065472296281883 -0.0956493830828631 0.1552980935361323
atom 22.7342715998105227 21.0662957773818391 27.3662681326227037 Zr
    velocity 0.1836161804834283 -0.5114284385163544 -0.2318386637791370
atom -3.0357284001894724 26.2772957773818376 27.3662681326227037 Zr
    velocity 0.0278507191733518 0.0324718950136223 -0.0091380793339845