#=======================================================
# FHI-aims file: 450_geometry.in.primitive.supercell_768
# Created using the Atomic Simulation Environment (ASE)
# Tue Oct 18 13:10:04 2022

# Additional information:
#  Number of atoms:     768
#  Spacegroup:          14
#  supercell:           True
#  supercell_matrix:    [4, 0, 0, 0, 4, 0, 0, 0, 4]
#  Supercell matrix:    [4 0 0 0 4 0 0 0 4]
#=======================================================
lattice_vector 20.6159999999999997 0.0000000000000000 0.0000000000000000 
lattice_vector 0.0000000000000000 20.8440000000000012 0.0000000000000000 
lattice_vector -3.4255548269092091 0.0000000000000000 21.0105810992423301 
atom_frac 0.0691722215855000 0.0106647369690000 0.0524993456087500 Zr
atom_frac 0.3191722215855000 0.0106647369690000 0.0524993456087500 Zr
atom_frac 0.5691722215855000 0.0106647369690000 0.0524993456087500 Zr
atom_frac 0.8191722215854998 0.0106647369690000 0.0524993456087500 Zr
atom_frac 0.0691722215855000 0.2606647369690000 0.0524993456087500 Zr
atom_frac 0.3191722215855000 0.2606647369690000 0.0524993456087500 Zr
atom_frac 0.5691722215855000 0.2606647369690000 0.0524993456087500 Zr
atom_frac 0.8191722215854998 0.2606647369690000 0.0524993456087500 Zr
atom_frac 0.0691722215855000 0.5106647369690002 0.0524993456087500 Zr
atom_frac 0.3191722215855000 0.5106647369690002 0.0524993456087500 Zr
atom_frac 0.5691722215855000 0.5106647369690002 0.0524993456087500 Zr
atom_frac 0.8191722215854998 0.5106647369690002 0.0524993456087500 Zr
atom_frac 0.0691722215855000 0.7606647369690002 0.0524993456087500 Zr
atom_frac 0.3191722215855000 0.7606647369690002 0.0524993456087500 Zr
atom_frac 0.5691722215855000 0.7606647369690002 0.0524993456087500 Zr
atom_frac 0.8191722215854998 0.7606647369690002 0.0524993456087500 Zr
atom_frac 0.0691722215855000 0.0106647369690000 0.3024993456087500 Zr
atom_frac 0.3191722215855000 0.0106647369690000 0.3024993456087500 Zr
atom_frac 0.5691722215855000 0.0106647369690000 0.3024993456087500 Zr
atom_frac 0.8191722215854998 0.0106647369690000 0.3024993456087500 Zr
atom_frac 0.0691722215855000 0.2606647369690000 0.3024993456087500 Zr
atom_frac 0.3191722215855000 0.2606647369690000 0.3024993456087500 Zr
atom_frac 0.5691722215855000 0.2606647369690000 0.3024993456087500 Zr
atom_frac 0.8191722215854998 0.2606647369690000 0.3024993456087500 Zr
atom_frac 0.0691722215855000 0.5106647369690002 0.3024993456087500 Zr
atom_frac 0.3191722215855000 0.5106647369690002 0.3024993456087500 Zr
atom_frac 0.5691722215855000 0.5106647369690002 0.3024993456087500 Zr
atom_frac 0.8191722215854998 0.5106647369690002 0.3024993456087500 Zr
atom_frac 0.0691722215855000 0.7606647369690002 0.3024993456087500 Zr
atom_frac 0.3191722215855000 0.7606647369690002 0.3024993456087500 Zr
atom_frac 0.5691722215855000 0.7606647369690002 0.3024993456087500 Zr
atom_frac 0.8191722215854998 0.7606647369690002 0.3024993456087500 Zr
atom_frac 0.0691722215855000 0.0106647369690000 0.5524993456087501 Zr
atom_frac 0.3191722215855001 0.0106647369690000 0.5524993456087501 Zr
atom_frac 0.5691722215855000 0.0106647369690000 0.5524993456087501 Zr
atom_frac 0.8191722215854998 0.0106647369690000 0.5524993456087501 Zr
atom_frac 0.0691722215855000 0.2606647369690000 0.5524993456087501 Zr
atom_frac 0.3191722215855001 0.2606647369690000 0.5524993456087501 Zr
atom_frac 0.5691722215855000 0.2606647369690000 0.5524993456087501 Zr
atom_frac 0.8191722215854998 0.2606647369690000 0.5524993456087501 Zr
atom_frac 0.0691722215855000 0.5106647369690002 0.5524993456087501 Zr
atom_frac 0.3191722215855001 0.5106647369690002 0.5524993456087501 Zr
atom_frac 0.5691722215855000 0.5106647369690002 0.5524993456087501 Zr
atom_frac 0.8191722215854998 0.5106647369690002 0.5524993456087501 Zr
atom_frac 0.0691722215855000 0.7606647369690002 0.5524993456087501 Zr
atom_frac 0.3191722215855001 0.7606647369690002 0.5524993456087501 Zr
atom_frac 0.5691722215855000 0.7606647369690002 0.5524993456087501 Zr
atom_frac 0.8191722215854998 0.7606647369690002 0.5524993456087501 Zr
atom_frac 0.0691722215855000 0.0106647369690000 0.8024993456087501 Zr
atom_frac 0.3191722215855001 0.0106647369690000 0.8024993456087501 Zr
atom_frac 0.5691722215855001 0.0106647369690000 0.8024993456087501 Zr
atom_frac 0.8191722215854998 0.0106647369690000 0.8024993456087501 Zr
atom_frac 0.0691722215855000 0.2606647369690000 0.8024993456087501 Zr
atom_frac 0.3191722215855001 0.2606647369690000 0.8024993456087501 Zr
atom_frac 0.5691722215855001 0.2606647369690000 0.8024993456087501 Zr
atom_frac 0.8191722215854998 0.2606647369690000 0.8024993456087501 Zr
atom_frac 0.0691722215855000 0.5106647369690002 0.8024993456087501 Zr
atom_frac 0.3191722215855001 0.5106647369690002 0.8024993456087501 Zr
atom_frac 0.5691722215855001 0.5106647369690002 0.8024993456087501 Zr
atom_frac 0.8191722215854998 0.5106647369690002 0.8024993456087501 Zr
atom_frac 0.0691722215855000 0.7606647369690002 0.8024993456087501 Zr
atom_frac 0.3191722215855001 0.7606647369690002 0.8024993456087501 Zr
atom_frac 0.5691722215855001 0.7606647369690002 0.8024993456087501 Zr
atom_frac 0.8191722215854998 0.7606647369690002 0.8024993456087501 Zr
atom_frac 0.1808277641644999 0.2393352630310001 0.1975006578912500 Zr
atom_frac 0.4308277641645000 0.2393352630310001 0.1975006578912500 Zr
atom_frac 0.6808277641645000 0.2393352630310001 0.1975006578912500 Zr
atom_frac 0.9308277641645001 0.2393352630310001 0.1975006578912500 Zr
atom_frac 0.1808277641644999 0.4893352630310001 0.1975006578912500 Zr
atom_frac 0.4308277641645000 0.4893352630310001 0.1975006578912500 Zr
atom_frac 0.6808277641645000 0.4893352630310001 0.1975006578912500 Zr
atom_frac 0.9308277641645001 0.4893352630310001 0.1975006578912500 Zr
atom_frac 0.1808277641644999 0.7393352630310001 0.1975006578912500 Zr
atom_frac 0.4308277641645000 0.7393352630310001 0.1975006578912500 Zr
atom_frac 0.6808277641645000 0.7393352630310001 0.1975006578912500 Zr
atom_frac 0.9308277641645001 0.7393352630310001 0.1975006578912500 Zr
atom_frac 0.1808277641644999 0.9893352630310002 0.1975006578912500 Zr
atom_frac 0.4308277641645000 0.9893352630310002 0.1975006578912500 Zr
atom_frac 0.6808277641645000 0.9893352630310002 0.1975006578912500 Zr
atom_frac 0.9308277641645001 0.9893352630310002 0.1975006578912500 Zr
atom_frac 0.1808277641645000 0.2393352630310001 0.4475006578912501 Zr
atom_frac 0.4308277641645000 0.2393352630310001 0.4475006578912501 Zr
atom_frac 0.6808277641645000 0.2393352630310001 0.4475006578912501 Zr
atom_frac 0.9308277641645001 0.2393352630310001 0.4475006578912501 Zr
atom_frac 0.1808277641645000 0.4893352630310001 0.4475006578912501 Zr
atom_frac 0.4308277641645000 0.4893352630310001 0.4475006578912501 Zr
atom_frac 0.6808277641645000 0.4893352630310001 0.4475006578912501 Zr
atom_frac 0.9308277641645001 0.4893352630310001 0.4475006578912501 Zr
atom_frac 0.1808277641645000 0.7393352630310001 0.4475006578912501 Zr
atom_frac 0.4308277641645000 0.7393352630310001 0.4475006578912501 Zr
atom_frac 0.6808277641645000 0.7393352630310001 0.4475006578912501 Zr
atom_frac 0.9308277641645001 0.7393352630310001 0.4475006578912501 Zr
atom_frac 0.1808277641645000 0.9893352630310002 0.4475006578912501 Zr
atom_frac 0.4308277641645000 0.9893352630310002 0.4475006578912501 Zr
atom_frac 0.6808277641645000 0.9893352630310002 0.4475006578912501 Zr
atom_frac 0.9308277641645001 0.9893352630310002 0.4475006578912501 Zr
atom_frac 0.1808277641644999 0.2393352630310001 0.6975006578912500 Zr
atom_frac 0.4308277641645000 0.2393352630310001 0.6975006578912500 Zr
atom_frac 0.6808277641645000 0.2393352630310001 0.6975006578912500 Zr
atom_frac 0.9308277641644999 0.2393352630310001 0.6975006578912500 Zr
atom_frac 0.1808277641644999 0.4893352630310001 0.6975006578912500 Zr
atom_frac 0.4308277641645000 0.4893352630310001 0.6975006578912500 Zr
atom_frac 0.6808277641645000 0.4893352630310001 0.6975006578912500 Zr
atom_frac 0.9308277641644999 0.4893352630310001 0.6975006578912500 Zr
atom_frac 0.1808277641644999 0.7393352630310001 0.6975006578912500 Zr
atom_frac 0.4308277641645000 0.7393352630310001 0.6975006578912500 Zr
atom_frac 0.6808277641645000 0.7393352630310001 0.6975006578912500 Zr
atom_frac 0.9308277641644999 0.7393352630310001 0.6975006578912500 Zr
atom_frac 0.1808277641644999 0.9893352630310002 0.6975006578912500 Zr
atom_frac 0.4308277641645000 0.9893352630310002 0.6975006578912500 Zr
atom_frac 0.6808277641645000 0.9893352630310002 0.6975006578912500 Zr
atom_frac 0.9308277641644999 0.9893352630310002 0.6975006578912500 Zr
atom_frac 0.1808277641644999 0.2393352630310001 0.9475006578912500 Zr
atom_frac 0.4308277641645000 0.2393352630310001 0.9475006578912500 Zr
atom_frac 0.6808277641645001 0.2393352630310001 0.9475006578912500 Zr
atom_frac 0.9308277641645001 0.2393352630310001 0.9475006578912500 Zr
atom_frac 0.1808277641644999 0.4893352630310001 0.9475006578912500 Zr
atom_frac 0.4308277641645000 0.4893352630310001 0.9475006578912500 Zr
atom_frac 0.6808277641645001 0.4893352630310001 0.9475006578912500 Zr
atom_frac 0.9308277641645001 0.4893352630310001 0.9475006578912500 Zr
atom_frac 0.1808277641644999 0.7393352630310001 0.9475006578912500 Zr
atom_frac 0.4308277641645000 0.7393352630310001 0.9475006578912500 Zr
atom_frac 0.6808277641645001 0.7393352630310001 0.9475006578912500 Zr
atom_frac 0.9308277641645001 0.7393352630310001 0.9475006578912500 Zr
atom_frac 0.1808277641644999 0.9893352630310002 0.9475006578912500 Zr
atom_frac 0.4308277641645000 0.9893352630310002 0.9475006578912500 Zr
atom_frac 0.6808277641645001 0.9893352630310002 0.9475006578912500 Zr
atom_frac 0.9308277641645001 0.9893352630310002 0.9475006578912500 Zr
atom_frac 0.1808277641645000 0.1356647369690001 0.0725006578912500 Zr
atom_frac 0.4308277641645000 0.1356647369690001 0.0725006578912500 Zr
atom_frac 0.6808277641645000 0.1356647369690001 0.0725006578912500 Zr
atom_frac 0.9308277641645001 0.1356647369690001 0.0725006578912500 Zr
atom_frac 0.1808277641645000 0.3856647369690001 0.0725006578912500 Zr
atom_frac 0.4308277641645000 0.3856647369690001 0.0725006578912500 Zr
atom_frac 0.6808277641645000 0.3856647369690001 0.0725006578912500 Zr
atom_frac 0.9308277641645001 0.3856647369690001 0.0725006578912500 Zr
atom_frac 0.1808277641645000 0.6356647369690001 0.0725006578912500 Zr
atom_frac 0.4308277641645000 0.6356647369690001 0.0725006578912500 Zr
atom_frac 0.6808277641645000 0.6356647369690001 0.0725006578912500 Zr
atom_frac 0.9308277641645001 0.6356647369690001 0.0725006578912500 Zr
atom_frac 0.1808277641645000 0.8856647369690002 0.0725006578912500 Zr
atom_frac 0.4308277641645000 0.8856647369690002 0.0725006578912500 Zr
atom_frac 0.6808277641645000 0.8856647369690002 0.0725006578912500 Zr
atom_frac 0.9308277641645001 0.8856647369690002 0.0725006578912500 Zr
atom_frac 0.1808277641645000 0.1356647369690001 0.3225006578912501 Zr
atom_frac 0.4308277641645000 0.1356647369690001 0.3225006578912501 Zr
atom_frac 0.6808277641645001 0.1356647369690001 0.3225006578912501 Zr
atom_frac 0.9308277641645001 0.1356647369690001 0.3225006578912501 Zr
atom_frac 0.1808277641645000 0.3856647369690001 0.3225006578912501 Zr
atom_frac 0.4308277641645000 0.3856647369690001 0.3225006578912501 Zr
atom_frac 0.6808277641645001 0.3856647369690001 0.3225006578912501 Zr
atom_frac 0.9308277641645001 0.3856647369690001 0.3225006578912501 Zr
atom_frac 0.1808277641645000 0.6356647369690001 0.3225006578912501 Zr
atom_frac 0.4308277641645000 0.6356647369690001 0.3225006578912501 Zr
atom_frac 0.6808277641645001 0.6356647369690001 0.3225006578912501 Zr
atom_frac 0.9308277641645001 0.6356647369690001 0.3225006578912501 Zr
atom_frac 0.1808277641645000 0.8856647369690002 0.3225006578912501 Zr
atom_frac 0.4308277641645000 0.8856647369690002 0.3225006578912501 Zr
atom_frac 0.6808277641645001 0.8856647369690002 0.3225006578912501 Zr
atom_frac 0.9308277641645001 0.8856647369690002 0.3225006578912501 Zr
atom_frac 0.1808277641645000 0.1356647369690001 0.5725006578912500 Zr
atom_frac 0.4308277641645000 0.1356647369690001 0.5725006578912500 Zr
atom_frac 0.6808277641645000 0.1356647369690001 0.5725006578912500 Zr
atom_frac 0.9308277641645001 0.1356647369690001 0.5725006578912500 Zr
atom_frac 0.1808277641645000 0.3856647369690001 0.5725006578912500 Zr
atom_frac 0.4308277641645000 0.3856647369690001 0.5725006578912500 Zr
atom_frac 0.6808277641645000 0.3856647369690001 0.5725006578912500 Zr
atom_frac 0.9308277641645001 0.3856647369690001 0.5725006578912500 Zr
atom_frac 0.1808277641645000 0.6356647369690001 0.5725006578912500 Zr
atom_frac 0.4308277641645000 0.6356647369690001 0.5725006578912500 Zr
atom_frac 0.6808277641645000 0.6356647369690001 0.5725006578912500 Zr
atom_frac 0.9308277641645001 0.6356647369690001 0.5725006578912500 Zr
atom_frac 0.1808277641645000 0.8856647369690002 0.5725006578912500 Zr
atom_frac 0.4308277641645000 0.8856647369690002 0.5725006578912500 Zr
atom_frac 0.6808277641645000 0.8856647369690002 0.5725006578912500 Zr
atom_frac 0.9308277641645001 0.8856647369690002 0.5725006578912500 Zr
atom_frac 0.1808277641645000 0.1356647369690001 0.8225006578912500 Zr
atom_frac 0.4308277641645000 0.1356647369690001 0.8225006578912500 Zr
atom_frac 0.6808277641645000 0.1356647369690001 0.8225006578912500 Zr
atom_frac 0.9308277641645001 0.1356647369690001 0.8225006578912500 Zr
atom_frac 0.1808277641645000 0.3856647369690001 0.8225006578912500 Zr
atom_frac 0.4308277641645000 0.3856647369690001 0.8225006578912500 Zr
atom_frac 0.6808277641645000 0.3856647369690001 0.8225006578912500 Zr
atom_frac 0.9308277641645001 0.3856647369690001 0.8225006578912500 Zr
atom_frac 0.1808277641645000 0.6356647369690001 0.8225006578912500 Zr
atom_frac 0.4308277641645000 0.6356647369690001 0.8225006578912500 Zr
atom_frac 0.6808277641645000 0.6356647369690001 0.8225006578912500 Zr
atom_frac 0.9308277641645001 0.6356647369690001 0.8225006578912500 Zr
atom_frac 0.1808277641645000 0.8856647369690002 0.8225006578912500 Zr
atom_frac 0.4308277641645000 0.8856647369690002 0.8225006578912500 Zr
atom_frac 0.6808277641645000 0.8856647369690002 0.8225006578912500 Zr
atom_frac 0.9308277641645001 0.8856647369690002 0.8225006578912500 Zr
atom_frac 0.0691722215855000 0.1143352630310000 0.1774993456087500 Zr
atom_frac 0.3191722215855000 0.1143352630310000 0.1774993456087500 Zr
atom_frac 0.5691722215855000 0.1143352630310000 0.1774993456087500 Zr
atom_frac 0.8191722215854998 0.1143352630310000 0.1774993456087500 Zr
atom_frac 0.0691722215855000 0.3643352630310000 0.1774993456087500 Zr
atom_frac 0.3191722215855000 0.3643352630310000 0.1774993456087500 Zr
atom_frac 0.5691722215855000 0.3643352630310000 0.1774993456087500 Zr
atom_frac 0.8191722215854998 0.3643352630310000 0.1774993456087500 Zr
atom_frac 0.0691722215855000 0.6143352630309999 0.1774993456087500 Zr
atom_frac 0.3191722215855000 0.6143352630309999 0.1774993456087500 Zr
atom_frac 0.5691722215855000 0.6143352630309999 0.1774993456087500 Zr
atom_frac 0.8191722215854998 0.6143352630309999 0.1774993456087500 Zr
atom_frac 0.0691722215855000 0.8643352630309999 0.1774993456087500 Zr
atom_frac 0.3191722215855000 0.8643352630309999 0.1774993456087500 Zr
atom_frac 0.5691722215855000 0.8643352630309999 0.1774993456087500 Zr
atom_frac 0.8191722215854998 0.8643352630309999 0.1774993456087500 Zr
atom_frac 0.0691722215855000 0.1143352630310000 0.4274993456087501 Zr
atom_frac 0.3191722215855000 0.1143352630310000 0.4274993456087501 Zr
atom_frac 0.5691722215855000 0.1143352630310000 0.4274993456087501 Zr
atom_frac 0.8191722215854998 0.1143352630310000 0.4274993456087501 Zr
atom_frac 0.0691722215855000 0.3643352630310000 0.4274993456087501 Zr
atom_frac 0.3191722215855000 0.3643352630310000 0.4274993456087501 Zr
atom_frac 0.5691722215855000 0.3643352630310000 0.4274993456087501 Zr
atom_frac 0.8191722215854998 0.3643352630310000 0.4274993456087501 Zr
atom_frac 0.0691722215855000 0.6143352630309999 0.4274993456087501 Zr
atom_frac 0.3191722215855000 0.6143352630309999 0.4274993456087501 Zr
atom_frac 0.5691722215855000 0.6143352630309999 0.4274993456087501 Zr
atom_frac 0.8191722215854998 0.6143352630309999 0.4274993456087501 Zr
atom_frac 0.0691722215855000 0.8643352630309999 0.4274993456087501 Zr
atom_frac 0.3191722215855000 0.8643352630309999 0.4274993456087501 Zr
atom_frac 0.5691722215855000 0.8643352630309999 0.4274993456087501 Zr
atom_frac 0.8191722215854998 0.8643352630309999 0.4274993456087501 Zr
atom_frac 0.0691722215855000 0.1143352630310000 0.6774993456087501 Zr
atom_frac 0.3191722215855001 0.1143352630310000 0.6774993456087501 Zr
atom_frac 0.5691722215855001 0.1143352630310000 0.6774993456087501 Zr
atom_frac 0.8191722215854998 0.1143352630310000 0.6774993456087501 Zr
atom_frac 0.0691722215855000 0.3643352630310000 0.6774993456087501 Zr
atom_frac 0.3191722215855001 0.3643352630310000 0.6774993456087501 Zr
atom_frac 0.5691722215855001 0.3643352630310000 0.6774993456087501 Zr
atom_frac 0.8191722215854998 0.3643352630310000 0.6774993456087501 Zr
atom_frac 0.0691722215855000 0.6143352630309999 0.6774993456087501 Zr
atom_frac 0.3191722215855001 0.6143352630309999 0.6774993456087501 Zr
atom_frac 0.5691722215855001 0.6143352630309999 0.6774993456087501 Zr
atom_frac 0.8191722215854998 0.6143352630309999 0.6774993456087501 Zr
atom_frac 0.0691722215855000 0.8643352630309999 0.6774993456087501 Zr
atom_frac 0.3191722215855001 0.8643352630309999 0.6774993456087501 Zr
atom_frac 0.5691722215855001 0.8643352630309999 0.6774993456087501 Zr
atom_frac 0.8191722215854998 0.8643352630309999 0.6774993456087501 Zr
atom_frac 0.0691722215855000 0.1143352630310000 0.9274993456087501 Zr
atom_frac 0.3191722215855001 0.1143352630310000 0.9274993456087501 Zr
atom_frac 0.5691722215855000 0.1143352630310000 0.9274993456087501 Zr
atom_frac 0.8191722215854998 0.1143352630310000 0.9274993456087501 Zr
atom_frac 0.0691722215855000 0.3643352630310000 0.9274993456087501 Zr
atom_frac 0.3191722215855001 0.3643352630310000 0.9274993456087501 Zr
atom_frac 0.5691722215855000 0.3643352630310000 0.9274993456087501 Zr
atom_frac 0.8191722215854998 0.3643352630310000 0.9274993456087501 Zr
atom_frac 0.0691722215855000 0.6143352630309999 0.9274993456087501 Zr
atom_frac 0.3191722215855001 0.6143352630309999 0.9274993456087501 Zr
atom_frac 0.5691722215855000 0.6143352630309999 0.9274993456087501 Zr
atom_frac 0.8191722215854998 0.6143352630309999 0.9274993456087501 Zr
atom_frac 0.0691722215855000 0.8643352630309999 0.9274993456087501 Zr
atom_frac 0.3191722215855001 0.8643352630309999 0.9274993456087501 Zr
atom_frac 0.5691722215855000 0.8643352630309999 0.9274993456087501 Zr
atom_frac 0.8191722215854998 0.8643352630309999 0.9274993456087501 Zr
atom_frac 0.0173663800865000 0.0837268306590000 0.0856696202840000 O
atom_frac 0.2673663800865000 0.0837268306590000 0.0856696202840000 O
atom_frac 0.5173663800865000 0.0837268306590000 0.0856696202840000 O
atom_frac 0.7673663800865000 0.0837268306590000 0.0856696202840000 O
atom_frac 0.0173663800865000 0.3337268306590000 0.0856696202840000 O
atom_frac 0.2673663800865000 0.3337268306590000 0.0856696202840000 O
atom_frac 0.5173663800865000 0.3337268306590000 0.0856696202840000 O
atom_frac 0.7673663800865000 0.3337268306590000 0.0856696202840000 O
atom_frac 0.0173663800865000 0.5837268306590000 0.0856696202840000 O
atom_frac 0.2673663800865000 0.5837268306590000 0.0856696202840000 O
atom_frac 0.5173663800865000 0.5837268306590000 0.0856696202840000 O
atom_frac 0.7673663800865000 0.5837268306590000 0.0856696202840000 O
atom_frac 0.0173663800865000 0.8337268306590000 0.0856696202840000 O
atom_frac 0.2673663800865000 0.8337268306590000 0.0856696202840000 O
atom_frac 0.5173663800865000 0.8337268306590000 0.0856696202840000 O
atom_frac 0.7673663800865000 0.8337268306590000 0.0856696202840000 O
atom_frac 0.0173663800865000 0.0837268306590000 0.3356696202840000 O
atom_frac 0.2673663800865000 0.0837268306590000 0.3356696202840000 O
atom_frac 0.5173663800865000 0.0837268306590000 0.3356696202840000 O
atom_frac 0.7673663800865000 0.0837268306590000 0.3356696202840000 O
atom_frac 0.0173663800865000 0.3337268306590000 0.3356696202840000 O
atom_frac 0.2673663800865000 0.3337268306590000 0.3356696202840000 O
atom_frac 0.5173663800865000 0.3337268306590000 0.3356696202840000 O
atom_frac 0.7673663800865000 0.3337268306590000 0.3356696202840000 O
atom_frac 0.0173663800865000 0.5837268306590000 0.3356696202840000 O
atom_frac 0.2673663800865000 0.5837268306590000 0.3356696202840000 O
atom_frac 0.5173663800865000 0.5837268306590000 0.3356696202840000 O
atom_frac 0.7673663800865000 0.5837268306590000 0.3356696202840000 O
atom_frac 0.0173663800865000 0.8337268306590000 0.3356696202840000 O
atom_frac 0.2673663800865000 0.8337268306590000 0.3356696202840000 O
atom_frac 0.5173663800865000 0.8337268306590000 0.3356696202840000 O
atom_frac 0.7673663800865000 0.8337268306590000 0.3356696202840000 O
atom_frac 0.0173663800865000 0.0837268306590000 0.5856696202840002 O
atom_frac 0.2673663800865000 0.0837268306590000 0.5856696202840002 O
atom_frac 0.5173663800865000 0.0837268306590000 0.5856696202840002 O
atom_frac 0.7673663800865000 0.0837268306590000 0.5856696202840002 O
atom_frac 0.0173663800865000 0.3337268306590000 0.5856696202840002 O
atom_frac 0.2673663800865000 0.3337268306590000 0.5856696202840002 O
atom_frac 0.5173663800865000 0.3337268306590000 0.5856696202840002 O
atom_frac 0.7673663800865000 0.3337268306590000 0.5856696202840002 O
atom_frac 0.0173663800865000 0.5837268306590000 0.5856696202840002 O
atom_frac 0.2673663800865000 0.5837268306590000 0.5856696202840002 O
atom_frac 0.5173663800865000 0.5837268306590000 0.5856696202840002 O
atom_frac 0.7673663800865000 0.5837268306590000 0.5856696202840002 O
atom_frac 0.0173663800865000 0.8337268306590000 0.5856696202840002 O
atom_frac 0.2673663800865000 0.8337268306590000 0.5856696202840002 O
atom_frac 0.5173663800865000 0.8337268306590000 0.5856696202840002 O
atom_frac 0.7673663800865000 0.8337268306590000 0.5856696202840002 O
atom_frac 0.0173663800865000 0.0837268306590000 0.8356696202840002 O
atom_frac 0.2673663800865000 0.0837268306590000 0.8356696202840002 O
atom_frac 0.5173663800865000 0.0837268306590000 0.8356696202840002 O
atom_frac 0.7673663800865000 0.0837268306590000 0.8356696202840002 O
atom_frac 0.0173663800865000 0.3337268306590000 0.8356696202840002 O
atom_frac 0.2673663800865000 0.3337268306590000 0.8356696202840002 O
atom_frac 0.5173663800865000 0.3337268306590000 0.8356696202840002 O
atom_frac 0.7673663800865000 0.3337268306590000 0.8356696202840002 O
atom_frac 0.0173663800865000 0.5837268306590000 0.8356696202840002 O
atom_frac 0.2673663800865000 0.5837268306590000 0.8356696202840002 O
atom_frac 0.5173663800865000 0.5837268306590000 0.8356696202840002 O
atom_frac 0.7673663800865000 0.5837268306590000 0.8356696202840002 O
atom_frac 0.0173663800865000 0.8337268306590000 0.8356696202840002 O
atom_frac 0.2673663800865000 0.8337268306590000 0.8356696202840002 O
atom_frac 0.5173663800865000 0.8337268306590000 0.8356696202840002 O
atom_frac 0.7673663800865000 0.8337268306590000 0.8356696202840002 O
atom_frac 0.2326336056635000 0.1662731693410000 0.1643303832160000 O
atom_frac 0.4826336056634999 0.1662731693410000 0.1643303832160000 O
atom_frac 0.7326336056635000 0.1662731693410000 0.1643303832160000 O
atom_frac 0.9826336056635000 0.1662731693410000 0.1643303832160000 O
atom_frac 0.2326336056635000 0.4162731693410001 0.1643303832160000 O
atom_frac 0.4826336056634999 0.4162731693410001 0.1643303832160000 O
atom_frac 0.7326336056635000 0.4162731693410001 0.1643303832160000 O
atom_frac 0.9826336056635000 0.4162731693410001 0.1643303832160000 O
atom_frac 0.2326336056635000 0.6662731693410001 0.1643303832160000 O
atom_frac 0.4826336056634999 0.6662731693410001 0.1643303832160000 O
atom_frac 0.7326336056635000 0.6662731693410001 0.1643303832160000 O
atom_frac 0.9826336056635000 0.6662731693410001 0.1643303832160000 O
atom_frac 0.2326336056635000 0.9162731693410000 0.1643303832160000 O
atom_frac 0.4826336056634999 0.9162731693410000 0.1643303832160000 O
atom_frac 0.7326336056635000 0.9162731693410000 0.1643303832160000 O
atom_frac 0.9826336056635000 0.9162731693410000 0.1643303832160000 O
atom_frac 0.2326336056635000 0.1662731693410000 0.4143303832160001 O
atom_frac 0.4826336056635001 0.1662731693410000 0.4143303832160001 O
atom_frac 0.7326336056635000 0.1662731693410000 0.4143303832160001 O
atom_frac 0.9826336056635000 0.1662731693410000 0.4143303832160001 O
atom_frac 0.2326336056635000 0.4162731693410001 0.4143303832160001 O
atom_frac 0.4826336056635001 0.4162731693410001 0.4143303832160001 O
atom_frac 0.7326336056635000 0.4162731693410001 0.4143303832160001 O
atom_frac 0.9826336056635000 0.4162731693410001 0.4143303832160001 O
atom_frac 0.2326336056635000 0.6662731693410001 0.4143303832160001 O
atom_frac 0.4826336056635001 0.6662731693410001 0.4143303832160001 O
atom_frac 0.7326336056635000 0.6662731693410001 0.4143303832160001 O
atom_frac 0.9826336056635000 0.6662731693410001 0.4143303832160001 O
atom_frac 0.2326336056635000 0.9162731693410000 0.4143303832160001 O
atom_frac 0.4826336056635001 0.9162731693410000 0.4143303832160001 O
atom_frac 0.7326336056635000 0.9162731693410000 0.4143303832160001 O
atom_frac 0.9826336056635000 0.9162731693410000 0.4143303832160001 O
atom_frac 0.2326336056635000 0.1662731693410000 0.6643303832160000 O
atom_frac 0.4826336056634999 0.1662731693410000 0.6643303832160000 O
atom_frac 0.7326336056635000 0.1662731693410000 0.6643303832160000 O
atom_frac 0.9826336056635000 0.1662731693410000 0.6643303832160000 O
atom_frac 0.2326336056635000 0.4162731693410001 0.6643303832160000 O
atom_frac 0.4826336056634999 0.4162731693410001 0.6643303832160000 O
atom_frac 0.7326336056635000 0.4162731693410001 0.6643303832160000 O
atom_frac 0.9826336056635000 0.4162731693410001 0.6643303832160000 O
atom_frac 0.2326336056635000 0.6662731693410001 0.6643303832160000 O
atom_frac 0.4826336056634999 0.6662731693410001 0.6643303832160000 O
atom_frac 0.7326336056635000 0.6662731693410001 0.6643303832160000 O
atom_frac 0.9826336056635000 0.6662731693410001 0.6643303832160000 O
atom_frac 0.2326336056635000 0.9162731693410000 0.6643303832160000 O
atom_frac 0.4826336056634999 0.9162731693410000 0.6643303832160000 O
atom_frac 0.7326336056635000 0.9162731693410000 0.6643303832160000 O
atom_frac 0.9826336056635000 0.9162731693410000 0.6643303832160000 O
atom_frac 0.2326336056635000 0.1662731693410000 0.9143303832160000 O
atom_frac 0.4826336056634999 0.1662731693410000 0.9143303832160000 O
atom_frac 0.7326336056635000 0.1662731693410000 0.9143303832160000 O
atom_frac 0.9826336056635000 0.1662731693410000 0.9143303832160000 O
atom_frac 0.2326336056635000 0.4162731693410001 0.9143303832160000 O
atom_frac 0.4826336056634999 0.4162731693410001 0.9143303832160000 O
atom_frac 0.7326336056635000 0.4162731693410001 0.9143303832160000 O
atom_frac 0.9826336056635000 0.4162731693410001 0.9143303832160000 O
atom_frac 0.2326336056635000 0.6662731693410001 0.9143303832160000 O
atom_frac 0.4826336056634999 0.6662731693410001 0.9143303832160000 O
atom_frac 0.7326336056635000 0.6662731693410001 0.9143303832160000 O
atom_frac 0.9826336056635000 0.6662731693410001 0.9143303832160000 O
atom_frac 0.2326336056635000 0.9162731693410000 0.9143303832160000 O
atom_frac 0.4826336056634999 0.9162731693410000 0.9143303832160000 O
atom_frac 0.7326336056635000 0.9162731693410000 0.9143303832160000 O
atom_frac 0.9826336056635000 0.9162731693410000 0.9143303832160000 O
atom_frac 0.2326336056634999 0.2087268306590001 0.0393303832160000 O
atom_frac 0.4826336056634999 0.2087268306590001 0.0393303832160000 O
atom_frac 0.7326336056634999 0.2087268306590001 0.0393303832160000 O
atom_frac 0.9826336056634999 0.2087268306590001 0.0393303832160000 O
atom_frac 0.2326336056634999 0.4587268306590001 0.0393303832160000 O
atom_frac 0.4826336056634999 0.4587268306590001 0.0393303832160000 O
atom_frac 0.7326336056634999 0.4587268306590001 0.0393303832160000 O
atom_frac 0.9826336056634999 0.4587268306590001 0.0393303832160000 O
atom_frac 0.2326336056634999 0.7087268306590000 0.0393303832160000 O
atom_frac 0.4826336056634999 0.7087268306590000 0.0393303832160000 O
atom_frac 0.7326336056634999 0.7087268306590000 0.0393303832160000 O
atom_frac 0.9826336056634999 0.7087268306590000 0.0393303832160000 O
atom_frac 0.2326336056634999 0.9587268306590000 0.0393303832160000 O
atom_frac 0.4826336056634999 0.9587268306590000 0.0393303832160000 O
atom_frac 0.7326336056634999 0.9587268306590000 0.0393303832160000 O
atom_frac 0.9826336056634999 0.9587268306590000 0.0393303832160000 O
atom_frac 0.2326336056634999 0.2087268306590001 0.2893303832160000 O
atom_frac 0.4826336056634999 0.2087268306590001 0.2893303832160000 O
atom_frac 0.7326336056634999 0.2087268306590001 0.2893303832160000 O
atom_frac 0.9826336056634999 0.2087268306590001 0.2893303832160000 O
atom_frac 0.2326336056634999 0.4587268306590001 0.2893303832160000 O
atom_frac 0.4826336056634999 0.4587268306590001 0.2893303832160000 O
atom_frac 0.7326336056634999 0.4587268306590001 0.2893303832160000 O
atom_frac 0.9826336056634999 0.4587268306590001 0.2893303832160000 O
atom_frac 0.2326336056634999 0.7087268306590000 0.2893303832160000 O
atom_frac 0.4826336056634999 0.7087268306590000 0.2893303832160000 O
atom_frac 0.7326336056634999 0.7087268306590000 0.2893303832160000 O
atom_frac 0.9826336056634999 0.7087268306590000 0.2893303832160000 O
atom_frac 0.2326336056634999 0.9587268306590000 0.2893303832160000 O
atom_frac 0.4826336056634999 0.9587268306590000 0.2893303832160000 O
atom_frac 0.7326336056634999 0.9587268306590000 0.2893303832160000 O
atom_frac 0.9826336056634999 0.9587268306590000 0.2893303832160000 O
atom_frac 0.2326336056634999 0.2087268306590001 0.5393303832160000 O
atom_frac 0.4826336056634999 0.2087268306590001 0.5393303832160000 O
atom_frac 0.7326336056634999 0.2087268306590001 0.5393303832160000 O
atom_frac 0.9826336056634999 0.2087268306590001 0.5393303832160000 O
atom_frac 0.2326336056634999 0.4587268306590001 0.5393303832160000 O