#=======================================================
# FHI-aims file: 450_geometry.in.primitive.supercell_768.0010K
# Created using the Atomic Simulation Environment (ASE)
# Tue Oct 18 13:10:33 2022

# Additional information:
#  created from MB distrubtion
#  T = 10.0 K
#  quantum:             False
#  deterministic:       False
#  plus_minus:          False
#  gauge_eigenvectors:  False
#  Random seed:         2118101569
#  Sample number:       1
#=======================================================
lattice_vector 20.6159999999999997 0.0000000000000000 0.0000000000000000 
lattice_vector 0.0000000000000000 20.8440000000000012 0.0000000000000000 
lattice_vector -3.4255548269092091 0.0000000000000000 21.0105810992423301 
atom 1.2462151334470397 0.2222957773818360 1.1030417585697936 Zr
    velocity 0.2351694521609479 0.3071044755429961 0.2261868295126789
atom 6.4002151334470403 0.2222957773818360 1.1030417585697936 Zr
    velocity 0.0928340057275033 -0.1091423112613772 0.1364259584403352
atom 11.5542151334470393 0.2222957773818360 1.1030417585697936 Zr
    velocity -0.0959157710345089 0.0226603759594086 0.5801868256188860
atom 16.7082151334470375 0.2222957773818360 1.1030417585697936 Zr
    velocity 0.1069353829948793 -0.5438300931094402 -0.7656325510815302
atom 1.2462151334470397 5.4332957773818364 1.1030417585697936 Zr
    velocity -0.4159264753851289 0.1290400884445987 0.2705689847040210
atom 6.4002151334470403 5.4332957773818364 1.1030417585697936 Zr
    velocity -0.4545724980766224 -0.3189962269288090 -0.0215717045293322
atom 11.5542151334470393 5.4332957773818364 1.1030417585697936 Zr
    velocity -0.1286253838600984 0.0654139469345496 -0.1162262584849457
atom 16.7082151334470375 5.4332957773818364 1.1030417585697936 Zr
    velocity 0.1006258291062300 -0.3722558154910955 0.0241904927637181
atom 1.2462151334470397 10.6442957773818403 1.1030417585697936 Zr
    velocity 0.0450934156513464 -0.3823839859684034 0.5071705235426401
atom 6.4002151334470403 10.6442957773818403 1.1030417585697936 Zr
    velocity -0.3060751402504274 -0.5034782036149040 -0.0832672705534120
atom 11.5542151334470393 10.6442957773818403 1.1030417585697936 Zr
    velocity -0.4371670323141250 0.6187093069981860 0.3075387877826180
atom 16.7082151334470375 10.6442957773818403 1.1030417585697936 Zr
    velocity 0.3375220342151753 -0.3755175029646118 0.4476882423175521
atom 1.2462151334470397 15.8552957773818406 1.1030417585697936 Zr
    velocity -0.2010240364039425 -0.1671663162369445 -0.1715984560667958
atom 6.4002151334470403 15.8552957773818406 1.1030417585697936 Zr
    velocity -0.2643035009426304 0.2413468279762558 -0.0419040866069630
atom 11.5542151334470393 15.8552957773818406 1.1030417585697936 Zr
    velocity 0.2125962743507928 0.3199841207868243 -0.4724306599013211
atom 16.7082151334470375 15.8552957773818406 1.1030417585697936 Zr
    velocity 0.3222893570705837 0.5892171910237025 -0.0735472070265428
atom 0.3898264267197374 0.2222957773818360 6.3556870333803763 Zr
    velocity 0.3798570786120942 0.3270812671459677 0.1152952857493806
atom 5.5438264267197379 0.2222957773818360 6.3556870333803763 Zr
    velocity -0.2980100139710196 0.2889568293279982 0.0783172063796796
atom 10.6978264267197360 0.2222957773818360 6.3556870333803763 Zr
    velocity 0.2076474272703436 -0.1373691212760796 0.0958791218160553
atom 15.8518264267197342 0.2222957773818360 6.3556870333803763 Zr
    velocity 0.1280118167162229 -0.0352977629574023 0.0007540803408058
atom 0.3898264267197374 5.4332957773818364 6.3556870333803763 Zr
    velocity 0.0706823426308566 -0.0832933124093279 -0.1603758263452167
atom 5.5438264267197379 5.4332957773818364 6.3556870333803763 Zr
    velocity 0.2612302045421501 0.0505127097809805 -0.5277766378112573
atom 10.6978264267197360 5.4332957773818364 6.3556870333803763 Zr
    velocity -0.0528665324300510 -0.3118374166796947 -0.1884424822702927
atom 15.8518264267197342 5.4332957773818364 6.3556870333803763 Zr
    velocity 0.1067974544535449 0.2246045750522335 -0.1013147023423387
atom 0.3898264267197374 10.6442957773818403 6.3556870333803763 Zr
    velocity 0.0423072018388955 0.1808793376928104 0.0107102612820057
atom 5.5438264267197379 10.6442957773818403 6.3556870333803763 Zr
    velocity -0.0970210414710696 -0.2836369080020030 0.2242367046070695
atom 10.6978264267197360 10.6442957773818403 6.3556870333803763 Zr
    velocity 0.1488512283729286 -0.1968200281950115 -0.1700404790813395
atom 15.8518264267197342 10.6442957773818403 6.3556870333803763 Zr
    velocity -0.0045339578601412 0.4032024389033904 -0.3321495874877815
atom 0.3898264267197374 15.8552957773818406 6.3556870333803763 Zr
    velocity -0.0191246214063277 0.0704838028744953 -0.3212321120965261
atom 5.5438264267197379 15.8552957773818406 6.3556870333803763 Zr
    velocity -0.0231788168850808 0.5797685494738045 0.2056368025740084
atom 10.6978264267197360 15.8552957773818406 6.3556870333803763 Zr
    velocity 0.3292309655724275 0.0796749333099970 0.1737179275601119
atom 15.8518264267197342 15.8552957773818406 6.3556870333803763 Zr
    velocity -0.0788385553915960 0.1976015100776584 0.2930071164956422
atom -0.4665622800075652 0.2222957773818360 11.6083323081909615 Zr
    velocity -0.3213791943970098 -0.3165973483346040 -0.4677855689372221
atom 4.6874377199924373 0.2222957773818360 11.6083323081909615 Zr
    velocity -0.2754391626039537 -0.0235071363708060 -0.2928729017742917
atom 9.8414377199924346 0.2222957773818360 11.6083323081909615 Zr
    velocity 0.2083817282757827 0.1307940653929971 0.2228340403386532
atom 14.9954377199924327 0.2222957773818360 11.6083323081909615 Zr
    velocity -0.5047260514977738 -0.2039208182633124 0.1129257763154183
atom -0.4665622800075652 5.4332957773818364 11.6083323081909615 Zr
    velocity 0.4599565181458019 0.8976370182928400 0.0892107041672392
atom 4.6874377199924373 5.4332957773818364 11.6083323081909615 Zr
    velocity -0.0750464427837324 0.0311563043288857 -0.3423123824467502
atom 9.8414377199924346 5.4332957773818364 11.6083323081909615 Zr
    velocity 0.3665474171549292 -0.0576285375962723 -0.2442297716093850
atom 14.9954377199924327 5.4332957773818364 11.6083323081909615 Zr
    velocity -0.4379176787312395 0.7191366407169357 -0.1584037234746437
atom -0.4665622800075652 10.6442957773818403 11.6083323081909615 Zr
    velocity 0.5262922890272916 -0.1934116441643128 0.3147378664130243
atom 4.6874377199924373 10.6442957773818403 11.6083323081909615 Zr
    velocity -0.0705729319227387 -0.5960677171628740 -0.1069839094962199
atom 9.8414377199924346 10.6442957773818403 11.6083323081909615 Zr
    velocity 0.0268770724028383 0.2530384738909534 -0.0708331395804569
atom 14.9954377199924327 10.6442957773818403 11.6083323081909615 Zr
    velocity -0.0045209428604964 -0.0443446434584552 -0.3232457178511294
atom -0.4665622800075652 15.8552957773818406 11.6083323081909615 Zr
    velocity 0.1209794716980182 0.3559233121470242 0.2891962078301913
atom 4.6874377199924373 15.8552957773818406 11.6083323081909615 Zr
    velocity 0.2752807248077360 -0.1700414720601012 -0.3166178513898671
atom 9.8414377199924346 15.8552957773818406 11.6083323081909615 Zr
    velocity -0.0072582960413125 -0.2735362551589115 -0.0626154776215170
atom 14.9954377199924327 15.8552957773818406 11.6083323081909615 Zr
    velocity 0.0665077561891909 -0.5149497370832805 0.1556966279036379
atom -1.3229509867348674 0.2222957773818360 16.8609775830015423 Zr
    velocity 0.1063798607213252 0.1030782630594486 -0.4358166490409203
atom 3.8310490132651345 0.2222957773818360 16.8609775830015423 Zr
    velocity -0.3210575177586634 0.0454273985416007 -0.2781622989457622
atom 8.9850490132651331 0.2222957773818360 16.8609775830015423 Zr
    velocity -0.6197551087664803 -0.0887466500289909 0.0361654429605461
atom 14.1390490132651294 0.2222957773818360 16.8609775830015423 Zr
    velocity 0.1096629666910078 -0.0435109218966161 0.5430096196446386
atom -1.3229509867348674 5.4332957773818364 16.8609775830015423 Zr
    velocity 0.3940893056505700 -0.0901356807590765 -0.4716795161388580
atom 3.8310490132651345 5.4332957773818364 16.8609775830015423 Zr
    velocity -0.0067645068865128 -0.5664024461986442 0.4044678537685163
atom 8.9850490132651331 5.4332957773818364 16.8609775830015423 Zr
    velocity 0.0880370643853355 0.7047479085117933 -0.1518433682642144
atom 14.1390490132651294 5.4332957773818364 16.8609775830015423 Zr
    velocity 0.3968654519546197 0.0063123550131645 -0.7164356840463616
atom -1.3229509867348674 10.6442957773818403 16.8609775830015423 Zr
    velocity 0.2205508518407913 0.0641705612801193 -0.0334846941092545
atom 3.8310490132651345 10.6442957773818403 16.8609775830015423 Zr
    velocity 0.1444316193586039 0.1841586821014991 -0.2472644268604540
atom 8.9850490132651331 10.6442957773818403 16.8609775830015423 Zr
    velocity 0.1105299779413159 0.0954273569038067 0.4389066242686863
atom 14.1390490132651294 10.6442957773818403 16.8609775830015423 Zr
    velocity 0.2145207538750501 -0.3754613272979568 -0.0592519637723446
atom -1.3229509867348674 15.8552957773818406 16.8609775830015423 Zr
    velocity 0.2947012325668190 0.1781748407589280 -0.6376596450433916
atom 3.8310490132651345 15.8552957773818406 16.8609775830015423 Zr
    velocity 0.4168548981300647 0.1916547223842725 -0.6752862171796947
atom 8.9850490132651331 15.8552957773818406 16.8609775830015423 Zr
    velocity 0.1744919620932700 -0.1423225425327077 -0.2274624669757770
atom 14.1390490132651294 15.8552957773818406 16.8609775830015423 Zr
    velocity -0.4728162128033597 -0.1832546221367867 0.2395967498070007
atom 3.0513958540582138 4.9887042226181668 4.1496035897778230 Zr
    velocity -0.0672492769481200 -0.1651036097853600 0.0613106416755157
atom 8.2053958540582173 4.9887042226181668 4.1496035897778230 Zr
    velocity -0.3975958327117415 0.3057460755653132 -0.2820480420992706
atom 13.3593958540582154 4.9887042226181668 4.1496035897778230 Zr
    velocity 0.4566949153249861 -0.0643536463398230 -0.5067681956900667
atom 18.5133958540582171 4.9887042226181668 4.1496035897778230 Zr
    velocity 0.2476376168575848 0.4674527604138490 0.3668084443066104
atom 3.0513958540582138 10.1997042226181662 4.1496035897778230 Zr
    velocity 0.3275669304017120 0.7188620435275191 -0.2065266243109602
atom 8.2053958540582173 10.1997042226181662 4.1496035897778230 Zr
    velocity -0.2014822235472195 0.2284680417871003 -0.0344848869206469
atom 13.3593958540582154 10.1997042226181662 4.1496035897778230 Zr
    velocity -0.3209429550221054 0.0474478795931162 -0.2877426025040393
atom 18.5133958540582171 10.1997042226181662 4.1496035897778230 Zr
    velocity -0.4049803150640800 0.1783016312603847 0.0410791562561081
atom 3.0513958540582138 15.4107042226181665 4.1496035897778230 Zr
    velocity -0.2910835898826596 -0.3178029571215188 -0.0970035389553806
atom 8.2053958540582173 15.4107042226181665 4.1496035897778230 Zr
    velocity -0.1338110287189409 0.2109465175629613 0.0155008007026778
atom 13.3593958540582154 15.4107042226181665 4.1496035897778230 Zr
    velocity 0.2142663517695590 0.3239393586745822 0.4715212146683406
atom 18.5133958540582171 15.4107042226181665 4.1496035897778230 Zr
    velocity -0.2296820536865303 0.1655919995803323 0.2444436013496513
atom 3.0513958540582138 20.6217042226181704 4.1496035897778230 Zr
    velocity 0.3892043866674317 -0.1928444934319156 -0.2370422911639060
atom 8.2053958540582173 20.6217042226181704 4.1496035897778230 Zr
    velocity -0.3172687780389070 -0.0180006124480007 0.3799026585549239
atom 13.3593958540582154 20.6217042226181704 4.1496035897778230 Zr
    velocity -0.2836595647073176 0.2785807837510370 -0.3968925744068139
atom 18.5133958540582171 20.6217042226181704 4.1496035897778230 Zr
    velocity -0.0376991621480804 -0.5975292078096125 -0.1714591357015078
atom 2.1950071473309136 4.9887042226181668 9.4022488645884081 Zr
    velocity -0.2313588796317778 -0.4093086384790209 0.2038706750764843
atom 7.3490071473309149 4.9887042226181668 9.4022488645884081 Zr
    velocity -0.0293832366434310 0.3081999592921023 0.5810747045458904
atom 12.5030071473309121 4.9887042226181668 9.4022488645884081 Zr
    velocity -0.2571560407473906 0.1271976825565641 0.2030539532813022
atom 17.6570071473309156 4.9887042226181668 9.4022488645884081 Zr
    velocity 0.1302203660665334 -0.1666084120334758 0.2688468331395678
atom 2.1950071473309136 10.1997042226181662 9.4022488645884081 Zr
    velocity 0.1155694243695048 -0.0136025397284542 0.4711115445330676
atom 7.3490071473309149 10.1997042226181662 9.4022488645884081 Zr
    velocity -0.3090690269657526 0.1802335224264656 0.1507941495915891
atom 12.5030071473309121 10.1997042226181662 9.4022488645884081 Zr
    velocity -0.0502381618562768 0.0234743835476058 -0.4341437930550763
atom 17.6570071473309156 10.1997042226181662 9.4022488645884081 Zr
    velocity 0.3781341303228369 -0.4709720172283167 -0.2790197279750601
atom 2.1950071473309136 15.4107042226181665 9.4022488645884081 Zr
    velocity -0.3403701077681224 -0.2226803227456988 -0.1032818226668686
atom 7.3490071473309149 15.4107042226181665 9.4022488645884081 Zr
    velocity 0.4827871247346731 -0.4026759379122652 -0.0021080567245313
atom 12.5030071473309121 15.4107042226181665 9.4022488645884081 Zr
    velocity 0.1372691230436300 0.0788514792019380 0.2973514130790414
atom 17.6570071473309156 15.4107042226181665 9.4022488645884081 Zr
    velocity 0.2888843102683726 -0.3095048887732701 -0.1226380668030704
atom 2.1950071473309136 20.6217042226181704 9.4022488645884081 Zr
    velocity -0.1262191293850138 -0.4388989535998026 -0.1846021304853301
atom 7.3490071473309149 20.6217042226181704 9.4022488645884081 Zr
    velocity 0.4571100147945300 0.1428744517253663 0.2947144016340321
atom 12.5030071473309121 20.6217042226181704 9.4022488645884081 Zr
    velocity 0.1190836087299884 0.0585589532316286 -0.3722531534029103
atom 17.6570071473309156 20.6217042226181704 9.4022488645884081 Zr
    velocity 0.1501269591400452 0.3149732067535805 -0.2958763550586627
atom 1.3386184406036090 4.9887042226181668 14.6548941393989889 Zr
    velocity -0.0049078003328507 -0.3239425292519021 0.6162879262394971
atom 6.4926184406036125 4.9887042226181668 14.6548941393989889 Zr
    velocity -0.0429454433855408 -0.2438115639484032 0.1258930061504123
atom 11.6466184406036106 4.9887042226181668 14.6548941393989889 Zr
    velocity 0.2401630557872009 -0.1389621337728338 -0.1046605685698459
atom 16.8006184406036070 4.9887042226181668 14.6548941393989889 Zr
    velocity -0.2983332680849674 0.2590285147938293 0.4661328305531706
atom 1.3386184406036090 10.1997042226181662 14.6548941393989889 Zr
    velocity 0.5098311866711988 -0.3003866575627666 0.1397246276248358
atom 6.4926184406036125 10.1997042226181662 14.6548941393989889 Zr
    velocity -0.7544048550868430 -0.3171423373289542 0.1661590291489153
atom 11.6466184406036106 10.1997042226181662 14.6548941393989889 Zr
    velocity -0.0619437160563090 0.3694940484227742 -0.3885990951048003
atom 16.8006184406036070 10.1997042226181662 14.6548941393989889 Zr
    velocity 0.1408330778727918 0.4303323538444646 0.3541289642219803
atom 1.3386184406036090 15.4107042226181665 14.6548941393989889 Zr
    velocity 0.4386826138769878 0.2733247051243526 -0.0549868994394294
atom 6.4926184406036125 15.4107042226181665 14.6548941393989889 Zr
    velocity -0.1507139268861952 0.1077313617420579 0.0958836447355189
atom 11.6466184406036106 15.4107042226181665 14.6548941393989889 Zr
    velocity -0.3510155410608667 -0.2911910037722956 -0.0187701192876463
atom 16.8006184406036070 15.4107042226181665 14.6548941393989889 Zr
    velocity -0.5012126173602721 0.0460656892504305 -0.3472600214289877
atom 1.3386184406036090 20.6217042226181704 14.6548941393989889 Zr
    velocity -0.3100537872165595 0.0783604029414031 -0.0784437068769879
atom 6.4926184406036125 20.6217042226181704 14.6548941393989889 Zr
    velocity 0.2654066931541476 -0.3823084878788945 -0.7810484440773349
atom 11.6466184406036106 20.6217042226181704 14.6548941393989889 Zr
    velocity 0.0861377478860815 -0.4684973436608971 -0.0543697999857168
atom 16.8006184406036070 20.6217042226181704 14.6548941393989889 Zr
    velocity 0.6048889123245321 -0.2037097774119982 0.0927578720283553
atom 0.4822297338763066 4.9887042226181668 19.9075394142095696 Zr
    velocity -0.3699327661082859 -0.2511797194385030 0.5702624166733949
atom 5.6362297338763101 4.9887042226181668 19.9075394142095696 Zr
    velocity 0.2164265511615035 0.0680207771180214 0.0641103447467834
atom 10.7902297338763109 4.9887042226181668 19.9075394142095696 Zr
    velocity -0.1592321216424032 0.1902680912265043 0.0515810929969120
atom 15.9442297338763108 4.9887042226181668 19.9075394142095696 Zr
    velocity 0.1362478536221177 -0.0136866509733727 0.1807841301762756
atom 0.4822297338763066 10.1997042226181662 19.9075394142095696 Zr
    velocity -0.3007672348225556 -0.1194441024492034 0.2110222888727774
atom 5.6362297338763101 10.1997042226181662 19.9075394142095696 Zr
    velocity -0.0857739555296038 0.1646504457406591 -0.0387945514775354
atom 10.7902297338763109 10.1997042226181662 19.9075394142095696 Zr
    velocity 0.2433120686363349 0.2450129922072696 -0.0396170108290955
atom 15.9442297338763108 10.1997042226181662 19.9075394142095696 Zr
    velocity 0.1131844416476113 -0.0296091129383108 0.3375754850587209
atom 0.4822297338763066 15.4107042226181665 19.9075394142095696 Zr
    velocity 0.1108238081969418 -0.4563164264816623 -0.5484484238166224
atom 5.6362297338763101 15.4107042226181665 19.9075394142095696 Zr
    velocity 0.4643265723954949 -0.3639465820275739 -0.1383862194900822
atom 10.7902297338763109 15.4107042226181665 19.9075394142095696 Zr
    velocity -0.0437984275399608 -0.0736225187433500 -0.0885993623708646
atom 15.9442297338763108 15.4107042226181665 19.9075394142095696 Zr
    velocity -0.2425151563587469 0.2031153883871501 0.6953776961705035
atom 0.4822297338763066 20.6217042226181704 19.9075394142095696 Zr
    velocity -0.4457651960343160 0.0741889076854077 -0.5323915980222019
atom 5.6362297338763101 20.6217042226181704 19.9075394142095696 Zr
    velocity 0.4572862620992348 -0.3357163574397689 0.4597278015459466
atom 10.7902297338763109 20.6217042226181704 19.9075394142095696 Zr
    velocity 0.0268558912667134 -0.1490174323658103 0.2292327172371125
atom 15.9442297338763108 20.6217042226181704 19.9075394142095696 Zr
    velocity -0.2688133005205099 0.4683424479832481 0.2687166883431626
atom 3.4795902074218672 2.8277957773818385 1.5232809523725315 Zr
    velocity -0.3369347089751059 0.1708357620052522 -0.0919640704268749
atom 8.6335902074218680 2.8277957773818385 1.5232809523725315 Zr
    velocity -0.4903883665688344 -0.0877140768103255 0.5189278616955504
atom 13.7875902074218661 2.8277957773818385 1.5232809523725315 Zr
    velocity 0.2224926103621877 0.2605716474510994 0.6465068254645544
atom 18.9415902074218678 2.8277957773818385 1.5232809523725315 Zr
    velocity -0.1269553159212846 0.0466112307205981 -0.4451663099633333
atom 3.4795902074218672 8.0387957773818393 1.5232809523725315 Zr
    velocity -0.5268473424671740 -0.2782669541830475 0.1674212757282742
atom 8.6335902074218680 8.0387957773818393 1.5232809523725315 Zr
    velocity 0.1746552762099572 -0.5041372966630985 -0.0400786445633785
atom 13.7875902074218661 8.0387957773818393 1.5232809523725315 Zr
    velocity -0.5865518564704196 0.1165248108418821 -0.3359147963423347
atom 18.9415902074218678 8.0387957773818393 1.5232809523725315 Zr
    velocity 0.5898907969012510 -0.1103875294792762 -0.3082706439921399
atom 3.4795902074218672 13.2497957773818378 1.5232809523725315 Zr
    velocity -0.2085473609800000 0.3713986523561988 -0.0318285907665021
atom 8.6335902074218680 13.2497957773818378 1.5232809523725315 Zr
    velocity 0.3360541066882226 -0.0543084353422694 -0.3056814436971332
atom 13.7875902074218661 13.2497957773818378 1.5232809523725315 Zr
    velocity -0.4905168915983193 0.3018400522716047 -0.6550163526943480
atom 18.9415902074218678 13.2497957773818378 1.5232809523725315 Zr
    velocity -0.1466133743572584 0.6330053130004093 -0.1138017607378392
atom 3.4795902074218672 18.4607957773818399 1.5232809523725315 Zr
    velocity 0.1716155217242198 -0.1747759078597503 0.1621903381385038
atom 8.6335902074218680 18.4607957773818399 1.5232809523725315 Zr
    velocity 0.2081349570963135 0.0537473446422423 0.5886004924236241
atom 13.7875902074218661 18.4607957773818399 1.5232809523725315 Zr
    velocity -0.6083796665553847 -0.4047875738736313 0.4591644145141933
atom 18.9415902074218678 18.4607957773818399 1.5232809523725315 Zr
    velocity 0.6962433812185594 -0.1307662443758255 -0.1772566962519186
atom 2.6232015006945648 2.8277957773818385 6.7759262271831160 Zr
    velocity 0.3534323082202390 0.0499659830583642 0.2535681739783722
atom 7.7772015006945656 2.8277957773818385 6.7759262271831160 Zr
    velocity -0.3195391774972015 -0.0060077866844045 0.0258041955593885
atom 12.9312015006945646 2.8277957773818385 6.7759262271831160 Zr
    velocity 0.3818283982221229 -0.1947524287210577 -0.1657796890203878
atom 18.0852015006945663 2.8277957773818385 6.7759262271831160 Zr
    velocity 0.2248977291695630 -0.0047049458052663 -0.3347492296190105
atom 2.6232015006945648 8.0387957773818393 6.7759262271831160 Zr
    velocity -0.4792414634265612 -0.0631156408648016 0.2175879859189810
atom 7.7772015006945656 8.0387957773818393 6.7759262271831160 Zr
    velocity 0.0410779600891732 -0.0411170528741058 0.3729474541485032
atom 12.9312015006945646 8.0387957773818393 6.7759262271831160 Zr
    velocity -0.1587384518215137 0.3953507862432057 0.3563872198756693
atom 18.0852015006945663 8.0387957773818393 6.7759262271831160 Zr
    velocity 0.3241833385145235 -0.3332516208411044 -0.1586386114276278
atom 2.6232015006945648 13.2497957773818378 6.7759262271831160 Zr
    velocity -0.0376261026493426 -0.2902898024439243 -0.1608733090368148
atom 7.7772015006945656 13.2497957773818378 6.7759262271831160 Zr
    velocity 0.1815065102361733 0.0752995083816534 0.4180918984816354
atom 12.9312015006945646 13.2497957773818378 6.7759262271831160 Zr
    velocity 0.2556393467693722 -0.2418639190367607 -0.0185441207009512
atom 18.0852015006945663 13.2497957773818378 6.7759262271831160 Zr
    velocity -0.0437017116591473 0.0734536837018981 0.0981901867761127
atom 2.6232015006945648 18.4607957773818399 6.7759262271831160 Zr
    velocity 0.1648717995763007 0.6675281408020481 0.0495568607119261
atom 7.7772015006945656 18.4607957773818399 6.7759262271831160 Zr
    velocity 0.0562923056831990 -0.4865369163991083 0.3293205211778287
atom 12.9312015006945646 18.4607957773818399 6.7759262271831160 Zr
    velocity 0.0747018576550776 0.3471729595280792 0.0910678515226114
atom 18.0852015006945663 18.4607957773818399 6.7759262271831160 Zr
    velocity -0.3190425963468257 0.1884163517992951 0.1687644059992506
atom 1.7668127939672627 2.8277957773818385 12.0285715019936976 Zr
    velocity -0.0554645481316622 0.1253266536944705 0.5348167212714644
atom 6.9208127939672632 2.8277957773818385 12.0285715019936976 Zr
    velocity -0.0375727837180218 -0.1410497778900318 0.5636164077096578
atom 12.0748127939672614 2.8277957773818385 12.0285715019936976 Zr
    velocity 0.0075255030432860 0.1533471090312402 -0.1380873454607994
atom 17.2288127939672648 2.8277957773818385 12.0285715019936976 Zr
    velocity -0.2301089060029592 0.3733137166474376 0.0094477865923460
atom 1.7668127939672627 8.0387957773818393 12.0285715019936976 Zr
    velocity 0.3994597459426475 -0.1475788960266295 0.5697751061555256
atom 6.9208127939672632 8.0387957773818393 12.0285715019936976 Zr
    velocity -0.4183386698736044 0.0584012140780734 -0.1868903005642015
atom 12.0748127939672614 8.0387957773818393 12.0285715019936976 Zr
    velocity 0.0429314891063845 -0.0978714829947441 0.0927692625824816
atom 17.2288127939672648 8.0387957773818393 12.0285715019936976 Zr
    velocity -0.0599659188902222 -0.8294588108920246 0.6462410870519296
atom 1.7668127939672627 13.2497957773818378 12.0285715019936976 Zr
    velocity -0.0585023744285462 -0.1757655416455692 -0.2234826317836252
atom 6.9208127939672632 13.2497957773818378 12.0285715019936976 Zr
    velocity 0.2183485232176462 -0.1412989855890090 -0.1613374746466396
atom 12.0748127939672614 13.2497957773818378 12.0285715019936976 Zr
    velocity -0.1605272738875818 -0.4296845856139624 -0.0844943447420991
atom 17.2288127939672648 13.2497957773818378 12.0285715019936976 Zr
    velocity -0.2322049635759543 -0.3831467564297367 -0.0084672399427562
atom 1.7668127939672627 18.4607957773818399 12.0285715019936976 Zr
    velocity 0.0497369199043030 0.1243659660575730 -0.0881244420867043
atom 6.9208127939672632 18.4607957773818399 12.0285715019936976 Zr
    velocity 0.2957283693116571 -0.2296636806197907 0.0590062644656614
atom 12.0748127939672614 18.4607957773818399 12.0285715019936976 Zr
    velocity 0.1740775229355586 -0.2292011668969436 -0.0010690134677013
atom 17.2288127939672648 18.4607957773818399 12.0285715019936976 Zr
    velocity -0.0867859789147092 0.1049017678960941 0.2867582586955632
atom 0.9104240872399605 2.8277957773818385 17.2812167768042784 Zr
    velocity -0.1691683788422999 0.4277017521159659 -0.4732726487645774
atom 6.0644240872399608 2.8277957773818385 17.2812167768042784 Zr
    velocity 0.0823386077118882 0.2332044964963757 -0.3481553482389563
atom 11.2184240872399599 2.8277957773818385 17.2812167768042784 Zr
    velocity 0.0749189539687482 -0.1494905919396579 0.2556739580367864
atom 16.3724240872399598 2.8277957773818385 17.2812167768042784 Zr
    velocity -0.1957658590955139 0.2707402949759667 -0.4797387286847579
atom 0.9104240872399605 8.0387957773818393 17.2812167768042784 Zr
    velocity 0.2003450777799661 0.3546351797539686 -0.3454147373849186
atom 6.0644240872399608 8.0387957773818393 17.2812167768042784 Zr
    velocity 0.1509044934764702 -0.0624478446243057 0.4277318802464227
atom 11.2184240872399599 8.0387957773818393 17.2812167768042784 Zr
    velocity 0.3349951730905169 0.1227741245280162 0.5110749300067907
atom 16.3724240872399598 8.0387957773818393 17.2812167768042784 Zr
    velocity 0.1175862552394872 0.3966659726299386 -0.0297275209381984
atom 0.9104240872399605 13.2497957773818378 17.2812167768042784 Zr
    velocity 0.3453882577116971 -0.5499320471895369 -0.0503535448766092
atom 6.0644240872399608 13.2497957773818378 17.2812167768042784 Zr
    velocity 0.2536731249805804 0.2784912768834472 -0.0559849357931302
atom 11.2184240872399599 13.2497957773818378 17.2812167768042784 Zr
    velocity 0.3274739412247611 0.5465857140118988 -0.4542667883266477
atom 16.3724240872399598 13.2497957773818378 17.2812167768042784 Zr
    velocity 0.2694816762965681 0.3057903907742203 0.5205311156447862
atom 0.9104240872399605 18.4607957773818399 17.2812167768042784 Zr
    velocity 0.6465511715305887 -0.3946852175775633 0.2780342350713008
atom 6.0644240872399608 18.4607957773818399 17.2812167768042784 Zr
    velocity -0.2025153876297231 -0.2317993932152145 -0.2934443461185968
atom 11.2184240872399599 18.4607957773818399 17.2812167768042784 Zr
    velocity 0.3183464841443170 -0.0684464862150331 -0.5237713873002113
atom 16.3724240872399598 18.4607957773818399 17.2812167768042784 Zr
    velocity -0.4752583065722206 0.5172734667686445 0.0856301599677800
atom 0.8180207800833886 2.3832042226181640 3.7293643959750846 Zr
    velocity -0.1227050619659471 -0.0261677562990177 0.2321001258297749
atom 5.9720207800833887 2.3832042226181640 3.7293643959750846 Zr
    velocity 0.0295882230874808 0.0272553957411300 0.1569068074538736
atom 11.1260207800833886 2.3832042226181640 3.7293643959750846 Zr
    velocity 0.0623905927784895 0.0436934248023453 0.1295090810989449
atom 16.2800207800833867 2.3832042226181640 3.7293643959750846 Zr
    velocity 0.1296246549446020 0.2630449986157539 0.2825415137259048
atom 0.8180207800833886 7.5942042226181643 3.7293643959750846 Zr
    velocity 0.6152519032976118 0.3211844064786564 0.1185486070325936
atom 5.9720207800833887 7.5942042226181643 3.7293643959750846 Zr
    velocity -0.4744921111250648 -0.2333916459732504 0.4033356063458278
atom 11.1260207800833886 7.5942042226181643 3.7293643959750846 Zr
    velocity -0.0649729726669660 0.4280148710188293 0.1849150062889386
atom 16.2800207800833867 7.5942042226181643 3.7293643959750846 Zr
    velocity 0.2980707572123185 -0.3002007957787921 0.4027093574457351
atom 0.8180207800833886 12.8052042226181637 3.7293643959750846 Zr
    velocity -0.2034044579836171 -0.5630160189886635 -0.2369487932853411
atom 5.9720207800833887 12.8052042226181637 3.7293643959750846 Zr
    velocity 0.0648057029797430 0.3330809172593691 0.3755867595955243
atom 11.1260207800833886 12.8052042226181637 3.7293643959750846 Zr
    velocity -0.3280019798433907 -0.1687331277247586 -0.4152689722588195
atom 16.2800207800833867 12.8052042226181637 3.7293643959750846 Zr
    velocity -0.1408928924945803 -0.3988325356041147 0.2681106528631987
atom 0.8180207800833886 18.0162042226181640 3.7293643959750846 Zr
    velocity -0.0510966676180346 0.1509820916117368 -0.2045315161132897
atom 5.9720207800833887 18.0162042226181640 3.7293643959750846 Zr
    velocity 0.0493053300482693 0.0047619465861633 -0.1967893822578904
atom 11.1260207800833886 18.0162042226181640 3.7293643959750846 Zr
    velocity -0.1002854169889919 0.7856544003101480 0.3226139530507272
atom 16.2800207800833867 18.0162042226181640 3.7293643959750846 Zr
    velocity 0.3181529887940626 0.2419915113923293 0.5217335082005626
atom -0.0383679266439139 2.3832042226181640 8.9820096707856685 Zr
    velocity -0.4619971495512735 0.1082406854520838 -0.0027943526624086
atom 5.1156320733560863 2.3832042226181640 8.9820096707856685 Zr
    velocity 0.2096321177758699 -0.0666492092736159 0.4348297767254108
atom 10.2696320733560853 2.3832042226181640 8.9820096707856685 Zr
    velocity 0.1329779658198656 0.5336871636212477 -0.0544107789291725
atom 15.4236320733560834 2.3832042226181640 8.9820096707856685 Zr
    velocity -0.0822734525037733 -0.0921683388444676 -0.4278969270447477