#=======================================================
# FHI-aims file: 450_geometry.in.primitive.supercell_8748.0010K
# Created using the Atomic Simulation Environment (ASE)
# Tue Oct 18 13:11:08 2022

# Additional information:
#  created from MB distrubtion
#  T = 10.0 K
#  quantum:             False
#  deterministic:       False
#  plus_minus:          False
#  gauge_eigenvectors:  False
#  Random seed:         1986892838
#  Sample number:       1
#=======================================================
lattice_vector 46.3859999999999957 0.0000000000000000 0.0000000000000000 
lattice_vector 0.0000000000000000 46.8990000000000009 0.0000000000000000 
lattice_vector -7.7074983605457206 0.0000000000000000 47.2738074732952427 
atom 1.2462151334470413 0.2222957773818344 1.1030417585697947 Zr
    velocity -0.0865221059348087 0.0500513423750497 -0.3599536719466153
atom 6.4002151334470403 0.2222957773818344 1.1030417585697947 Zr
    velocity -0.2085168996957220 0.2567377580924066 -0.3335095364469816
atom 11.5542151334470340 0.2222957773818344 1.1030417585697947 Zr
    velocity 0.1626530016485466 0.3213225865955481 -0.3734228778903164
atom 16.7082151334470339 0.2222957773818344 1.1030417585697947 Zr
    velocity 0.1211713240897386 0.2678365451740430 0.1844350925302352
atom 21.8622151334470338 0.2222957773818344 1.1030417585697947 Zr
    velocity -0.4315948240562839 -0.3582964369529393 -0.2380691374425983
atom 27.0162151334470337 0.2222957773818344 1.1030417585697947 Zr
    velocity 0.1802276328751614 0.3241146491630437 -0.3884673793653118
atom 32.1702151334470301 0.2222957773818344 1.1030417585697947 Zr
    velocity 0.0228921184576150 -0.8079288614845977 0.2100112842825267
atom 37.3242151334470265 0.2222957773818344 1.1030417585697947 Zr
    velocity 0.1102773438721724 -0.2386986567414332 0.0151978229825080
atom 42.4782151334470299 0.2222957773818344 1.1030417585697947 Zr
    velocity 0.2733518312254934 0.7284847823205721 0.3850981472096157
atom 1.2462151334470413 5.4332957773818338 1.1030417585697947 Zr
    velocity 0.3448593139920900 -0.1063139130727651 -0.8335010777250492
atom 6.4002151334470403 5.4332957773818338 1.1030417585697947 Zr
    velocity 0.1482369977994831 0.4862254459523882 -0.1850307326224841
atom 11.5542151334470340 5.4332957773818338 1.1030417585697947 Zr
    velocity 0.1854539200014274 -0.0591213978127116 -0.4133847166357783
atom 16.7082151334470339 5.4332957773818338 1.1030417585697947 Zr
    velocity -0.3357646549946119 -0.0447762752401153 0.0557976316305520
atom 21.8622151334470338 5.4332957773818338 1.1030417585697947 Zr
    velocity 0.1938362509982326 -0.4734881388169167 0.0021737635824974
atom 27.0162151334470337 5.4332957773818338 1.1030417585697947 Zr
    velocity -0.4330830191347538 0.0232243793133721 -0.1778771352446754
atom 32.1702151334470301 5.4332957773818338 1.1030417585697947 Zr
    velocity 0.0209331155745929 -0.0040177291128217 -0.0456822016111370
atom 37.3242151334470265 5.4332957773818338 1.1030417585697947 Zr
    velocity 0.1181122855946188 -0.4380348306319872 0.3586440900865052
atom 42.4782151334470299 5.4332957773818338 1.1030417585697947 Zr
    velocity 0.2252493597475664 0.1351722758527607 0.4402540284753014
atom 1.2462151334470413 10.6442957773818385 1.1030417585697947 Zr
    velocity 0.5187809213186494 0.0645153559192350 -0.2807056892176594
atom 6.4002151334470403 10.6442957773818385 1.1030417585697947 Zr
    velocity 0.1692809829214872 -0.1504283031828985 0.0654862498001313
atom 11.5542151334470340 10.6442957773818385 1.1030417585697947 Zr
    velocity 0.4365445165660798 0.1611520641190921 -0.4492693319169993
atom 16.7082151334470339 10.6442957773818385 1.1030417585697947 Zr
    velocity 0.2477022290814161 0.0374737977832942 0.3884729155003132
atom 21.8622151334470338 10.6442957773818385 1.1030417585697947 Zr
    velocity 0.3544176342201333 0.2612555170318150 0.2440979784613335
atom 27.0162151334470337 10.6442957773818385 1.1030417585697947 Zr
    velocity 0.1188313152904348 0.3138133593672361 -0.1892066630586224
atom 32.1702151334470301 10.6442957773818385 1.1030417585697947 Zr
    velocity -0.4555591880844447 0.0079624489035927 -0.2924273059651482
atom 37.3242151334470265 10.6442957773818385 1.1030417585697947 Zr
    velocity 0.0188631234572995 0.1776514276852439 -0.0691880443266668
atom 42.4782151334470299 10.6442957773818385 1.1030417585697947 Zr
    velocity -0.7507418875141026 -0.1472057459049270 0.4685030238354961
atom 1.2462151334470413 15.8552957773818370 1.1030417585697947 Zr
    velocity -0.4407328768928476 -0.1773491608659825 -0.0238767615526766
atom 6.4002151334470403 15.8552957773818370 1.1030417585697947 Zr
    velocity -0.6203936934133524 0.0085532787317327 -0.3415314164054138
atom 11.5542151334470340 15.8552957773818370 1.1030417585697947 Zr
    velocity -0.1298767139829056 0.2330288044311536 0.0519015799749935
atom 16.7082151334470339 15.8552957773818370 1.1030417585697947 Zr
    velocity -0.0138425814345345 0.0233858641763540 -0.1885035856331703
atom 21.8622151334470338 15.8552957773818370 1.1030417585697947 Zr
    velocity -0.0636964244514887 0.1899057420291445 0.8203224631913475
atom 27.0162151334470337 15.8552957773818370 1.1030417585697947 Zr
    velocity -0.0106682978476743 0.0019976601061070 -0.1131148600416131
atom 32.1702151334470301 15.8552957773818370 1.1030417585697947 Zr
    velocity -0.0522285583765088 -0.1435459067587274 0.0284196282551847
atom 37.3242151334470265 15.8552957773818370 1.1030417585697947 Zr
    velocity 0.0292278830001432 0.1394941534347238 0.5213933003055204
atom 42.4782151334470299 15.8552957773818370 1.1030417585697947 Zr
    velocity 0.3790381485426835 0.0127847704380660 0.2309430950340814
atom 1.2462151334470413 21.0662957773818356 1.1030417585697947 Zr
    velocity -0.0438468437763991 0.2400557425654011 -0.3888152981718241
atom 6.4002151334470403 21.0662957773818356 1.1030417585697947 Zr
    velocity 0.1680322670899625 -0.5071549014716359 0.2343333182791967
atom 11.5542151334470340 21.0662957773818356 1.1030417585697947 Zr
    velocity -0.7566903007018541 -0.2958086900278097 -0.2166593601195436
atom 16.7082151334470339 21.0662957773818356 1.1030417585697947 Zr
    velocity -0.2679266242913593 0.1447844384123670 -0.1385058211161285
atom 21.8622151334470338 21.0662957773818356 1.1030417585697947 Zr
    velocity -0.2246107796556104 -0.5822932351852048 0.2772485278181622
atom 27.0162151334470337 21.0662957773818356 1.1030417585697947 Zr
    velocity -0.1972742623232240 -0.1495629790128704 -0.1044920415519891
atom 32.1702151334470301 21.0662957773818356 1.1030417585697947 Zr
    velocity -0.0639771881237238 -0.5125330724706658 0.0971572190908362
atom 37.3242151334470265 21.0662957773818356 1.1030417585697947 Zr
    velocity -0.0491150263067819 -0.0883350430196534 0.2253584220175645
atom 42.4782151334470299 21.0662957773818356 1.1030417585697947 Zr
    velocity -0.2068513147186609 -0.1502407684192382 -0.0913717520418431
atom 1.2462151334470413 26.2772957773818376 1.1030417585697947 Zr
    velocity -0.0775708181555018 -0.0327296654682816 0.0688295496928846
atom 6.4002151334470403 26.2772957773818376 1.1030417585697947 Zr
    velocity -0.0598153937309448 0.2206598036890635 0.0885240973115421
atom 11.5542151334470340 26.2772957773818376 1.1030417585697947 Zr
    velocity -0.3606523105644933 -0.5034690942630601 0.3618533225395066
atom 16.7082151334470339 26.2772957773818376 1.1030417585697947 Zr
    velocity 0.0791610993129341 0.0196380376067466 -0.0614366359235958
atom 21.8622151334470338 26.2772957773818376 1.1030417585697947 Zr
    velocity 0.0901255636038926 -0.2423459799062387 0.2501038582719858
atom 27.0162151334470337 26.2772957773818376 1.1030417585697947 Zr
    velocity -0.0852144463351335 0.6685028677453970 0.0052851735236041
atom 32.1702151334470301 26.2772957773818376 1.1030417585697947 Zr
    velocity -0.6318738266541845 -0.0947165963262800 -0.0039944019582736
atom 37.3242151334470265 26.2772957773818376 1.1030417585697947 Zr
    velocity -0.5210624032341566 0.1907157599589588 -0.0540656405495470
atom 42.4782151334470299 26.2772957773818376 1.1030417585697947 Zr
    velocity -0.1927960494714526 -0.0855960101213678 0.0593342669738426
atom 1.2462151334470413 31.4882957773818326 1.1030417585697947 Zr
    velocity 0.1436783194202313 0.3712907475166923 -0.0969271531750723
atom 6.4002151334470403 31.4882957773818326 1.1030417585697947 Zr
    velocity 0.3113962315943615 -0.0315132956668501 -0.5918219373680561
atom 11.5542151334470340 31.4882957773818326 1.1030417585697947 Zr
    velocity 0.3871855889773865 0.1945350601009316 -0.4076256947936976
atom 16.7082151334470339 31.4882957773818326 1.1030417585697947 Zr
    velocity -0.1202203631311778 -0.4570953556967676 0.2892397283964173
atom 21.8622151334470338 31.4882957773818326 1.1030417585697947 Zr
    velocity -0.0275451916101924 -0.5447283232384006 -0.1101759175336728
atom 27.0162151334470337 31.4882957773818326 1.1030417585697947 Zr
    velocity -0.1502281070127111 0.1299892098297062 0.5110776940712267
atom 32.1702151334470301 31.4882957773818326 1.1030417585697947 Zr
    velocity -0.3582656532708239 0.1187139151135014 0.3961310855890497
atom 37.3242151334470265 31.4882957773818326 1.1030417585697947 Zr
    velocity -0.1915951869846020 -0.3939938506100808 0.2107509110562264
atom 42.4782151334470299 31.4882957773818326 1.1030417585697947 Zr
    velocity -0.2950184795201227 0.0818457185674610 1.0132343163115529
atom 1.2462151334470413 36.6992957773818347 1.1030417585697947 Zr
    velocity -0.0954553818443561 0.3610124615240574 -0.6179365547673353
atom 6.4002151334470403 36.6992957773818347 1.1030417585697947 Zr
    velocity -0.0544895023793547 0.1630623917359178 0.2346381546619579
atom 11.5542151334470340 36.6992957773818347 1.1030417585697947 Zr
    velocity -0.2593024842668894 -0.2796971218935544 -0.3824143098025971
atom 16.7082151334470339 36.6992957773818347 1.1030417585697947 Zr
    velocity 0.3449598350567942 -0.5396757474603908 0.4001548588183794
atom 21.8622151334470338 36.6992957773818347 1.1030417585697947 Zr
    velocity 0.3214978923305595 -0.2098056352649765 0.4041674985647250
atom 27.0162151334470337 36.6992957773818347 1.1030417585697947 Zr
    velocity 0.0956399531792585 0.1365120918400314 -0.4669984535001294
atom 32.1702151334470301 36.6992957773818347 1.1030417585697947 Zr
    velocity 0.4287558041697794 0.0248669264738558 0.5259029170195268
atom 37.3242151334470265 36.6992957773818347 1.1030417585697947 Zr
    velocity -0.0442105790740019 -0.1256908082049012 0.2421768944962975
atom 42.4782151334470299 36.6992957773818347 1.1030417585697947 Zr
    velocity -0.0295771203649206 -0.3018112957101032 -0.3501489270621747
atom 1.2462151334470413 41.9102957773818332 1.1030417585697947 Zr
    velocity -0.2258832089640357 0.7780902438767850 -0.3870418583902979
atom 6.4002151334470403 41.9102957773818332 1.1030417585697947 Zr
    velocity 0.1883078022503015 0.0886923606907351 1.0744294584026752
atom 11.5542151334470340 41.9102957773818332 1.1030417585697947 Zr
    velocity 0.2441937593596461 -0.2729181735356088 -0.0631505824059215
atom 16.7082151334470339 41.9102957773818332 1.1030417585697947 Zr
    velocity 0.2779042099407241 0.3404085127696501 0.1554502161520559
atom 21.8622151334470338 41.9102957773818332 1.1030417585697947 Zr
    velocity -0.2181708605761768 0.2315566811776808 0.1463439657775618
atom 27.0162151334470337 41.9102957773818332 1.1030417585697947 Zr
    velocity -0.3446177077981493 -0.2657879447865652 0.0460845176476058
atom 32.1702151334470301 41.9102957773818332 1.1030417585697947 Zr
    velocity 0.3576283878629302 -0.6073581549200668 0.4391547697260738
atom 37.3242151334470265 41.9102957773818332 1.1030417585697947 Zr
    velocity 0.4958810991986224 0.1769328602665130 0.2693674786103753
atom 42.4782151334470299 41.9102957773818332 1.1030417585697947 Zr
    velocity -0.1082759594009427 -0.0223642226215147 0.0810342618451734
atom 0.3898264267197392 0.2222957773818344 6.3556870333803763 Zr
    velocity -0.1325018106554035 0.3897002876929383 -0.2026167295976938
atom 5.5438264267197379 0.2222957773818344 6.3556870333803763 Zr
    velocity -0.5574060025803803 -0.1763395884216382 0.2541789287695035
atom 10.6978264267197307 0.2222957773818344 6.3556870333803763 Zr
    velocity -0.4266603771776298 0.0828549497879077 -0.1523004570257885
atom 15.8518264267197306 0.2222957773818344 6.3556870333803763 Zr
    velocity 0.3056871911738421 0.5343035512273655 0.2295333544164029
atom 21.0058264267197323 0.2222957773818344 6.3556870333803763 Zr
    velocity -0.0781139689837635 0.1352117960192684 0.2532779576023670
atom 26.1598264267197322 0.2222957773818344 6.3556870333803763 Zr
    velocity 0.4868001273995993 -0.0460514307425455 0.0730862415699310
atom 31.3138264267197322 0.2222957773818344 6.3556870333803763 Zr
    velocity 0.0221547244552201 0.3015894666361660 -0.5505882825621945
atom 36.4678264267197250 0.2222957773818344 6.3556870333803763 Zr
    velocity -0.2444120243031740 0.3567519712051735 -0.0948440152633455
atom 41.6218264267197284 0.2222957773818344 6.3556870333803763 Zr
    velocity 0.0086124523300322 -0.2225798624712639 -0.2825115945611864
atom 0.3898264267197392 5.4332957773818338 6.3556870333803763 Zr
    velocity 0.1479960335825992 -0.1605394114479216 0.5191446097865896
atom 5.5438264267197379 5.4332957773818338 6.3556870333803763 Zr
    velocity -0.0495043480202406 0.1397046934128726 0.1547481952926851
atom 10.6978264267197307 5.4332957773818338 6.3556870333803763 Zr
    velocity -0.3478875293145515 0.0923019037439335 0.0562407138794712
atom 15.8518264267197306 5.4332957773818338 6.3556870333803763 Zr
    velocity -0.1511472885565252 0.6229415183628592 -0.2023149627837256
atom 21.0058264267197323 5.4332957773818338 6.3556870333803763 Zr
    velocity -0.1727052175277301 0.5918934683636319 -0.4519274211972197
atom 26.1598264267197322 5.4332957773818338 6.3556870333803763 Zr
    velocity 0.0269722017835383 -0.0191504810044964 0.1661535295962868
atom 31.3138264267197322 5.4332957773818338 6.3556870333803763 Zr
    velocity 0.1224384738832419 0.2921308650653425 -0.2073511605397142
atom 36.4678264267197250 5.4332957773818338 6.3556870333803763 Zr
    velocity -0.1477230029048048 0.0042038960978642 0.6490864106935438
atom 41.6218264267197284 5.4332957773818338 6.3556870333803763 Zr
    velocity 0.3302334851842179 -0.3559273694512997 0.7245054862834656
atom 0.3898264267197392 10.6442957773818385 6.3556870333803763 Zr
    velocity 0.3224846599001610 -0.2987281820143310 0.6602324783424717
atom 5.5438264267197379 10.6442957773818385 6.3556870333803763 Zr
    velocity 0.2221512074289028 0.1112590892636538 0.9449922302184858
atom 10.6978264267197307 10.6442957773818385 6.3556870333803763 Zr
    velocity 0.2686849643141712 0.4954768950437100 -0.1116406745722753
atom 15.8518264267197306 10.6442957773818385 6.3556870333803763 Zr
    velocity -0.1935450314403400 0.2263463157021683 -0.2441380032200966
atom 21.0058264267197323 10.6442957773818385 6.3556870333803763 Zr
    velocity 0.4292151527817089 0.0233991653368006 0.1927405501407387
atom 26.1598264267197322 10.6442957773818385 6.3556870333803763 Zr
    velocity -0.2142261955878974 0.3907946314746294 -0.3112901392855946
atom 31.3138264267197322 10.6442957773818385 6.3556870333803763 Zr
    velocity -0.3511767922793325 -0.1416304059218745 0.1364034193546528
atom 36.4678264267197250 10.6442957773818385 6.3556870333803763 Zr
    velocity 0.0615362707064973 -0.2369840383776976 -0.0684534943361594
atom 41.6218264267197284 10.6442957773818385 6.3556870333803763 Zr
    velocity -0.3019669064396110 -0.0340806319605995 -0.2454060986503366
atom 0.3898264267197392 15.8552957773818370 6.3556870333803763 Zr
    velocity -0.0151408964025634 -0.1120147738774377 0.0752983773812416
atom 5.5438264267197379 15.8552957773818370 6.3556870333803763 Zr
    velocity 0.1141206349003564 0.1321241763427149 0.0204948753807856
atom 10.6978264267197307 15.8552957773818370 6.3556870333803763 Zr
    velocity 0.1783258009923537 0.2010418475507595 0.0760505590209699
atom 15.8518264267197306 15.8552957773818370 6.3556870333803763 Zr
    velocity -0.3470620689606692 -0.1612374543220798 -0.1477926704612908
atom 21.0058264267197323 15.8552957773818370 6.3556870333803763 Zr
    velocity -0.3469626680143654 -0.1828667922953036 -0.1747844529916359
atom 26.1598264267197322 15.8552957773818370 6.3556870333803763 Zr
    velocity -0.3586503205449558 0.1157789969550269 0.3312849408690174
atom 31.3138264267197322 15.8552957773818370 6.3556870333803763 Zr
    velocity -0.1376142822364431 0.1669750922520286 0.0929947365505230
atom 36.4678264267197250 15.8552957773818370 6.3556870333803763 Zr
    velocity -0.1157267100493817 0.0750422163966323 0.2278710076310907
atom 41.6218264267197284 15.8552957773818370 6.3556870333803763 Zr
    velocity -0.2045658986747242 0.0567563127407731 -0.5146453519675651
atom 0.3898264267197392 21.0662957773818356 6.3556870333803763 Zr
    velocity 0.1655988176843138 0.1505335817265742 0.3526895094913819
atom 5.5438264267197379 21.0662957773818356 6.3556870333803763 Zr
    velocity -0.3473403157291870 -0.1326171836640512 -0.2513337614725489
atom 10.6978264267197307 21.0662957773818356 6.3556870333803763 Zr
    velocity 0.4996950434833046 0.4448617919004924 0.1891684229476358
atom 15.8518264267197306 21.0662957773818356 6.3556870333803763 Zr
    velocity 0.1318594990570316 -0.1740197957406208 0.1831463287523511
atom 21.0058264267197323 21.0662957773818356 6.3556870333803763 Zr
    velocity 0.1083414277779350 -0.2251007479506078 -0.2199889564061858
atom 26.1598264267197322 21.0662957773818356 6.3556870333803763 Zr
    velocity -0.0313188017772651 0.0585056437528087 -0.1199362862907289
atom 31.3138264267197322 21.0662957773818356 6.3556870333803763 Zr
    velocity 0.4175574057295141 0.0689869079242831 0.2047435836434105
atom 36.4678264267197250 21.0662957773818356 6.3556870333803763 Zr
    velocity 0.1071573274838643 0.0589691419634468 0.0844297842307723
atom 41.6218264267197284 21.0662957773818356 6.3556870333803763 Zr
    velocity 0.0274254921294842 0.2835093010313127 0.0192633207075025
atom 0.3898264267197392 26.2772957773818376 6.3556870333803763 Zr
    velocity 0.1597957614796255 0.4456523243092042 0.2265904251462692
atom 5.5438264267197379 26.2772957773818376 6.3556870333803763 Zr
    velocity 0.0807442051806428 -0.1143680582429714 0.2188782347810748
atom 10.6978264267197307 26.2772957773818376 6.3556870333803763 Zr
    velocity 0.0480900149026923 -0.0656249052969922 -0.4055198224683972
atom 15.8518264267197306 26.2772957773818376 6.3556870333803763 Zr
    velocity -0.1217893955145980 0.1876738839823374 0.1588362412290292
atom 21.0058264267197323 26.2772957773818376 6.3556870333803763 Zr
    velocity 0.2009495271631342 0.0362653128116338 0.1506762815830426
atom 26.1598264267197322 26.2772957773818376 6.3556870333803763 Zr
    velocity -0.1367445475789165 0.1843900811987212 0.0783862217867487
atom 31.3138264267197322 26.2772957773818376 6.3556870333803763 Zr
    velocity -0.3229522378522280 -0.3322453676280723 -0.1436779351674193
atom 36.4678264267197250 26.2772957773818376 6.3556870333803763 Zr
    velocity -0.0397882990889880 -0.1625371760045084 0.2601359922398780
atom 41.6218264267197284 26.2772957773818376 6.3556870333803763 Zr
    velocity 0.4634608557277684 -0.1409450404138878 0.0792928903158773
atom 0.3898264267197392 31.4882957773818326 6.3556870333803763 Zr
    velocity -0.0636415173012452 -0.1303999477891392 -0.0800091453627134
atom 5.5438264267197379 31.4882957773818326 6.3556870333803763 Zr
    velocity 0.2596156411145812 0.2909214133464230 -0.6819856092317919
atom 10.6978264267197307 31.4882957773818326 6.3556870333803763 Zr
    velocity 0.0210397547916298 -0.1825180899799120 0.1649209583893297
atom 15.8518264267197306 31.4882957773818326 6.3556870333803763 Zr
    velocity -0.3511380778189297 0.1952412945758428 -0.0425892028883526
atom 21.0058264267197323 31.4882957773818326 6.3556870333803763 Zr
    velocity 0.6318132257577010 -0.0775426710503025 0.0684042297530304
atom 26.1598264267197322 31.4882957773818326 6.3556870333803763 Zr
    velocity -0.3768673438066468 0.0180329175001347 -0.1145740320013005
atom 31.3138264267197322 31.4882957773818326 6.3556870333803763 Zr
    velocity 0.5152668944798336 0.2789273158438288 -0.1146490916353699
atom 36.4678264267197250 31.4882957773818326 6.3556870333803763 Zr
    velocity -0.0458883049769985 0.1888356188171010 -0.4982141697470521
atom 41.6218264267197284 31.4882957773818326 6.3556870333803763 Zr
    velocity -0.0269039747210908 0.0544649258950647 0.0316430995038370
atom 0.3898264267197392 36.6992957773818347 6.3556870333803763 Zr
    velocity 0.2820315850141998 -0.4081042475137500 -0.2862260292818863
atom 5.5438264267197379 36.6992957773818347 6.3556870333803763 Zr
    velocity 0.0659153606730609 0.0048166278654779 -0.3520884496374321
atom 10.6978264267197307 36.6992957773818347 6.3556870333803763 Zr
    velocity 0.2178709550788700 0.0786679937039962 0.0084911174668973
atom 15.8518264267197306 36.6992957773818347 6.3556870333803763 Zr
    velocity -0.4787650509189990 0.4127342544996704 0.0192899658577903
atom 21.0058264267197323 36.6992957773818347 6.3556870333803763 Zr
    velocity -0.0090826303227036 0.3178008504828388 0.1433675563005239
atom 26.1598264267197322 36.6992957773818347 6.3556870333803763 Zr
    velocity -0.1171172426555149 0.1326015380185497 -0.1353034671938554
atom 31.3138264267197322 36.6992957773818347 6.3556870333803763 Zr
    velocity -0.3669186981137156 -0.0443049571250581 0.3528668853723945
atom 36.4678264267197250 36.6992957773818347 6.3556870333803763 Zr
    velocity -0.5642937538657216 0.5029151549080358 -0.0598715971660455
atom 41.6218264267197284 36.6992957773818347 6.3556870333803763 Zr
    velocity -0.4042837142384017 -0.0145358694022826 0.0316440866504035
atom 0.3898264267197392 41.9102957773818332 6.3556870333803763 Zr
    velocity -0.3439799034927220 -0.0438078896862954 0.2076918344057296
atom 5.5438264267197379 41.9102957773818332 6.3556870333803763 Zr
    velocity 0.6470085401279587 0.1090224858327717 0.3524106531170648
atom 10.6978264267197307 41.9102957773818332 6.3556870333803763 Zr
    velocity -0.2606952710272629 -0.0377777866537430 0.3873598286326014
atom 15.8518264267197306 41.9102957773818332 6.3556870333803763 Zr
    velocity 0.0743042824762278 0.0095638734390084 -0.5186358851204876
atom 21.0058264267197323 41.9102957773818332 6.3556870333803763 Zr
    velocity 0.4400535666883637 -0.4382927656374964 -0.1571958123663975
atom 26.1598264267197322 41.9102957773818332 6.3556870333803763 Zr
    velocity -0.2611891599396883 -0.2389051658622025 -0.4030209034801100
atom 31.3138264267197322 41.9102957773818332 6.3556870333803763 Zr
    velocity 0.5095632068627888 0.2634812234498889 -0.1121909118636367
atom 36.4678264267197250 41.9102957773818332 6.3556870333803763 Zr
    velocity -0.3068307700466486 -0.0878474165111543 -0.0840689845632301
atom 41.6218264267197284 41.9102957773818332 6.3556870333803763 Zr
    velocity -0.2994032170807805 0.0708507977232381 -0.0742675728526575
atom -0.4665622800075630 0.2222957773818344 11.6083323081909580 Zr
    velocity -0.0279730333597160 0.0085289701528532 -0.3618003908168964
atom 4.6874377199924355 0.2222957773818344 11.6083323081909580 Zr
    velocity 0.1323095805640994 -0.0247628777030059 -0.0403161667642333
atom 9.8414377199924292 0.2222957773818344 11.6083323081909580 Zr
    velocity 0.5926476990592593 -0.5148448697815338 0.2135522808291105
atom 14.9954377199924291 0.2222957773818344 11.6083323081909580 Zr
    velocity 0.0485193614203547 0.2100358667370056 0.3535433333302864
atom 20.1494377199924308 0.2222957773818344 11.6083323081909580 Zr
    velocity 0.1053273213564143 0.0649727041110107 -0.3804677545361593
atom 25.3034377199924307 0.2222957773818344 11.6083323081909580 Zr
    velocity 0.2483740292160534 0.0223228697119655 -0.3663769910218078
atom 30.4574377199924307 0.2222957773818344 11.6083323081909580 Zr
    velocity 0.4042057153195474 -0.4547710762743474 0.4742648641683936
atom 35.6114377199924235 0.2222957773818344 11.6083323081909580 Zr
    velocity 0.4323084542138286 0.0066115181656198 0.0517740173225853
atom 40.7654377199924269 0.2222957773818344 11.6083323081909580 Zr
    velocity -0.4282981030815423 0.0130530260800257 0.0980429268081471
atom -0.4665622800075630 5.4332957773818338 11.6083323081909580 Zr
    velocity -0.5604111895938270 -0.0925255091692680 0.1636090311821595
atom 4.6874377199924355 5.4332957773818338 11.6083323081909580 Zr
    velocity 0.3131368519689881 0.1713980985313287 -0.0141646465166128
atom 9.8414377199924292 5.4332957773818338 11.6083323081909580 Zr
    velocity 0.3861724720338732 0.2639173065004097 0.0657783834712034
atom 14.9954377199924291 5.4332957773818338 11.6083323081909580 Zr
    velocity -0.3841075649860392 0.3681021773023798 -0.2359484258922844
atom 20.1494377199924308 5.4332957773818338 11.6083323081909580 Zr
    velocity 0.1946993949338672 0.3658239030018108 -0.0897589538330326
atom 25.3034377199924307 5.4332957773818338 11.6083323081909580 Zr
    velocity -0.2820265247838344 -0.1176979122102962 -0.1043017313966917
atom 30.4574377199924307 5.4332957773818338 11.6083323081909580 Zr
    velocity 0.1521514200007850 -0.0777958457807934 -0.2727802635382101
atom 35.6114377199924235 5.4332957773818338 11.6083323081909580 Zr
    velocity -0.2050062448253119 0.3051118377686281 0.1106055821212340
atom 40.7654377199924269 5.4332957773818338 11.6083323081909580 Zr
    velocity -0.1278084727898549 0.2445816546760936 0.0633946025649889
atom -0.4665622800075630 10.6442957773818385 11.6083323081909580 Zr
    velocity 0.1538166243988753 -0.1368479004530208 0.1825736324791201
atom 4.6874377199924355 10.6442957773818385 11.6083323081909580 Zr
    velocity -0.0648801799380853 0.0353488997017465 0.0664869822427972
atom 9.8414377199924292 10.6442957773818385 11.6083323081909580 Zr
    velocity 0.0829142763058091 -0.4977420560322242 -0.5602599238682314
atom 14.9954377199924291 10.6442957773818385 11.6083323081909580 Zr
    velocity -0.2015281364389581 -0.1951098194966872 -0.3308605124363975
atom 20.1494377199924308 10.6442957773818385 11.6083323081909580 Zr
    velocity 0.1942403747315650 -0.1302383194512882 0.0568710333218054
atom 25.3034377199924307 10.6442957773818385 11.6083323081909580 Zr
    velocity -0.3393843333892704 0.1432456465063067 0.4440857233962514
atom 30.4574377199924307 10.6442957773818385 11.6083323081909580 Zr
    velocity -0.5528553241910280 0.2517559622415014 -0.2174972012409232
atom 35.6114377199924235 10.6442957773818385 11.6083323081909580 Zr
    velocity 0.4180058336228978 -0.2204330588455583 -0.1778404580297268
atom 40.7654377199924269 10.6442957773818385 11.6083323081909580 Zr
    velocity -0.0939428923637192 0.1380433499742985 0.5191115885532818
atom -0.4665622800075630 15.8552957773818370 11.6083323081909580 Zr
    velocity 0.2716618679528225 -0.3077051489446134 -0.2494782991653955
atom 4.6874377199924355 15.8552957773818370 11.6083323081909580 Zr
    velocity -0.0346459486455403 0.0178597715604733 -0.3595185761984712
atom 9.8414377199924292 15.8552957773818370 11.6083323081909580 Zr
    velocity 0.5929128663865850 0.2524723172348585 0.2675815205872646
atom 14.9954377199924291 15.8552957773818370 11.6083323081909580 Zr
    velocity 0.0430902989663399 -0.0306058649450818 -0.0282150905138115
atom 20.1494377199924308 15.8552957773818370 11.6083323081909580 Zr
    velocity -0.2088496269154098 -0.4706623696865037 0.6114973054017089
atom 25.3034377199924307 15.8552957773818370 11.6083323081909580 Zr
    velocity -0.7696109685491315 0.0747265318209513 0.2470272781457961
atom 30.4574377199924307 15.8552957773818370 11.6083323081909580 Zr
    velocity -0.1468865051303399 0.0143788675422289 0.2073806502649971
atom 35.6114377199924235 15.8552957773818370 11.6083323081909580 Zr
    velocity 0.0085979583950670 0.1109333306676502 -0.1238042948940168
atom 40.7654377199924269 15.8552957773818370 11.6083323081909580 Zr
    velocity 0.3540705945986228 0.3854454188555186 -0.1655865149284042
atom -0.4665622800075630 21.0662957773818356 11.6083323081909580 Zr
    velocity -0.2419775816498387 -0.3502193792231866 0.0355524338974891
atom 4.6874377199924355 21.0662957773818356 11.6083323081909580 Zr
    velocity -0.2888051526695053 -0.2900391373110659 0.2458708860437113
atom 9.8414377199924292 21.0662957773818356 11.6083323081909580 Zr
    velocity 0.4115276007157335 0.3403475073002472 -0.3188532006331291
atom 14.9954377199924291 21.0662957773818356 11.6083323081909580 Zr
    velocity -0.2309748660059540 0.0599486935085687 -0.5123564684204580
atom 20.1494377199924308 21.0662957773818356 11.6083323081909580 Zr
    velocity -0.3391962860505732 0.1870071807000513 0.1147028625737243
atom 25.3034377199924307 21.0662957773818356 11.6083323081909580 Zr
    velocity 0.3630560581607577 -0.0969693298665996 0.2042025793935825
atom 30.4574377199924307 21.0662957773818356 11.6083323081909580 Zr
    velocity 0.1646314843677856 0.4483045468825657 0.2282088417250445
atom 35.6114377199924235 21.0662957773818356 11.6083323081909580 Zr
    velocity -0.1250109981871571 0.0160109735331140 0.0999522169285391
atom 40.7654377199924269 21.0662957773818356 11.6083323081909580 Zr
    velocity -0.0325019193059917 -0.0267416325941104 -0.1365665935239339
atom -0.4665622800075630 26.2772957773818376 11.6083323081909580 Zr
    velocity -0.0840451043074823 -0.3678937624904658 0.3670938664132249
atom 4.6874377199924355 26.2772957773818376 11.6083323081909580 Zr
    velocity -0.0891197779958034 0.4222587487465579 -0.2170844066975143
atom 9.8414377199924292 26.2772957773818376 11.6083323081909580 Zr
    velocity 0.2467588175948156 -0.7467594227201276 0.3188024572651316
atom 14.9954377199924291 26.2772957773818376 11.6083323081909580 Zr
    velocity -0.0558718610087948 0.5726685130016629 -0.1478892826373475
atom 20.1494377199924308 26.2772957773818376 11.6083323081909580 Zr