#=======================================================
# FHI-aims file: 450_geometry.in.primitive.supercell_4116.0010K
# Created using the Atomic Simulation Environment (ASE)
# Tue Oct 18 13:10:48 2022

# Additional information:
#  created from MB distrubtion
#  T = 10.0 K
#  quantum:             False
#  deterministic:       False
#  plus_minus:          False
#  gauge_eigenvectors:  False
#  Random seed:         1829767088
#  Sample number:       1
#=======================================================
lattice_vector 36.0780000000000030 0.0000000000000000 0.0000000000000000 
lattice_vector 0.0000000000000000 36.4770000000000039 0.0000000000000000 
lattice_vector -5.9947209470911158 0.0000000000000000 36.7685169236740776 
atom 1.2462151334470410 0.2222957773818345 1.1030417585697951 Zr
    velocity -0.3416332307449902 -0.0935988701720365 -0.1593777075504983
atom 6.4002151334470394 0.2222957773818345 1.1030417585697951 Zr
    velocity 0.1603005077794161 -0.0440871213398049 -0.0304137610586293
atom 11.5542151334470375 0.2222957773818345 1.1030417585697951 Zr
    velocity 0.2024118955571831 0.3454457705772107 -0.1366878349313082
atom 16.7082151334470410 0.2222957773818345 1.1030417585697951 Zr
    velocity 0.1876311056553241 0.2318387071075612 -0.2849277980262814
atom 21.8622151334470374 0.2222957773818345 1.1030417585697951 Zr
    velocity -0.0150439609261004 -0.1826782890785810 0.2423196565081673
atom 27.0162151334470408 0.2222957773818345 1.1030417585697951 Zr
    velocity -0.0155222746074500 0.3629540621466735 -0.2201126870195640
atom 32.1702151334470372 0.2222957773818345 1.1030417585697951 Zr
    velocity 0.3738897758357731 0.1123371448250634 -0.4978727833337652
atom 1.2462151334470410 5.4332957773818364 1.1030417585697951 Zr
    velocity -0.2964786897071181 0.0612708090673368 0.0798583926317562
atom 6.4002151334470394 5.4332957773818364 1.1030417585697951 Zr
    velocity 0.0184519477696007 0.3870152312507489 -0.3836727135699772
atom 11.5542151334470375 5.4332957773818364 1.1030417585697951 Zr
    velocity 0.2789390339167723 0.5019202877008951 -0.2323566489159049
atom 16.7082151334470410 5.4332957773818364 1.1030417585697951 Zr
    velocity 0.3196162631267834 -0.2964678313610205 -0.0775140033607996
atom 21.8622151334470374 5.4332957773818364 1.1030417585697951 Zr
    velocity -0.0794044311991017 0.3172774959200775 0.0514557015660816
atom 27.0162151334470408 5.4332957773818364 1.1030417585697951 Zr
    velocity 0.1026894788764397 -0.0632737280304656 0.3844646662896428
atom 32.1702151334470372 5.4332957773818364 1.1030417585697951 Zr
    velocity 0.2342914831950441 -0.2809617621066106 0.5964927477160602
atom 1.2462151334470410 10.6442957773818385 1.1030417585697951 Zr
    velocity 0.4567085397400082 0.0092793484024456 -0.1994282456070443
atom 6.4002151334470394 10.6442957773818385 1.1030417585697951 Zr
    velocity -0.0368647474580276 0.4445569903931186 -0.0820014198756789
atom 11.5542151334470375 10.6442957773818385 1.1030417585697951 Zr
    velocity -0.5803161960686610 0.1224908849064587 -0.1427557464569831
atom 16.7082151334470410 10.6442957773818385 1.1030417585697951 Zr
    velocity 0.3271107647497130 0.1630831905936060 -0.4460119123936217
atom 21.8622151334470374 10.6442957773818385 1.1030417585697951 Zr
    velocity 0.1678579491786609 0.0753554765162420 0.5010020778742952
atom 27.0162151334470408 10.6442957773818385 1.1030417585697951 Zr
    velocity 0.0848692844726362 -0.3052368743023352 0.3040780391419848
atom 32.1702151334470372 10.6442957773818385 1.1030417585697951 Zr
    velocity -0.2903021851367186 -0.1753811945446864 0.0014546041396571
atom 1.2462151334470410 15.8552957773818406 1.1030417585697951 Zr
    velocity 0.3050484324910730 -0.1019317615719299 -0.2295691351083879
atom 6.4002151334470394 15.8552957773818406 1.1030417585697951 Zr
    velocity -0.0003485716714156 -0.4028548679860294 0.1111716339803891
atom 11.5542151334470375 15.8552957773818406 1.1030417585697951 Zr
    velocity 0.2604638337559370 -0.5561435378881332 -0.1927940362121419
atom 16.7082151334470410 15.8552957773818406 1.1030417585697951 Zr
    velocity 0.2363307934440920 -0.3727091692773767 -0.1240378788756954
atom 21.8622151334470374 15.8552957773818406 1.1030417585697951 Zr
    velocity -0.2851057650965758 0.2814933204999547 -0.1086176566078896
atom 27.0162151334470408 15.8552957773818406 1.1030417585697951 Zr
    velocity 0.0797763881273955 -0.5358730658564299 0.3037249464450463
atom 32.1702151334470372 15.8552957773818406 1.1030417585697951 Zr
    velocity -0.1421563699280197 0.1378080542804158 -0.5066921403477331
atom 1.2462151334470410 21.0662957773818356 1.1030417585697951 Zr
    velocity -0.1748459020712151 -0.1962500101722679 0.4515837158950906
atom 6.4002151334470394 21.0662957773818356 1.1030417585697951 Zr
    velocity -0.2468314157564269 0.0377623732896569 0.2500066438225899
atom 11.5542151334470375 21.0662957773818356 1.1030417585697951 Zr
    velocity -0.3754790705650839 -0.0163727942688947 0.1014610761667868
atom 16.7082151334470410 21.0662957773818356 1.1030417585697951 Zr
    velocity -0.6171597140923710 -0.4359863767246385 0.1313128033728685
atom 21.8622151334470374 21.0662957773818356 1.1030417585697951 Zr
    velocity -0.0587347785081098 -0.1110395671190878 -0.0766310139322696
atom 27.0162151334470408 21.0662957773818356 1.1030417585697951 Zr
    velocity 0.2444469211196433 0.2004205852449030 -0.0402534066156980
atom 32.1702151334470372 21.0662957773818356 1.1030417585697951 Zr
    velocity 0.0219916368735114 -0.2083253460208015 0.7883051959968403
atom 1.2462151334470410 26.2772957773818376 1.1030417585697951 Zr
    velocity -0.1653767457265546 -0.1506321033283654 -0.3531209384787785
atom 6.4002151334470394 26.2772957773818376 1.1030417585697951 Zr
    velocity -0.4610831205931916 0.2534453753608750 -0.3492645280432454
atom 11.5542151334470375 26.2772957773818376 1.1030417585697951 Zr
    velocity -0.1172685570709256 -0.4732202549720795 0.1924494502987838
atom 16.7082151334470410 26.2772957773818376 1.1030417585697951 Zr
    velocity -0.3748530365345344 -0.6353030140722862 0.3641503819002551
atom 21.8622151334470374 26.2772957773818376 1.1030417585697951 Zr
    velocity 0.2286334004556901 0.0090985687565386 0.0163258730752265
atom 27.0162151334470408 26.2772957773818376 1.1030417585697951 Zr
    velocity 0.0974585526733285 0.3322521789827031 -0.2048480039452335
atom 32.1702151334470372 26.2772957773818376 1.1030417585697951 Zr
    velocity 0.3803263145065017 -0.0630585225416383 0.5683119800396741
atom 1.2462151334470410 31.4882957773818362 1.1030417585697951 Zr
    velocity -0.4164950748416384 0.3653396004841728 -0.0927213920048510
atom 6.4002151334470394 31.4882957773818362 1.1030417585697951 Zr
    velocity 0.3315452539800822 0.3222885133235506 0.4418387671652310
atom 11.5542151334470375 31.4882957773818362 1.1030417585697951 Zr
    velocity 0.2431203511289361 -0.2982960448862345 0.2329540429916012
atom 16.7082151334470410 31.4882957773818362 1.1030417585697951 Zr
    velocity -0.4185878962258907 0.5825335129437442 0.2892104427107537
atom 21.8622151334470374 31.4882957773818362 1.1030417585697951 Zr
    velocity 0.5996676867919105 0.1159033740555332 0.1639650800830682
atom 27.0162151334470408 31.4882957773818362 1.1030417585697951 Zr
    velocity 0.2203744394268760 -0.2654739579697178 -0.5007727803258208
atom 32.1702151334470372 31.4882957773818362 1.1030417585697951 Zr
    velocity -0.0081470625607933 0.0524332744465418 0.0823999282307325
atom 0.3898264267197392 0.2222957773818345 6.3556870333803754 Zr
    velocity 0.2397521384113742 0.0978120042797253 0.0481372131866690
atom 5.5438264267197370 0.2222957773818345 6.3556870333803754 Zr
    velocity 0.0197050449256529 -0.5096359026326820 0.1402773484966238
atom 10.6978264267197360 0.2222957773818345 6.3556870333803754 Zr
    velocity 0.2150032659636424 -0.0167982963599271 0.0508964018275174
atom 15.8518264267197395 0.2222957773818345 6.3556870333803754 Zr
    velocity 0.0012141223907706 -0.1666022533536311 0.0450473945908450
atom 21.0058264267197359 0.2222957773818345 6.3556870333803754 Zr
    velocity 0.0761216466330951 0.5879971843605780 0.4922442746062444
atom 26.1598264267197393 0.2222957773818345 6.3556870333803754 Zr
    velocity -0.1678745929050277 0.2655158458166419 -0.6351317251792004
atom 31.3138264267197393 0.2222957773818345 6.3556870333803754 Zr
    velocity -0.0174570122759959 0.2423438239681110 -0.0647244046834872
atom 0.3898264267197392 5.4332957773818364 6.3556870333803754 Zr
    velocity -0.3346366156713561 0.0507195681584295 -0.3965679206260115
atom 5.5438264267197370 5.4332957773818364 6.3556870333803754 Zr
    velocity 0.2574705704716072 0.2446955174977861 0.1411323873900463
atom 10.6978264267197360 5.4332957773818364 6.3556870333803754 Zr
    velocity 0.0268504682648697 0.2509532012526625 0.5923687208273010
atom 15.8518264267197395 5.4332957773818364 6.3556870333803754 Zr
    velocity 0.2343369780293713 0.0681709916363032 0.1391082821886933
atom 21.0058264267197359 5.4332957773818364 6.3556870333803754 Zr
    velocity -0.2580314355363556 -0.2585730898274399 0.1634380646104306
atom 26.1598264267197393 5.4332957773818364 6.3556870333803754 Zr
    velocity 0.4138090655158105 0.4780453146502930 0.0880821154776030
atom 31.3138264267197393 5.4332957773818364 6.3556870333803754 Zr
    velocity 0.1745542563619585 0.0240263017337239 -0.2317453172106690
atom 0.3898264267197392 10.6442957773818385 6.3556870333803754 Zr
    velocity 0.0292678594605360 -0.1226624253948810 -0.5819111176477554
atom 5.5438264267197370 10.6442957773818385 6.3556870333803754 Zr
    velocity 0.1031212359534897 -0.0461739617462287 -0.0828252777493951
atom 10.6978264267197360 10.6442957773818385 6.3556870333803754 Zr
    velocity 0.1888890650577290 0.2274075009250568 0.1628715284356569
atom 15.8518264267197395 10.6442957773818385 6.3556870333803754 Zr
    velocity -0.2762375606616497 0.2682560302504720 -0.1333946900687543
atom 21.0058264267197359 10.6442957773818385 6.3556870333803754 Zr
    velocity -0.0162312158982358 0.5825843006648718 0.2087024374097595
atom 26.1598264267197393 10.6442957773818385 6.3556870333803754 Zr
    velocity -0.6670140081792969 -0.0140839646061537 -0.2568768789277506
atom 31.3138264267197393 10.6442957773818385 6.3556870333803754 Zr
    velocity 0.2378561111773462 0.1318107034755057 0.1626442751216603
atom 0.3898264267197392 15.8552957773818406 6.3556870333803754 Zr
    velocity 0.2294116999791996 -0.4469899720658772 -0.2095181366478143
atom 5.5438264267197370 15.8552957773818406 6.3556870333803754 Zr
    velocity -0.0539440226150283 0.1328172260240235 -0.0275607167937484
atom 10.6978264267197360 15.8552957773818406 6.3556870333803754 Zr
    velocity -0.1897015850152190 0.0989291654692981 -0.0662950808191466
atom 15.8518264267197395 15.8552957773818406 6.3556870333803754 Zr
    velocity -0.4686330171113441 0.1148448672170234 0.0203225564023521
atom 21.0058264267197359 15.8552957773818406 6.3556870333803754 Zr
    velocity 0.2553599682341866 -0.3323984089458952 -0.0909119173211243
atom 26.1598264267197393 15.8552957773818406 6.3556870333803754 Zr
    velocity -0.1781193977968925 -0.0088274418097965 0.8647802417938798
atom 31.3138264267197393 15.8552957773818406 6.3556870333803754 Zr
    velocity -0.0639657184454414 -0.0402738800589765 0.1012279270996878
atom 0.3898264267197392 21.0662957773818356 6.3556870333803754 Zr
    velocity 0.0455935575752360 0.0389866580573577 -0.1773174852384691
atom 5.5438264267197370 21.0662957773818356 6.3556870333803754 Zr
    velocity -0.3412292867266478 -0.2154393509449512 -0.1912243848657350
atom 10.6978264267197360 21.0662957773818356 6.3556870333803754 Zr
    velocity -0.1811186541201430 0.1777330373198018 0.1778283449131949
atom 15.8518264267197395 21.0662957773818356 6.3556870333803754 Zr
    velocity -0.9085103853396698 0.3330140078421067 -0.1083884574073930
atom 21.0058264267197359 21.0662957773818356 6.3556870333803754 Zr
    velocity -0.2883851220932070 0.2005594820960346 -0.2947103268353256
atom 26.1598264267197393 21.0662957773818356 6.3556870333803754 Zr
    velocity -0.0744991611162992 -0.3893592495037164 -0.1898106177137601
atom 31.3138264267197393 21.0662957773818356 6.3556870333803754 Zr
    velocity -0.0363332262651886 0.1385435202568520 0.1314118945869817
atom 0.3898264267197392 26.2772957773818376 6.3556870333803754 Zr
    velocity 0.1888952063512678 -0.2472093336132555 -0.1972706127167434
atom 5.5438264267197370 26.2772957773818376 6.3556870333803754 Zr
    velocity -0.2433452084306549 0.0700555900606059 -0.1691725671252359
atom 10.6978264267197360 26.2772957773818376 6.3556870333803754 Zr
    velocity -0.5207757408243342 0.3902222991124626 -0.2466583215878186
atom 15.8518264267197395 26.2772957773818376 6.3556870333803754 Zr
    velocity -0.0206491970947702 -0.2401107434697732 -0.2433721088987123
atom 21.0058264267197359 26.2772957773818376 6.3556870333803754 Zr
    velocity -0.0182030317408244 0.2328864209005261 0.0868498308689883
atom 26.1598264267197393 26.2772957773818376 6.3556870333803754 Zr
    velocity -0.0996416860586741 0.0181416912545333 0.3565205781826525
atom 31.3138264267197393 26.2772957773818376 6.3556870333803754 Zr
    velocity -0.5855060980401240 0.0652698578056369 -0.3032117555077609
atom 0.3898264267197392 31.4882957773818362 6.3556870333803754 Zr
    velocity -0.4380893187570738 0.2670036077906384 0.1218003183743848
atom 5.5438264267197370 31.4882957773818362 6.3556870333803754 Zr
    velocity 0.1549441409117475 -0.0558887340641543 0.1477975224517401
atom 10.6978264267197360 31.4882957773818362 6.3556870333803754 Zr
    velocity 0.6748265171401956 0.2323020999718974 0.1507699260641888
atom 15.8518264267197395 31.4882957773818362 6.3556870333803754 Zr
    velocity -0.0115419223235410 0.1035316675562752 0.2745228162720546
atom 21.0058264267197359 31.4882957773818362 6.3556870333803754 Zr
    velocity -0.3963037975782238 0.1646616675188424 0.1668924105154277
atom 26.1598264267197393 31.4882957773818362 6.3556870333803754 Zr
    velocity -0.1923273204658687 -0.5733756998670082 0.1936811556489663
atom 31.3138264267197393 31.4882957773818362 6.3556870333803754 Zr
    velocity -0.1858363658091075 0.4763445191508511 0.1112442411580797
atom -0.4665622800075627 0.2222957773818345 11.6083323081909562 Zr
    velocity -0.0623704792081454 -0.0824572447992031 -0.0152819292437052
atom 4.6874377199924355 0.2222957773818345 11.6083323081909562 Zr
    velocity -0.6123629327314006 -0.0305613563372573 -0.4812623690322215
atom 9.8414377199924328 0.2222957773818345 11.6083323081909562 Zr
    velocity 0.4107771708144158 -0.5145518661471535 0.4098251362443031
atom 14.9954377199924362 0.2222957773818345 11.6083323081909562 Zr
    velocity -0.3023868370623939 0.3324909678771255 -0.5889722313576529
atom 20.1494377199924344 0.2222957773818345 11.6083323081909562 Zr
    velocity -0.2242567583640638 -0.0205017031199291 0.0215437860201894
atom 25.3034377199924378 0.2222957773818345 11.6083323081909562 Zr
    velocity -0.0639461254866270 0.4115010575540326 -0.0740577753047026
atom 30.4574377199924378 0.2222957773818345 11.6083323081909562 Zr
    velocity -0.0112989354260258 -0.3710211765782460 0.2918220708442737
atom -0.4665622800075627 5.4332957773818364 11.6083323081909562 Zr
    velocity -0.0672606339849506 0.0805981314884134 -0.2545523180637609
atom 4.6874377199924355 5.4332957773818364 11.6083323081909562 Zr
    velocity -0.4840021970488896 0.3349108968633775 -0.3832006551331810
atom 9.8414377199924328 5.4332957773818364 11.6083323081909562 Zr
    velocity 0.1876583990413455 -0.3833567015795847 0.1331585224783510
atom 14.9954377199924362 5.4332957773818364 11.6083323081909562 Zr
    velocity -0.2733170098708431 -0.0113133564291722 0.8926904991305560
atom 20.1494377199924344 5.4332957773818364 11.6083323081909562 Zr
    velocity -0.1311314699337808 -0.3018886085691329 -0.0526450168631056
atom 25.3034377199924378 5.4332957773818364 11.6083323081909562 Zr
    velocity 0.3192456645504991 -0.4641635633962899 -0.5325570378017659
atom 30.4574377199924378 5.4332957773818364 11.6083323081909562 Zr
    velocity -0.0467175588344463 0.3943781032644146 0.2982714534686052
atom -0.4665622800075627 10.6442957773818385 11.6083323081909562 Zr
    velocity -0.1140222300570701 -0.6024079580253545 -0.1524075704327160
atom 4.6874377199924355 10.6442957773818385 11.6083323081909562 Zr
    velocity 0.3667330621848175 0.1020081906373908 -0.1422555261940602
atom 9.8414377199924328 10.6442957773818385 11.6083323081909562 Zr
    velocity -0.0433824697495450 -0.1434413266274819 0.2693525282611050
atom 14.9954377199924362 10.6442957773818385 11.6083323081909562 Zr
    velocity -0.1072631743437810 0.1951930661896432 -0.1301873540243564
atom 20.1494377199924344 10.6442957773818385 11.6083323081909562 Zr
    velocity 0.5005545146630200 0.1885508707996249 0.5592671395166927
atom 25.3034377199924378 10.6442957773818385 11.6083323081909562 Zr
    velocity 0.2422437188923041 -0.2258164404304188 -0.4569296241660100
atom 30.4574377199924378 10.6442957773818385 11.6083323081909562 Zr
    velocity -0.3539633053300718 -0.2136140280131018 0.0861393705218413
atom -0.4665622800075627 15.8552957773818406 11.6083323081909562 Zr
    velocity 0.2722990852557592 0.2432609656895053 -0.0222857296373499
atom 4.6874377199924355 15.8552957773818406 11.6083323081909562 Zr
    velocity 0.5175947656513394 0.3144464989184057 0.2256184399927442
atom 9.8414377199924328 15.8552957773818406 11.6083323081909562 Zr
    velocity 0.5209831659210952 0.0373520512108064 0.6710371681432019
atom 14.9954377199924362 15.8552957773818406 11.6083323081909562 Zr
    velocity -0.8081277025990949 -0.4455855252482790 0.2466712699417171
atom 20.1494377199924344 15.8552957773818406 11.6083323081909562 Zr
    velocity -0.2978552239014964 -0.0189767327240562 0.0948566760796433
atom 25.3034377199924378 15.8552957773818406 11.6083323081909562 Zr
    velocity 0.2276829230399715 -0.1932871052761712 -0.2984881697796946
atom 30.4574377199924378 15.8552957773818406 11.6083323081909562 Zr
    velocity -0.4719276562280701 -0.4588913282775250 -0.0763860414444230
atom -0.4665622800075627 21.0662957773818356 11.6083323081909562 Zr
    velocity 0.3182477967069460 0.1310822775228960 0.5805513263153724
atom 4.6874377199924355 21.0662957773818356 11.6083323081909562 Zr
    velocity 0.1521862745130090 -0.1460200524205034 0.3295249670847324
atom 9.8414377199924328 21.0662957773818356 11.6083323081909562 Zr
    velocity 0.0178423267237401 0.3563137789483855 -0.4408012663044385
atom 14.9954377199924362 21.0662957773818356 11.6083323081909562 Zr
    velocity -0.0348289120398751 -0.4707095879535999 0.0841658803597990
atom 20.1494377199924344 21.0662957773818356 11.6083323081909562 Zr
    velocity -0.1882975266180598 -0.0168332979336521 0.0736478687265864
atom 25.3034377199924378 21.0662957773818356 11.6083323081909562 Zr
    velocity -0.0329033763538996 0.1915303590180059 0.1182517729589672
atom 30.4574377199924378 21.0662957773818356 11.6083323081909562 Zr
    velocity 0.3822662450227154 -0.3763820288646214 0.5200955541783796
atom -0.4665622800075627 26.2772957773818376 11.6083323081909562 Zr
    velocity 0.1170440201401845 -0.0577103576257413 -0.0578132017707615
atom 4.6874377199924355 26.2772957773818376 11.6083323081909562 Zr
    velocity 0.3134985998706937 -0.0116881722774332 0.1101587525694297
atom 9.8414377199924328 26.2772957773818376 11.6083323081909562 Zr
    velocity 0.2195548442217146 -0.2824093419014582 -0.1442764511559625
atom 14.9954377199924362 26.2772957773818376 11.6083323081909562 Zr
    velocity 0.1656451755638638 -0.0386683033540920 -0.1873873142059759
atom 20.1494377199924344 26.2772957773818376 11.6083323081909562 Zr
    velocity 0.1332527065327619 -0.2952523220764161 -0.0769597718166583
atom 25.3034377199924378 26.2772957773818376 11.6083323081909562 Zr
    velocity 0.2696616553087239 0.2782384340381085 0.7294744014713653
atom 30.4574377199924378 26.2772957773818376 11.6083323081909562 Zr
    velocity -0.1314390743346186 0.1571407232977551 0.0319032422022624
atom -0.4665622800075627 31.4882957773818362 11.6083323081909562 Zr
    velocity 0.1805780911933636 -0.3914638324031366 -0.2553662637392670
atom 4.6874377199924355 31.4882957773818362 11.6083323081909562 Zr
    velocity 0.0544472036925298 -0.3333055075293840 -0.2237835462864706
atom 9.8414377199924328 31.4882957773818362 11.6083323081909562 Zr
    velocity 0.6724831761708431 -0.1963647308228224 -0.1787500654933878
atom 14.9954377199924362 31.4882957773818362 11.6083323081909562 Zr
    velocity 0.0201350268782134 -0.2529281275225125 -0.3249981166651629
atom 20.1494377199924344 31.4882957773818362 11.6083323081909562 Zr
    velocity -0.0775615901439244 0.0522341743933769 -0.1655286452879207
atom 25.3034377199924378 31.4882957773818362 11.6083323081909562 Zr
    velocity -0.5067345744158958 -0.6848752671791682 -0.0854468023465912
atom 30.4574377199924378 31.4882957773818362 11.6083323081909562 Zr
    velocity 0.0981960923575280 0.4742700559731228 0.0243859258632232
atom -1.3229509867348652 0.2222957773818345 16.8609775830015387 Zr
    velocity 0.1103609758289242 0.0792521502026799 -0.3085743794757960
atom 3.8310490132651327 0.2222957773818345 16.8609775830015387 Zr
    velocity 0.0930285945549823 0.2720610685574565 -0.3067451028353996
atom 8.9850490132651313 0.2222957773818345 16.8609775830015387 Zr
    velocity -0.0471333643120408 -0.2076337615564549 0.2978107793695173
atom 14.1390490132651347 0.2222957773818345 16.8609775830015387 Zr
    velocity -0.6241745233662411 0.1675445897727245 0.0674179421341391
atom 19.2930490132651293 0.2222957773818345 16.8609775830015387 Zr
    velocity 0.1422121821501997 0.4259278388950524 -0.6371951035018453
atom 24.4470490132651328 0.2222957773818345 16.8609775830015387 Zr
    velocity 0.1791454929888308 -0.0748858667362690 0.0570971921917733
atom 29.6010490132651327 0.2222957773818345 16.8609775830015387 Zr
    velocity 0.1110563801697792 -0.1362575317912280 0.0837781208355192
atom -1.3229509867348652 5.4332957773818364 16.8609775830015387 Zr
    velocity -0.1422797760464917 0.3853257893736679 0.5236397425049782
atom 3.8310490132651327 5.4332957773818364 16.8609775830015387 Zr
    velocity 0.2433037960122074 0.0647689876378284 0.0945701351847731
atom 8.9850490132651313 5.4332957773818364 16.8609775830015387 Zr
    velocity 0.0986129137899037 -0.4693154486083259 -0.1786700697590596
atom 14.1390490132651347 5.4332957773818364 16.8609775830015387 Zr
    velocity -0.1285808937866157 -0.1775601819143973 0.2309429334905225
atom 19.2930490132651293 5.4332957773818364 16.8609775830015387 Zr
    velocity 0.1030141237835205 0.4945020730816682 -0.5509888097109692
atom 24.4470490132651328 5.4332957773818364 16.8609775830015387 Zr
    velocity 0.2988708549009632 -0.2090627755399651 -0.1633004686026026
atom 29.6010490132651327 5.4332957773818364 16.8609775830015387 Zr
    velocity 0.1345415526876472 -0.6482163321187956 0.3134778309203866
atom -1.3229509867348652 10.6442957773818385 16.8609775830015387 Zr
    velocity 0.2526760884298435 -0.1774023654976098 -0.3515635701218828
atom 3.8310490132651327 10.6442957773818385 16.8609775830015387 Zr
    velocity -0.0620838702978316 -0.2683614757099368 -0.1570188146658714
atom 8.9850490132651313 10.6442957773818385 16.8609775830015387 Zr
    velocity 0.1123128344902385 0.2257427455986740 -0.4396523269097060
atom 14.1390490132651347 10.6442957773818385 16.8609775830015387 Zr
    velocity -0.2814984956423516 -0.3071529620761305 0.3079866483033141
atom 19.2930490132651293 10.6442957773818385 16.8609775830015387 Zr
    velocity 0.1965374360619480 -0.0698886181425061 0.4204528386948352
atom 24.4470490132651328 10.6442957773818385 16.8609775830015387 Zr
    velocity -0.1472344442157974 -0.0697071762223119 0.0613860850021518
atom 29.6010490132651327 10.6442957773818385 16.8609775830015387 Zr
    velocity -0.0277323559005381 0.3097109714293187 0.3830340252614853
atom -1.3229509867348652 15.8552957773818406 16.8609775830015387 Zr
    velocity 0.4839651311071036 -0.4091488232869315 0.5467698149401454
atom 3.8310490132651327 15.8552957773818406 16.8609775830015387 Zr
    velocity -0.0114764540860874 0.2730735521728602 0.1126856692032049
atom 8.9850490132651313 15.8552957773818406 16.8609775830015387 Zr
    velocity 0.0774136088768989 -0.0635060371071529 0.1808773311389633
atom 14.1390490132651347 15.8552957773818406 16.8609775830015387 Zr
    velocity 0.2254875168081319 -0.1452915162481729 0.1727353645550637
atom 19.2930490132651293 15.8552957773818406 16.8609775830015387 Zr
    velocity -0.2754136265242423 0.4006117868829400 -0.2373613453196926
atom 24.4470490132651328 15.8552957773818406 16.8609775830015387 Zr
    velocity -0.3411629796311688 -0.1498056166185535 -0.2087051001165244
atom 29.6010490132651327 15.8552957773818406 16.8609775830015387 Zr
    velocity 0.0156561602713701 0.2297023140670537 -0.3243430994255846
atom -1.3229509867348652 21.0662957773818356 16.8609775830015387 Zr
    velocity -0.0303890460172406 0.1095233230591705 -0.0317899265309658
atom 3.8310490132651327 21.0662957773818356 16.8609775830015387 Zr
    velocity 0.3338363488186215 -0.1722165109415111 0.1562791950678610
atom 8.9850490132651313 21.0662957773818356 16.8609775830015387 Zr
    velocity 0.4625917925519549 -0.2591780307619650 -0.3716226694106852
atom 14.1390490132651347 21.0662957773818356 16.8609775830015387 Zr
    velocity 0.2062879294167010 -0.1029723565649681 -0.0132091340458226
atom 19.2930490132651293 21.0662957773818356 16.8609775830015387 Zr
    velocity -0.2131704955341578 -0.2967183352118424 -0.4543181678092064
atom 24.4470490132651328 21.0662957773818356 16.8609775830015387 Zr
    velocity -0.3496831120780976 0.0748823547898007 -0.0909003328469930
atom 29.6010490132651327 21.0662957773818356 16.8609775830015387 Zr
    velocity -0.0271967443528728 -0.0361826568352158 0.2619355125976363
atom -1.3229509867348652 26.2772957773818376 16.8609775830015387 Zr
    velocity -0.2784686519447813 0.1911565423806756 -0.1735992306016367
atom 3.8310490132651327 26.2772957773818376 16.8609775830015387 Zr
    velocity -0.0160613201895689 -0.4885121461181070 0.0221174514712799
atom 8.9850490132651313 26.2772957773818376 16.8609775830015387 Zr
    velocity 0.2548096749202400 0.2068876388968725 0.1743163346700812
atom 14.1390490132651347 26.2772957773818376 16.8609775830015387 Zr
    velocity 0.3761468322583502 -0.3125395527180812 -0.0483131382165730
atom 19.2930490132651293 26.2772957773818376 16.8609775830015387 Zr
    velocity 0.4180251898551523 -0.1114003766262207 -0.0585152372037764
atom 24.4470490132651328 26.2772957773818376 16.8609775830015387 Zr
    velocity -0.4778583213839954 -0.2205903497795679 0.4817383343353009
atom 29.6010490132651327 26.2772957773818376 16.8609775830015387 Zr
    velocity -0.0506673150880979 -0.2644248778121712 -0.4638575767272485
atom -1.3229509867348652 31.4882957773818362 16.8609775830015387 Zr
    velocity 0.0509579624420621 -0.0387224294810003 -0.0706741553686468
atom 3.8310490132651327 31.4882957773818362 16.8609775830015387 Zr
    velocity 0.1628429401994794 0.5955578694129539 -0.1651462239405105
atom 8.9850490132651313 31.4882957773818362 16.8609775830015387 Zr
    velocity 0.3816369275559626 0.1082822296332511 -0.3375254180892955
atom 14.1390490132651347 31.4882957773818362 16.8609775830015387 Zr
    velocity 0.0721371632056919 -0.2756360177032740 -0.1185727327712078
atom 19.2930490132651293 31.4882957773818362 16.8609775830015387 Zr
    velocity 0.4007744445727551 0.1269625968012343 0.2634170533327828
atom 24.4470490132651328 31.4882957773818362 16.8609775830015387 Zr
    velocity -0.2501051754341616 -0.1591686019233853 -0.5507623173294743
atom 29.6010490132651327 31.4882957773818362 16.8609775830015387 Zr
    velocity 0.1781185694907122 0.5865015944851255 0.5564238874142263
atom -2.1793396934621678 0.2222957773818345 22.1136228578121248 Zr
    velocity -0.0683619923212351 0.0758816948671558 -0.1350133544702720
atom 2.9746603065378303 0.2222957773818345 22.1136228578121248 Zr
    velocity 0.7443572746493223 -0.5867190112896840 -0.4462545430345322
atom 8.1286603065378316 0.2222957773818345 22.1136228578121248 Zr
    velocity 0.7577233893235171 -0.1013939032762799 0.2431375376590836
atom 13.2826603065378315 0.2222957773818345 22.1136228578121248 Zr
    velocity -0.4492918950882641 -0.3201273189094958 -0.2723929366952745
atom 18.4366603065378278 0.2222957773818345 22.1136228578121248 Zr
    velocity 0.0699411184629830 0.1928613140807378 -0.4683089936752020
atom 23.5906603065378313 0.2222957773818345 22.1136228578121248 Zr
    velocity 0.4360285561918775 -0.2692946050065653 0.0824157702190261
atom 28.7446603065378312 0.2222957773818345 22.1136228578121248 Zr
    velocity 0.0874384644155189 0.0850019276182455 0.4551475568176597
atom -2.1793396934621678 5.4332957773818364 22.1136228578121248 Zr
    velocity -0.3915366798937558 -0.2370977459095624 0.2346421185879067
atom 2.9746603065378303 5.4332957773818364 22.1136228578121248 Zr
    velocity 0.0477559615456336 0.1953588517954926 0.1490341545005734
atom 8.1286603065378316 5.4332957773818364 22.1136228578121248 Zr
    velocity 0.3587493914872230 0.0293010330182898 -0.3674450668115884
atom 13.2826603065378315 5.4332957773818364 22.1136228578121248 Zr
    velocity -0.8618849146306734 -0.1257128107218041 -0.0613619259888157
atom 18.4366603065378278 5.4332957773818364 22.1136228578121248 Zr
    velocity 0.3023700175159036 -0.2915876634206332 0.0630398257683916
atom 23.5906603065378313 5.4332957773818364 22.1136228578121248 Zr
    velocity -0.5178698180172591 -0.0388808583728019 0.1223320324511643
atom 28.7446603065378312 5.4332957773818364 22.1136228578121248 Zr
    velocity 0.1067193123603098 0.2046303285442943 0.3679294942666304
atom -2.1793396934621678 10.6442957773818385 22.1136228578121248 Zr
    velocity 0.0553821580887448 0.1250180987162251 0.3376841325091550