#=======================================================
# FHI-aims file: 450_geometry.in.primitive.supercell_6144.0010K
# Created using the Atomic Simulation Environment (ASE)
# Tue Oct 18 13:10:56 2022

# Additional information:
#  created from MB distrubtion
#  T = 10.0 K
#  quantum:             False
#  deterministic:       False
#  plus_minus:          False
#  gauge_eigenvectors:  False
#  Random seed:         1680986881
#  Sample number:       1
#=======================================================
lattice_vector 41.2319999999999993 0.0000000000000000 0.0000000000000000 
lattice_vector 0.0000000000000000 41.6880000000000024 0.0000000000000000 
lattice_vector -6.8511096538184182 0.0000000000000000 42.0211621984846602 
atom 1.2462151334470397 0.2222957773818360 1.1030417585697936 Zr
    velocity -0.0778212072007776 -0.5260505811704674 -0.4656259033559275
atom 6.4002151334470403 0.2222957773818360 1.1030417585697936 Zr
    velocity 0.3202825311148778 -0.2616661083643053 0.3582583190578187
atom 11.5542151334470393 0.2222957773818360 1.1030417585697936 Zr
    velocity 0.1121345736332440 0.1132500987563150 0.0583278640284353
atom 16.7082151334470375 0.2222957773818360 1.1030417585697936 Zr
    velocity -0.0956501165541842 -0.2856717331017566 0.1090689336294884
atom 21.8622151334470374 0.2222957773818360 1.1030417585697936 Zr
    velocity 0.0884806570712870 0.4039266622123341 0.0033598133513859
atom 27.0162151334470373 0.2222957773818360 1.1030417585697936 Zr
    velocity -0.3201494886839824 0.3438914621532143 0.1473140410629920
atom 32.1702151334470372 0.2222957773818360 1.1030417585697936 Zr
    velocity 0.4294346195860857 -0.1435061799149603 0.4083628277209856
atom 37.3242151334470336 0.2222957773818360 1.1030417585697936 Zr
    velocity -0.3882438889001991 -0.0228578543597472 -0.2816140273314192
atom 1.2462151334470397 5.4332957773818364 1.1030417585697936 Zr
    velocity -0.0246644148089915 0.4233896637219007 0.1125385736923753
atom 6.4002151334470403 5.4332957773818364 1.1030417585697936 Zr
    velocity -0.6098367024388982 -0.0697329284231436 0.2406643842449463
atom 11.5542151334470393 5.4332957773818364 1.1030417585697936 Zr
    velocity -0.1693470730221550 0.0032148300106628 -0.2643520988498470
atom 16.7082151334470375 5.4332957773818364 1.1030417585697936 Zr
    velocity 0.4782986509611572 -0.2716304437401865 -0.3039363984298169
atom 21.8622151334470374 5.4332957773818364 1.1030417585697936 Zr
    velocity 0.4262308646505519 -0.0581149673925225 0.1753724034670341
atom 27.0162151334470373 5.4332957773818364 1.1030417585697936 Zr
    velocity 0.1219797761725104 -0.1014212329862175 -0.3574586267105743
atom 32.1702151334470372 5.4332957773818364 1.1030417585697936 Zr
    velocity -0.0545766445430434 -0.0027610666130689 0.0723889005967198
atom 37.3242151334470336 5.4332957773818364 1.1030417585697936 Zr
    velocity -0.0402959493622786 -0.0855260996665923 0.1050874751392356
atom 1.2462151334470397 10.6442957773818403 1.1030417585697936 Zr
    velocity -0.0025163630792794 -0.2081018684929446 0.0430899221041996
atom 6.4002151334470403 10.6442957773818403 1.1030417585697936 Zr
    velocity 0.0996658601916749 0.0510431331967339 0.0280109615919101
atom 11.5542151334470393 10.6442957773818403 1.1030417585697936 Zr
    velocity -0.1192320117159650 -0.2075376051025631 -0.3929284110635354
atom 16.7082151334470375 10.6442957773818403 1.1030417585697936 Zr
    velocity 0.3839308801114745 -0.5485060393979461 0.0905937175666320
atom 21.8622151334470374 10.6442957773818403 1.1030417585697936 Zr
    velocity 0.1585402481858681 -0.1903736758179116 -0.0740019656882067
atom 27.0162151334470373 10.6442957773818403 1.1030417585697936 Zr
    velocity 0.1095150706910236 0.0737149111387440 -0.1897271560504695
atom 32.1702151334470372 10.6442957773818403 1.1030417585697936 Zr
    velocity 0.9070015878669361 -0.2002996674459429 0.0282314772604350
atom 37.3242151334470336 10.6442957773818403 1.1030417585697936 Zr
    velocity 0.1276879289602938 0.1019174680400837 0.1740320155134866
atom 1.2462151334470397 15.8552957773818406 1.1030417585697936 Zr
    velocity -0.3121518831423885 -0.0589646517269446 0.4921000854043754
atom 6.4002151334470403 15.8552957773818406 1.1030417585697936 Zr
    velocity 0.2919893878904188 -0.3785575288921218 -0.7812985440996656
atom 11.5542151334470393 15.8552957773818406 1.1030417585697936 Zr
    velocity 0.0333433486720019 -0.2375107122621252 -0.0064667532103302
atom 16.7082151334470375 15.8552957773818406 1.1030417585697936 Zr
    velocity -0.2653785843671618 0.2041140350123571 -0.1959048280444587
atom 21.8622151334470374 15.8552957773818406 1.1030417585697936 Zr
    velocity -0.0519500152959240 0.1133347631117893 0.5881314338546829
atom 27.0162151334470373 15.8552957773818406 1.1030417585697936 Zr
    velocity 0.1543884388149659 0.1456528910836312 -0.4267731553034678
atom 32.1702151334470372 15.8552957773818406 1.1030417585697936 Zr
    velocity -0.6320923281189865 0.2078754686182307 -0.0155163229876716
atom 37.3242151334470336 15.8552957773818406 1.1030417585697936 Zr
    velocity -0.1047944536469705 0.0786877029816019 -0.1327086935543754
atom 1.2462151334470397 21.0662957773818391 1.1030417585697936 Zr
    velocity -0.2675979098975939 0.3471471800374895 0.0361634636197304
atom 6.4002151334470403 21.0662957773818391 1.1030417585697936 Zr
    velocity 0.2642989096921146 -0.2168737183240380 0.0903916596955173
atom 11.5542151334470393 21.0662957773818391 1.1030417585697936 Zr
    velocity 0.1734085648706655 -0.4749923136737770 -0.1744869349416811
atom 16.7082151334470375 21.0662957773818391 1.1030417585697936 Zr
    velocity 0.2423338753549474 -0.0970928854626533 0.4823421814844390
atom 21.8622151334470374 21.0662957773818391 1.1030417585697936 Zr
    velocity -0.2609952231375755 -0.8592447245509423 -0.2153018594300468
atom 27.0162151334470373 21.0662957773818391 1.1030417585697936 Zr
    velocity -0.3224433806074268 0.3114812953128123 -0.2698264933602951
atom 32.1702151334470372 21.0662957773818391 1.1030417585697936 Zr
    velocity 0.1277212862548989 0.7036090247729283 -0.1052394501153833
atom 37.3242151334470336 21.0662957773818391 1.1030417585697936 Zr
    velocity 0.1691842291607068 0.2861108681071582 -0.3738931438156040
atom 1.2462151334470397 26.2772957773818376 1.1030417585697936 Zr
    velocity 0.0697615042913942 0.0393237908011657 0.0276415216153631
atom 6.4002151334470403 26.2772957773818376 1.1030417585697936 Zr
    velocity 0.6356892498087529 -0.1500567418781334 0.0570972938637165
atom 11.5542151334470393 26.2772957773818376 1.1030417585697936 Zr
    velocity -0.2737894708954871 0.4458331234273283 0.2063639791967952
atom 16.7082151334470375 26.2772957773818376 1.1030417585697936 Zr
    velocity 0.1682452653049098 0.5702514992776496 0.2477757175934158
atom 21.8622151334470374 26.2772957773818376 1.1030417585697936 Zr
    velocity -0.2905390735493057 -0.4521699520205905 0.2599862174314423
atom 27.0162151334470373 26.2772957773818376 1.1030417585697936 Zr
    velocity -0.3233391477345773 0.1788314980599989 -0.1130153151938904
atom 32.1702151334470372 26.2772957773818376 1.1030417585697936 Zr
    velocity -0.0190231694236897 0.5417121753778016 -0.5699026668439688
atom 37.3242151334470336 26.2772957773818376 1.1030417585697936 Zr
    velocity 0.0146276429250071 -0.2137560156278320 -0.5593530722332044
atom 1.2462151334470397 31.4882957773818397 1.1030417585697936 Zr
    velocity 0.0688672109946589 -0.8373571698527792 0.1213358659062549
atom 6.4002151334470403 31.4882957773818397 1.1030417585697936 Zr
    velocity 0.0109837283401624 -0.5986160587643029 0.0141902946690611
atom 11.5542151334470393 31.4882957773818397 1.1030417585697936 Zr
    velocity 0.1978995217729298 0.0026998891057381 0.1210050444208208
atom 16.7082151334470375 31.4882957773818397 1.1030417585697936 Zr
    velocity 0.1785573979363325 0.4253791249810592 0.3212869388044426
atom 21.8622151334470374 31.4882957773818397 1.1030417585697936 Zr
    velocity 0.2352568328370814 -0.2544578168696148 0.3700864408385293
atom 27.0162151334470373 31.4882957773818397 1.1030417585697936 Zr
    velocity -0.2403654672804538 -0.1032255494888089 0.1757342179999550
atom 32.1702151334470372 31.4882957773818397 1.1030417585697936 Zr
    velocity 0.0242782874410926 -0.2588010798748736 -0.0381531478655042
atom 37.3242151334470336 31.4882957773818397 1.1030417585697936 Zr
    velocity 0.4329041448876011 0.3232911715590671 -0.0781115048195928
atom 1.2462151334470397 36.6992957773818418 1.1030417585697936 Zr
    velocity -0.3530852248282562 0.0224440178876661 0.1462040588438364
atom 6.4002151334470403 36.6992957773818418 1.1030417585697936 Zr
    velocity -0.0011695876277079 -0.0667960189305346 -0.0399588118192653
atom 11.5542151334470393 36.6992957773818418 1.1030417585697936 Zr
    velocity 0.0257127232209485 -0.0776146856526762 0.0066895153243865
atom 16.7082151334470375 36.6992957773818418 1.1030417585697936 Zr
    velocity 0.0117137848029504 -0.2331304990671113 -0.2429429765372987
atom 21.8622151334470374 36.6992957773818418 1.1030417585697936 Zr
    velocity -0.5853842980162469 -0.3829670410271173 -0.2596848558789278
atom 27.0162151334470373 36.6992957773818418 1.1030417585697936 Zr
    velocity -0.2157547821209501 0.0135034791108145 -0.2071540552563332
atom 32.1702151334470372 36.6992957773818418 1.1030417585697936 Zr
    velocity -0.2388009491334677 0.0544921357620181 0.0670329806923484
atom 37.3242151334470336 36.6992957773818418 1.1030417585697936 Zr
    velocity -0.5170652349661541 0.2354071018195444 0.1406692626033511
atom 0.3898264267197374 0.2222957773818360 6.3556870333803763 Zr
    velocity -0.2950223153045295 -0.5267961307675270 -0.1941107515747545
atom 5.5438264267197379 0.2222957773818360 6.3556870333803763 Zr
    velocity -0.0556050513318385 -0.0602720166468053 0.3655163554612578
atom 10.6978264267197360 0.2222957773818360 6.3556870333803763 Zr
    velocity -0.6450463688619454 0.1900951376592241 -0.3794021446755431
atom 15.8518264267197342 0.2222957773818360 6.3556870333803763 Zr
    velocity -0.0271035464033180 0.1499360314394866 -0.1635787615095752
atom 21.0058264267197359 0.2222957773818360 6.3556870333803763 Zr
    velocity 0.0623712088271641 -0.2280100702673618 -0.0876107790140995
atom 26.1598264267197358 0.2222957773818360 6.3556870333803763 Zr
    velocity 0.7116917322530075 0.1966743257808973 -0.6620826692930170
atom 31.3138264267197393 0.2222957773818360 6.3556870333803763 Zr
    velocity -0.1940474116418006 -0.7680179684467113 -0.1297967168525781
atom 36.4678264267197321 0.2222957773818360 6.3556870333803763 Zr
    velocity 0.0635782104242300 0.2614435780706726 -0.0834897541985523
atom 0.3898264267197374 5.4332957773818364 6.3556870333803763 Zr
    velocity -0.1504418092308896 -0.1989794837583188 -0.1007110254193910
atom 5.5438264267197379 5.4332957773818364 6.3556870333803763 Zr
    velocity 0.0794618587255352 -0.0781738475287840 -0.5721295740768898
atom 10.6978264267197360 5.4332957773818364 6.3556870333803763 Zr
    velocity -0.6247097334861220 -0.0591896042606800 0.0872926184245256
atom 15.8518264267197342 5.4332957773818364 6.3556870333803763 Zr
    velocity -0.0274606553983978 -0.0374664749066550 -0.1106779178886608
atom 21.0058264267197359 5.4332957773818364 6.3556870333803763 Zr
    velocity -0.0358671551174201 0.0833284090569865 0.0303390147240609
atom 26.1598264267197358 5.4332957773818364 6.3556870333803763 Zr
    velocity 0.3552962581562642 0.4864560603965249 0.0502430892502301
atom 31.3138264267197393 5.4332957773818364 6.3556870333803763 Zr
    velocity -0.3700280737094761 0.0572381694127247 0.1931830727594773
atom 36.4678264267197321 5.4332957773818364 6.3556870333803763 Zr
    velocity 0.1834188298464496 0.1292815562475277 -0.2188404255375839
atom 0.3898264267197374 10.6442957773818403 6.3556870333803763 Zr
    velocity -0.2493448201805101 -0.3105687488093083 -0.1483308691359282
atom 5.5438264267197379 10.6442957773818403 6.3556870333803763 Zr
    velocity 0.0149177410804513 -0.0404822664350993 0.0228943424780945
atom 10.6978264267197360 10.6442957773818403 6.3556870333803763 Zr
    velocity 0.1946719992962481 0.7548752431984460 -0.0714391474103523
atom 15.8518264267197342 10.6442957773818403 6.3556870333803763 Zr
    velocity 0.1619210819756633 0.0458219592618219 0.4548629707007442
atom 21.0058264267197359 10.6442957773818403 6.3556870333803763 Zr
    velocity -0.2557937904086228 0.7047195876166229 0.2061934277755416
atom 26.1598264267197358 10.6442957773818403 6.3556870333803763 Zr
    velocity -0.1305954533145706 -0.2888780195344783 0.1261734329904582
atom 31.3138264267197393 10.6442957773818403 6.3556870333803763 Zr
    velocity 0.1744335377475725 -0.0805341100466138 0.5324169936497926
atom 36.4678264267197321 10.6442957773818403 6.3556870333803763 Zr
    velocity 0.5915047778622319 0.2535947037490470 0.1919119062298090
atom 0.3898264267197374 15.8552957773818406 6.3556870333803763 Zr
    velocity 0.1033687122986719 0.1782481703411148 -0.0621013641976731
atom 5.5438264267197379 15.8552957773818406 6.3556870333803763 Zr
    velocity 0.1087424795392685 0.1149682212383714 0.4325365363995322
atom 10.6978264267197360 15.8552957773818406 6.3556870333803763 Zr
    velocity 0.3729398748059242 -0.4587242410737054 0.3453105269026986
atom 15.8518264267197342 15.8552957773818406 6.3556870333803763 Zr
    velocity -0.0074990606814539 -0.6241015272730693 0.1611401220177156
atom 21.0058264267197359 15.8552957773818406 6.3556870333803763 Zr
    velocity -0.2429616266896487 0.1046786242265910 0.0932034843941181
atom 26.1598264267197358 15.8552957773818406 6.3556870333803763 Zr
    velocity -0.3080796125288304 -0.2060686098875492 0.2292306887766541
atom 31.3138264267197393 15.8552957773818406 6.3556870333803763 Zr
    velocity -0.2601192158831059 -0.4425473130411307 0.1525234031489163
atom 36.4678264267197321 15.8552957773818406 6.3556870333803763 Zr
    velocity -0.0747840390791943 0.3002897658906232 -0.2532155051306730
atom 0.3898264267197374 21.0662957773818391 6.3556870333803763 Zr
    velocity 0.1681692673593509 -0.2642729126085518 0.6241366499145905
atom 5.5438264267197379 21.0662957773818391 6.3556870333803763 Zr
    velocity -0.2902338240426080 0.0792653233154256 0.3579011042072374
atom 10.6978264267197360 21.0662957773818391 6.3556870333803763 Zr
    velocity 0.1768790682246622 0.2421424009647249 -0.0970612447531860
atom 15.8518264267197342 21.0662957773818391 6.3556870333803763 Zr
    velocity 0.4501307826594719 -0.4460410447277863 -0.2366874346325706
atom 21.0058264267197359 21.0662957773818391 6.3556870333803763 Zr
    velocity -0.1697103495256388 -0.2438711374751131 -0.7092675911605122
atom 26.1598264267197358 21.0662957773818391 6.3556870333803763 Zr
    velocity 0.1590546778838157 -0.1486802850379541 -0.5169316830618751
atom 31.3138264267197393 21.0662957773818391 6.3556870333803763 Zr
    velocity -0.5064943480439288 0.3251814318010117 -0.0985282014843033
atom 36.4678264267197321 21.0662957773818391 6.3556870333803763 Zr
    velocity -0.1545454759635080 -0.4793552823780871 -0.0670933036810017
atom 0.3898264267197374 26.2772957773818376 6.3556870333803763 Zr
    velocity 0.2444384562292585 -0.6708307045881042 0.0007357928721734
atom 5.5438264267197379 26.2772957773818376 6.3556870333803763 Zr
    velocity 0.2192972722152307 0.1975707654709173 0.3372838623607527
atom 10.6978264267197360 26.2772957773818376 6.3556870333803763 Zr
    velocity 0.4085036745034350 0.2096129866871455 0.0761177618869387
atom 15.8518264267197342 26.2772957773818376 6.3556870333803763 Zr
    velocity 0.2202160556519066 -0.1035802549149376 0.0284932777855833
atom 21.0058264267197359 26.2772957773818376 6.3556870333803763 Zr
    velocity -0.1785632808961195 -0.0908906694261582 -0.4036613093168942
atom 26.1598264267197358 26.2772957773818376 6.3556870333803763 Zr
    velocity 0.7037652689169615 0.3680166828605348 -0.0708104723053137
atom 31.3138264267197393 26.2772957773818376 6.3556870333803763 Zr
    velocity 0.4406324531639677 -0.1608633033333810 0.0536277269338315
atom 36.4678264267197321 26.2772957773818376 6.3556870333803763 Zr
    velocity 0.3677270181231587 0.1128287773991539 -0.1918513161708172
atom 0.3898264267197374 31.4882957773818397 6.3556870333803763 Zr
    velocity 0.0365412169761852 0.2788312501305428 -0.1011302956182085
atom 5.5438264267197379 31.4882957773818397 6.3556870333803763 Zr
    velocity 0.0043479506747123 -0.0390169075639092 0.4527340552472738
atom 10.6978264267197360 31.4882957773818397 6.3556870333803763 Zr
    velocity 0.0825510577336545 -0.0962921986010687 -0.1941458770039300
atom 15.8518264267197342 31.4882957773818397 6.3556870333803763 Zr
    velocity -0.2809371334211050 0.3291409832318708 -0.5266057516576601
atom 21.0058264267197359 31.4882957773818397 6.3556870333803763 Zr
    velocity -0.0880547977688609 -0.1634391125022660 0.1172766416538184
atom 26.1598264267197358 31.4882957773818397 6.3556870333803763 Zr
    velocity 0.0657115879004648 -0.5351108548207723 -0.4652848393916930
atom 31.3138264267197393 31.4882957773818397 6.3556870333803763 Zr
    velocity 0.1118583257673704 -0.1056467997550993 0.0482351528012069
atom 36.4678264267197321 31.4882957773818397 6.3556870333803763 Zr
    velocity 0.0814495943035992 0.1196548941946397 -0.1155236550151995
atom 0.3898264267197374 36.6992957773818418 6.3556870333803763 Zr
    velocity 0.3911255304073012 -0.7277301794538729 -0.3239616505173604
atom 5.5438264267197379 36.6992957773818418 6.3556870333803763 Zr
    velocity 0.6759399286262420 -0.1450029407515385 0.3107430245393527
atom 10.6978264267197360 36.6992957773818418 6.3556870333803763 Zr
    velocity -0.0544404867334633 0.8859923640368326 -0.1048116643436437
atom 15.8518264267197342 36.6992957773818418 6.3556870333803763 Zr
    velocity 0.1090068832914714 0.3097842549279345 0.3828664633381726
atom 21.0058264267197359 36.6992957773818418 6.3556870333803763 Zr
    velocity -0.4470030741508179 0.0075521250839696 0.0670025474779492
atom 26.1598264267197358 36.6992957773818418 6.3556870333803763 Zr
    velocity 0.1699804262001563 -0.5699928355689706 0.5981406558194617
atom 31.3138264267197393 36.6992957773818418 6.3556870333803763 Zr
    velocity 0.0963935182111841 0.0495295553877854 -0.4436924615564919
atom 36.4678264267197321 36.6992957773818418 6.3556870333803763 Zr
    velocity 0.2938509861318521 0.5630986456817884 0.3280096480854666
atom -0.4665622800075656 0.2222957773818360 11.6083323081909633 Zr
    velocity 0.0028458121003341 -0.1952430874160472 0.0376381327664161
atom 4.6874377199924346 0.2222957773818360 11.6083323081909633 Zr
    velocity 0.0565109598531770 -0.1673087306217807 -0.6568645625826941
atom 9.8414377199924346 0.2222957773818360 11.6083323081909633 Zr
    velocity -0.1696102383331825 -0.4475220312882527 0.3404266813623394
atom 14.9954377199924327 0.2222957773818360 11.6083323081909633 Zr
    velocity 0.1021082500538441 -0.0949634248740327 0.2584931226373013
atom 20.1494377199924308 0.2222957773818360 11.6083323081909633 Zr
    velocity 0.1210196885382772 0.6779337588535715 -0.3315669512369629
atom 25.3034377199924307 0.2222957773818360 11.6083323081909633 Zr
    velocity -0.2235689924563263 -0.3659173386495611 0.0169705074940886
atom 30.4574377199924342 0.2222957773818360 11.6083323081909633 Zr
    velocity 0.1349340874005023 -0.2031579185982317 -0.3883944504548028
atom 35.6114377199924306 0.2222957773818360 11.6083323081909633 Zr
    velocity 0.0926917401393304 0.0326430487189695 0.0281487174877890
atom -0.4665622800075656 5.4332957773818364 11.6083323081909633 Zr
    velocity 0.1484492230567479 0.2196227949831064 0.0768864839559271
atom 4.6874377199924346 5.4332957773818364 11.6083323081909633 Zr
    velocity -0.2110782069693637 0.3520191477121840 0.4727952343381893
atom 9.8414377199924346 5.4332957773818364 11.6083323081909633 Zr
    velocity 0.3850216809016773 0.6163079505116642 -0.1896155875942992
atom 14.9954377199924327 5.4332957773818364 11.6083323081909633 Zr
    velocity -0.3143498518301420 0.3465487185987944 0.4605499695634466
atom 20.1494377199924308 5.4332957773818364 11.6083323081909633 Zr
    velocity -0.3400089265043200 0.0393107258483021 0.2065894411728715
atom 25.3034377199924307 5.4332957773818364 11.6083323081909633 Zr
    velocity 0.0342984190863195 0.1608201434128679 0.2821169877351349
atom 30.4574377199924342 5.4332957773818364 11.6083323081909633 Zr
    velocity 0.2958331965313825 0.0287693537661803 0.0426519050222061
atom 35.6114377199924306 5.4332957773818364 11.6083323081909633 Zr
    velocity 0.1197960701943038 0.1945627761073767 -0.3021086793133541
atom -0.4665622800075656 10.6442957773818403 11.6083323081909633 Zr
    velocity 0.2338533654012882 0.0317649994656095 -0.2284234438323850
atom 4.6874377199924346 10.6442957773818403 11.6083323081909633 Zr
    velocity 0.0173980550407519 0.5457864748367289 -0.0708154474862275
atom 9.8414377199924346 10.6442957773818403 11.6083323081909633 Zr
    velocity -0.0472499463111746 -0.0346966821092825 -0.1055049048846493
atom 14.9954377199924327 10.6442957773818403 11.6083323081909633 Zr
    velocity 0.3198342007326885 -0.0033799611162980 -0.1345446465168800
atom 20.1494377199924308 10.6442957773818403 11.6083323081909633 Zr
    velocity -0.1065565446962699 0.0890808577583005 -0.2378801644792497
atom 25.3034377199924307 10.6442957773818403 11.6083323081909633 Zr
    velocity 0.0943943232635353 0.1482261193741228 -0.1846373335397760
atom 30.4574377199924342 10.6442957773818403 11.6083323081909633 Zr
    velocity -0.1676982513042840 0.4591838698560558 0.1684026980692329
atom 35.6114377199924306 10.6442957773818403 11.6083323081909633 Zr
    velocity 0.5976317537880349 0.1647981332188156 0.1980291014748123
atom -0.4665622800075656 15.8552957773818406 11.6083323081909633 Zr
    velocity -0.2377253013628225 -0.1522949596363060 0.4715420517419456
atom 4.6874377199924346 15.8552957773818406 11.6083323081909633 Zr
    velocity 0.0043446898339092 0.0673446261585424 -0.0062026600400823
atom 9.8414377199924346 15.8552957773818406 11.6083323081909633 Zr
    velocity -0.1347250612438539 -0.0981365717939947 -0.5349449037530480
atom 14.9954377199924327 15.8552957773818406 11.6083323081909633 Zr
    velocity -0.0724590531581963 0.0064213835358308 -0.1532302960585890
atom 20.1494377199924308 15.8552957773818406 11.6083323081909633 Zr
    velocity -0.0480362209228427 0.0226958181558919 -0.2258522912082466
atom 25.3034377199924307 15.8552957773818406 11.6083323081909633 Zr
    velocity 0.1203444428561057 0.6078870959475960 -0.2335141728602567
atom 30.4574377199924342 15.8552957773818406 11.6083323081909633 Zr
    velocity 0.0871252478360179 0.1700226943737950 -0.2144582727761728
atom 35.6114377199924306 15.8552957773818406 11.6083323081909633 Zr
    velocity 0.3057644562186269 0.0158023297015425 -0.3505059392507665
atom -0.4665622800075656 21.0662957773818391 11.6083323081909633 Zr
    velocity 0.0824043161776751 0.1541968512766178 -0.2607902376130457
atom 4.6874377199924346 21.0662957773818391 11.6083323081909633 Zr
    velocity 0.2237340711634558 0.1974476063318079 -0.2177009694397558
atom 9.8414377199924346 21.0662957773818391 11.6083323081909633 Zr
    velocity -0.4982129474314583 0.4061452831098041 -0.3634610472670615
atom 14.9954377199924327 21.0662957773818391 11.6083323081909633 Zr
    velocity -0.4086901131752428 -0.0183660771469725 0.1292253167437201
atom 20.1494377199924308 21.0662957773818391 11.6083323081909633 Zr
    velocity 0.4275709510751972 -0.2532935030033285 -0.2034491157807075
atom 25.3034377199924307 21.0662957773818391 11.6083323081909633 Zr
    velocity -0.0586844340072085 0.4978046072271173 -0.0065746411178273
atom 30.4574377199924342 21.0662957773818391 11.6083323081909633 Zr
    velocity -0.2929735615191571 -0.1039868276425447 0.3757787053100377
atom 35.6114377199924306 21.0662957773818391 11.6083323081909633 Zr
    velocity 0.1191870004351066 0.8120186203567340 -0.3888640118630322
atom -0.4665622800075656 26.2772957773818376 11.6083323081909633 Zr
    velocity -0.7270080233312594 0.1797304863538085 -0.0103331383576760
atom 4.6874377199924346 26.2772957773818376 11.6083323081909633 Zr
    velocity 0.0329556936884484 -0.0309188468100459 0.2155548873285637
atom 9.8414377199924346 26.2772957773818376 11.6083323081909633 Zr
    velocity -0.0134588734288853 0.2156359592193081 0.2484591050619022
atom 14.9954377199924327 26.2772957773818376 11.6083323081909633 Zr
    velocity -0.2719631038369584 0.4756099402626370 0.1186729492992892
atom 20.1494377199924308 26.2772957773818376 11.6083323081909633 Zr
    velocity 0.1945083346918085 0.3734284015065974 -0.2037727119646433
atom 25.3034377199924307 26.2772957773818376 11.6083323081909633 Zr
    velocity 0.1383426200888385 -0.2677189484554758 -0.2528720459710506
atom 30.4574377199924342 26.2772957773818376 11.6083323081909633 Zr
    velocity -0.4244462957357520 0.2793935087313469 0.0133576464162947
atom 35.6114377199924306 26.2772957773818376 11.6083323081909633 Zr
    velocity -0.4482438309565506 0.0221600439413111 0.1062154622534084
atom -0.4665622800075656 31.4882957773818397 11.6083323081909633 Zr
    velocity 0.0880633805915767 0.1739813999851490 -0.0407235893009339
atom 4.6874377199924346 31.4882957773818397 11.6083323081909633 Zr
    velocity -0.1380441751857078 0.3460893710011299 -0.7672539146284802
atom 9.8414377199924346 31.4882957773818397 11.6083323081909633 Zr
    velocity -0.3154747564465383 -0.1617204695026119 0.1883278902437459
atom 14.9954377199924327 31.4882957773818397 11.6083323081909633 Zr
    velocity 0.0551066647090174 0.1476224491391898 0.2996106793828401
atom 20.1494377199924308 31.4882957773818397 11.6083323081909633 Zr
    velocity -0.0149037437056845 0.1216752703996097 -0.1959496751891037
atom 25.3034377199924307 31.4882957773818397 11.6083323081909633 Zr
    velocity 0.3000988757300606 0.4249342532442265 -0.0984910117534589
atom 30.4574377199924342 31.4882957773818397 11.6083323081909633 Zr
    velocity 0.1009017831989540 0.1423788114481917 0.2292697866800069
atom 35.6114377199924306 31.4882957773818397 11.6083323081909633 Zr
    velocity 0.2085820628614425 0.1626412515753358 0.2663932272485478
atom -0.4665622800075656 36.6992957773818418 11.6083323081909633 Zr
    velocity 0.2279369264951493 0.1726353897200184 -0.0482490005632542
atom 4.6874377199924346 36.6992957773818418 11.6083323081909633 Zr
    velocity -0.3814332916913950 -0.4102999177516988 0.0131969393289819
atom 9.8414377199924346 36.6992957773818418 11.6083323081909633 Zr
    velocity 0.5364608291508139 -0.2783270071270829 -0.3924854381992641
atom 14.9954377199924327 36.6992957773818418 11.6083323081909633 Zr
    velocity -0.1666094458951324 0.1322138850724587 -0.1345103610931473
atom 20.1494377199924308 36.6992957773818418 11.6083323081909633 Zr
    velocity -0.1552828337875756 -0.0720297991308441 -0.2246898234058097
atom 25.3034377199924307 36.6992957773818418 11.6083323081909633 Zr
    velocity 0.3167101006098475 -0.1355528744219087 0.1093091215713724
atom 30.4574377199924342 36.6992957773818418 11.6083323081909633 Zr
    velocity -0.0789807946693561 -0.4443126722506336 -0.0291850882301092
atom 35.6114377199924306 36.6992957773818418 11.6083323081909633 Zr
    velocity -0.0831198904117000 0.3370934125830001 0.1460389397853469
atom -1.3229509867348679 0.2222957773818360 16.8609775830015458 Zr
    velocity -0.0755236272252289 -0.0639724305207013 -0.0242433721182381
atom 3.8310490132651323 0.2222957773818360 16.8609775830015458 Zr
    velocity -0.0785197331127937 0.0150852966245727 -0.2074137291773267
atom 8.9850490132651313 0.2222957773818360 16.8609775830015458 Zr
    velocity 0.1138659163278872 -0.1341504145128306 -0.1588356822525493
atom 14.1390490132651294 0.2222957773818360 16.8609775830015458 Zr
    velocity -0.2103167331383619 0.2007394737846343 0.3366856365935909
atom 19.2930490132651293 0.2222957773818360 16.8609775830015458 Zr
    velocity -0.0742644586832135 -0.1894737053080935 -0.0551483896961000
atom 24.4470490132651292 0.2222957773818360 16.8609775830015458 Zr
    velocity -0.1126644558418401 -0.5833607770227015 0.3274269944160442
atom 29.6010490132651327 0.2222957773818360 16.8609775830015458 Zr
    velocity 0.4703993745472672 0.0496192495221605 -0.0215320153170704
atom 34.7550490132651291 0.2222957773818360 16.8609775830015458 Zr
    velocity 0.0789550715150265 -0.0902390647573570 0.2420526471341925
atom -1.3229509867348679 5.4332957773818364 16.8609775830015458 Zr
    velocity -0.0598234327841282 0.1397055252909861 -0.2418359475932224
atom 3.8310490132651323 5.4332957773818364 16.8609775830015458 Zr
    velocity -0.3355589443462189 -0.3192195438373213 -0.2061298791306091
atom 8.9850490132651313 5.4332957773818364 16.8609775830015458 Zr
    velocity -0.1139458041101664 -0.0344357997782931 0.4812278076865931
atom 14.1390490132651294 5.4332957773818364 16.8609775830015458 Zr
    velocity -0.0550591943467573 -0.0708401968021407 -0.0853895414726688
atom 19.2930490132651293 5.4332957773818364 16.8609775830015458 Zr
    velocity -0.1519064467243453 -0.3988953148117538 0.0789705091501855
atom 24.4470490132651292 5.4332957773818364 16.8609775830015458 Zr
    velocity -0.0477778095532326 0.3389207331407553 -0.1823423548846475
atom 29.6010490132651327 5.4332957773818364 16.8609775830015458 Zr
    velocity -0.3034939637333947 0.0511240629321958 0.8545324409638602
atom 34.7550490132651291 5.4332957773818364 16.8609775830015458 Zr
    velocity 0.1333615435708476 -0.3993784769569456 -0.4256393428831046
atom -1.3229509867348679 10.6442957773818403 16.8609775830015458 Zr
    velocity -0.3908205837275018 -0.1291119825308512 0.1917363059765407
atom 3.8310490132651323 10.6442957773818403 16.8609775830015458 Zr
    velocity 0.5710269672042507 -0.1876715226502669 0.0521908600798185
atom 8.9850490132651313 10.6442957773818403 16.8609775830015458 Zr
    velocity -0.2263670549193021 0.0356256217904861 -0.1469852019556174
atom 14.1390490132651294 10.6442957773818403 16.8609775830015458 Zr