#=======================================================
# FHI-aims file: 600_geometry.in.primitive.supercell_8748.0010K
# Created using the Atomic Simulation Environment (ASE)
# Sat Nov 26 17:29:59 2022

# Additional information:
#  created from MB distrubtion
#  T = 10.0 K
#  quantum:             False
#  deterministic:       False
#  plus_minus:          False
#  gauge_eigenvectors:  False
#  Random seed:         1802579384
#  Sample number:       1
#=======================================================
lattice_vector 46.4489999999999981 0.0000000000000000 0.0000000000000000 
lattice_vector 0.0000000000000000 46.9170000000000016 0.0000000000000000 
lattice_vector -7.6413994325378685 0.0000000000000000 47.3574694711658992 
atom 1.2496942447473698 0.2223810952775864 1.1049938475211414 Zr
    velocity -0.0410120318145852 0.1481307871886433 0.5121951638456380
atom 6.4106942447473685 0.2223810952775864 1.1049938475211414 Zr
    velocity -0.0400598856600023 -0.1897661480288590 0.1460738419361139
atom 11.5716942447473627 0.2223810952775864 1.1049938475211414 Zr
    velocity 0.3185073806730168 -0.0427416287116550 -0.0837648968384064
atom 16.7326942447473606 0.2223810952775864 1.1049938475211414 Zr
    velocity -0.3951661200289381 0.1286270977625562 -0.0247308092478380
atom 21.8936942447473655 0.2223810952775864 1.1049938475211414 Zr
    velocity -0.1384239827294156 -0.2807488743929872 0.5847114319361747
atom 27.0546942447473633 0.2223810952775864 1.1049938475211414 Zr
    velocity 0.1225905080149282 0.0170069864706940 0.3979460685249178
atom 32.2156942447473682 0.2223810952775864 1.1049938475211414 Zr
    velocity 0.1177063980301830 -0.5507487817149106 -0.3679022276999908
atom 37.3766942447473625 0.2223810952775864 1.1049938475211414 Zr
    velocity 0.2728719074041367 -0.2029906889119149 0.0785095727337591
atom 42.5376942447473638 0.2223810952775864 1.1049938475211414 Zr
    velocity -0.2919416863254811 -0.1904600621231254 0.3027822142626250
atom 1.2496942447473698 5.4353810952775863 1.1049938475211414 Zr
    velocity -0.1623473434641661 -0.0610798311386073 -0.2949210103685414
atom 6.4106942447473685 5.4353810952775863 1.1049938475211414 Zr
    velocity 0.2928070330645114 -0.3665024038771972 0.0027708701697723
atom 11.5716942447473627 5.4353810952775863 1.1049938475211414 Zr
    velocity 0.2743501602986828 0.0707907037386544 -0.4759594243377095
atom 16.7326942447473606 5.4353810952775863 1.1049938475211414 Zr
    velocity -0.3817408606117725 -0.3170004896162973 -0.0936175036232867
atom 21.8936942447473655 5.4353810952775863 1.1049938475211414 Zr
    velocity -0.1285739100212761 0.1083665528345790 0.0595283724712459
atom 27.0546942447473633 5.4353810952775863 1.1049938475211414 Zr
    velocity 0.4588460110850530 -0.3462300947889094 -0.2627013908712627
atom 32.2156942447473682 5.4353810952775863 1.1049938475211414 Zr
    velocity 0.4019133324986265 0.3775096349494372 -0.1021181305218512
atom 37.3766942447473625 5.4353810952775863 1.1049938475211414 Zr
    velocity -0.8191275348595400 0.1737080864010404 0.0585832000010538
atom 42.5376942447473638 5.4353810952775863 1.1049938475211414 Zr
    velocity 0.0564833976609811 0.1691517144967021 0.3437433774947396
atom 1.2496942447473698 10.6483810952775908 1.1049938475211414 Zr
    velocity -0.3133992274800423 0.1189601672387537 0.0555332564076410
atom 6.4106942447473685 10.6483810952775908 1.1049938475211414 Zr
    velocity 0.4505922134815558 -0.0394156518909361 0.3363587622032633
atom 11.5716942447473627 10.6483810952775908 1.1049938475211414 Zr
    velocity -0.2940375731000961 0.2620256545107056 -0.2438753299950289
atom 16.7326942447473606 10.6483810952775908 1.1049938475211414 Zr
    velocity -0.1321659447349418 0.1263354769204950 -0.0506354018636521
atom 21.8936942447473655 10.6483810952775908 1.1049938475211414 Zr
    velocity 0.0938904918796881 -0.0004480425016409 -0.0591139743744988
atom 27.0546942447473633 10.6483810952775908 1.1049938475211414 Zr
    velocity 0.1335162461717595 0.1761489130142175 -0.0728599698314234
atom 32.2156942447473682 10.6483810952775908 1.1049938475211414 Zr
    velocity 0.0305735024658042 0.2583074108359564 -0.1691131624497552
atom 37.3766942447473625 10.6483810952775908 1.1049938475211414 Zr
    velocity 0.0356193279991541 -0.0810853249371531 0.2146123123720479
atom 42.5376942447473638 10.6483810952775908 1.1049938475211414 Zr
    velocity 0.3158994000560650 0.1262844355018473 0.1743948347395996
atom 1.2496942447473698 15.8613810952775882 1.1049938475211414 Zr
    velocity 0.2186205200175372 -0.2142604107040618 0.3917706702902056
atom 6.4106942447473685 15.8613810952775882 1.1049938475211414 Zr
    velocity 0.1683175893511671 -0.0694768115313167 0.0517806105506141
atom 11.5716942447473627 15.8613810952775882 1.1049938475211414 Zr
    velocity 0.6087149948711146 -0.2311151106622772 0.0428692872519268
atom 16.7326942447473606 15.8613810952775882 1.1049938475211414 Zr
    velocity -0.0335604514553265 0.0853524651551050 -0.0737454582983425
atom 21.8936942447473655 15.8613810952775882 1.1049938475211414 Zr
    velocity -0.1234416909684402 0.3952286932873966 0.0735826288522575
atom 27.0546942447473633 15.8613810952775882 1.1049938475211414 Zr
    velocity 0.3961377132745856 0.4831565503767888 0.0873028486627660
atom 32.2156942447473682 15.8613810952775882 1.1049938475211414 Zr
    velocity 0.0970903957396404 -0.4558521457262549 -0.2283246156404547
atom 37.3766942447473625 15.8613810952775882 1.1049938475211414 Zr
    velocity 0.2433978121755131 -0.6985822152680192 0.3353277823661475
atom 42.5376942447473638 15.8613810952775882 1.1049938475211414 Zr
    velocity -0.0276265536685826 -0.0125383735423807 -0.3517733624229479
atom 1.2496942447473698 21.0743810952775874 1.1049938475211414 Zr
    velocity -0.4732738400818426 0.8499328402615471 0.1113194402578063
atom 6.4106942447473685 21.0743810952775874 1.1049938475211414 Zr
    velocity -0.1026521294493465 -0.6867544325826243 -0.7569825360043750
atom 11.5716942447473627 21.0743810952775874 1.1049938475211414 Zr
    velocity -0.1576150168492610 0.0812521179902577 -0.2898477628615420
atom 16.7326942447473606 21.0743810952775874 1.1049938475211414 Zr
    velocity -0.1820165310482958 0.2319890914802857 0.0747213743975064
atom 21.8936942447473655 21.0743810952775874 1.1049938475211414 Zr
    velocity 0.4321397342589929 -0.0877685070806990 -0.5634245016369267
atom 27.0546942447473633 21.0743810952775874 1.1049938475211414 Zr
    velocity -0.1373850684737679 0.7386073449689464 -0.0631376942160399
atom 32.2156942447473682 21.0743810952775874 1.1049938475211414 Zr
    velocity -0.2988952653819955 0.2802565819556496 -0.0543237276190330
atom 37.3766942447473625 21.0743810952775874 1.1049938475211414 Zr
    velocity 0.0101568532596050 -0.1629297314760507 0.4757149529581502
atom 42.5376942447473638 21.0743810952775874 1.1049938475211414 Zr
    velocity -0.1537824752182629 0.5816532113573917 0.1095424977676472
atom 1.2496942447473698 26.2873810952775884 1.1049938475211414 Zr
    velocity -0.5139727987091978 -0.2933552576509065 -0.1091729502503944
atom 6.4106942447473685 26.2873810952775884 1.1049938475211414 Zr
    velocity 0.6212002025476343 -0.7503017487417470 0.4456408483733944
atom 11.5716942447473627 26.2873810952775884 1.1049938475211414 Zr
    velocity 0.1973959711804264 0.2406389903333065 -0.2099103616907214
atom 16.7326942447473606 26.2873810952775884 1.1049938475211414 Zr
    velocity 0.3702802029395979 0.4392562268345556 -0.1093347998284090
atom 21.8936942447473655 26.2873810952775884 1.1049938475211414 Zr
    velocity 0.1462940169535118 -0.0502903895514537 -0.0840481312584223
atom 27.0546942447473633 26.2873810952775884 1.1049938475211414 Zr
    velocity 0.4872881771744911 0.3913903842233948 0.7043582280903148
atom 32.2156942447473682 26.2873810952775884 1.1049938475211414 Zr
    velocity 0.2213900871871989 -0.0496146771327028 -0.2833850619470858
atom 37.3766942447473625 26.2873810952775884 1.1049938475211414 Zr
    velocity 0.0562615451342215 0.4114121764993978 -0.0284298057368541
atom 42.5376942447473638 26.2873810952775884 1.1049938475211414 Zr
    velocity 0.2123307381170467 0.5942942216836423 0.2658774388952939
atom 1.2496942447473698 31.5003810952775858 1.1049938475211414 Zr
    velocity -0.0862003523341609 0.2810806353645603 0.1283451917119915
atom 6.4106942447473685 31.5003810952775858 1.1049938475211414 Zr
    velocity 0.2253791176167665 0.0170523571993752 -0.3087108408753872
atom 11.5716942447473627 31.5003810952775858 1.1049938475211414 Zr
    velocity 0.0339853102374169 0.2987073000458895 0.1682275495888405
atom 16.7326942447473606 31.5003810952775858 1.1049938475211414 Zr
    velocity 0.4706444984427923 -0.1085952116356296 0.1080673290387657
atom 21.8936942447473655 31.5003810952775858 1.1049938475211414 Zr
    velocity -0.4135624798569075 -0.3590658784403356 0.4312797342829573
atom 27.0546942447473633 31.5003810952775858 1.1049938475211414 Zr
    velocity -0.2467923115190231 -0.3892869074114007 0.0181188208368909
atom 32.2156942447473682 31.5003810952775858 1.1049938475211414 Zr
    velocity 0.2362029931447669 0.0270405242172933 0.0456454822821683
atom 37.3766942447473625 31.5003810952775858 1.1049938475211414 Zr
    velocity -0.1376764224186152 0.1821904131336989 0.2844323433959408
atom 42.5376942447473638 31.5003810952775858 1.1049938475211414 Zr
    velocity -0.2441410304526762 -0.0063077659330361 -0.0775456406557053
atom 1.2496942447473698 36.7133810952775974 1.1049938475211414 Zr
    velocity 0.2173853495610613 0.0282223544192276 0.3040856037467307
atom 6.4106942447473685 36.7133810952775974 1.1049938475211414 Zr
    velocity 0.1400142518061787 -0.0609040662104680 -0.0362686520997476
atom 11.5716942447473627 36.7133810952775974 1.1049938475211414 Zr
    velocity 0.4554505699225076 0.0422378124079769 0.1271701207377400
atom 16.7326942447473606 36.7133810952775974 1.1049938475211414 Zr
    velocity -0.1777300564051390 -0.1484378158203184 -0.2414677341110018
atom 21.8936942447473655 36.7133810952775974 1.1049938475211414 Zr
    velocity -0.4816158714393438 0.1955851607382616 0.2302459744167945
atom 27.0546942447473633 36.7133810952775974 1.1049938475211414 Zr
    velocity -0.3900561664490187 -0.0681512860984987 -0.0264662281542730
atom 32.2156942447473682 36.7133810952775974 1.1049938475211414 Zr
    velocity 0.1794933063839645 -0.1241506849431870 -0.5089566073534489
atom 37.3766942447473625 36.7133810952775974 1.1049938475211414 Zr
    velocity 0.0007631762973658 -0.3139874890992518 0.4907151682707321
atom 42.5376942447473638 36.7133810952775974 1.1049938475211414 Zr
    velocity -0.0209813202948890 -0.1104406851855037 -0.1226207317236400
atom 1.2496942447473698 41.9263810952775842 1.1049938475211414 Zr
    velocity 0.3952848800221965 0.0609019315072996 -0.6741993725324694
atom 6.4106942447473685 41.9263810952775842 1.1049938475211414 Zr
    velocity -0.3089857915047435 0.2911675288444555 0.2280411684405583
atom 11.5716942447473627 41.9263810952775842 1.1049938475211414 Zr
    velocity 0.2039514589579033 -0.3562568882907744 0.2191651073829321
atom 16.7326942447473606 41.9263810952775842 1.1049938475211414 Zr
    velocity 0.1865076192316591 -0.0340837582104059 0.0414841461790715
atom 21.8936942447473655 41.9263810952775842 1.1049938475211414 Zr
    velocity -0.2846848179682243 -0.0437600779702663 -0.2854573859837098
atom 27.0546942447473633 41.9263810952775842 1.1049938475211414 Zr
    velocity 0.4751094572020335 -0.0783271223231392 -0.2764749254636019
atom 32.2156942447473682 41.9263810952775842 1.1049938475211414 Zr
    velocity 0.5685756477476439 0.9081088988624172 0.1644396711688579
atom 37.3766942447473625 41.9263810952775842 1.1049938475211414 Zr
    velocity 0.4340599810837376 0.0540333818413293 -0.1302653999384401
atom 42.5376942447473638 41.9263810952775842 1.1049938475211414 Zr
    velocity 0.3673815920108276 -0.5155034996224466 -0.2361925127440867
atom 0.4006498633542733 0.2223810952775864 6.3669348998729074 Zr
    velocity -0.0013886338197473 0.0256454870295085 0.0006499637276987
atom 5.5616498633542726 0.2223810952775864 6.3669348998729074 Zr
    velocity -0.1832153174861496 0.4613213638085498 0.6070802479194569
atom 10.7226498633542668 0.2223810952775864 6.3669348998729074 Zr
    velocity 0.2442665042553900 0.1523340498241033 -0.1465411881696627
atom 15.8836498633542647 0.2223810952775864 6.3669348998729074 Zr
    velocity 0.3544720505581058 -0.3243410592021330 -0.1238264541261966
atom 21.0446498633542696 0.2223810952775864 6.3669348998729074 Zr
    velocity 0.1514110478627189 -0.1709454394660030 -0.1291559427353245
atom 26.2056498633542674 0.2223810952775864 6.3669348998729074 Zr
    velocity -0.4084100874109258 0.2200649653713765 0.2077641718090107
atom 31.3666498633542723 0.2223810952775864 6.3669348998729074 Zr
    velocity 0.1230690817623618 0.1198464588000045 0.2555037464601614
atom 36.5276498633542630 0.2223810952775864 6.3669348998729074 Zr
    velocity -0.4416629664118177 0.4755550061553494 0.1100417803218903
atom 41.6886498633542644 0.2223810952775864 6.3669348998729074 Zr
    velocity 0.2297817619510071 -0.2791482192636637 0.5800684390094950
atom 0.4006498633542733 5.4353810952775863 6.3669348998729074 Zr
    velocity -0.1346440119536177 0.5285444937882959 0.1286593100603936
atom 5.5616498633542726 5.4353810952775863 6.3669348998729074 Zr
    velocity 0.1192741155867995 -0.2922929571501251 -0.3149307571979988
atom 10.7226498633542668 5.4353810952775863 6.3669348998729074 Zr
    velocity 0.0709182395403787 0.3712029931484234 0.7033241678895847
atom 15.8836498633542647 5.4353810952775863 6.3669348998729074 Zr
    velocity -0.0037016757840021 -0.3499359817097920 -0.1102368097506921
atom 21.0446498633542696 5.4353810952775863 6.3669348998729074 Zr
    velocity 0.1437086413083984 -0.1513254492242976 0.2262795435627105
atom 26.2056498633542674 5.4353810952775863 6.3669348998729074 Zr
    velocity 0.1897381810825008 -0.0481383988019985 -0.1195856900445972
atom 31.3666498633542723 5.4353810952775863 6.3669348998729074 Zr
    velocity -0.4623131046184950 -0.1710480919762808 0.4613986372185903
atom 36.5276498633542630 5.4353810952775863 6.3669348998729074 Zr
    velocity -0.1148545997450912 0.0063416291785056 -0.0508839483712831
atom 41.6886498633542644 5.4353810952775863 6.3669348998729074 Zr
    velocity -0.2123804290840404 0.2400465494848164 -0.0246921855970858
atom 0.4006498633542733 10.6483810952775908 6.3669348998729074 Zr
    velocity 0.1754513843696362 -0.0194645339613760 0.0001239809091838
atom 5.5616498633542726 10.6483810952775908 6.3669348998729074 Zr
    velocity -0.4416849185041719 0.1170590634444223 -0.2561255738082566
atom 10.7226498633542668 10.6483810952775908 6.3669348998729074 Zr
    velocity -0.4509282761579848 -0.1388316245347370 0.3866032642336207
atom 15.8836498633542647 10.6483810952775908 6.3669348998729074 Zr
    velocity -0.4332882200394859 0.6662064177603629 -0.0917703194792688
atom 21.0446498633542696 10.6483810952775908 6.3669348998729074 Zr
    velocity -0.6891999698443737 0.2864643573472309 -0.1137887965636597
atom 26.2056498633542674 10.6483810952775908 6.3669348998729074 Zr
    velocity -0.1413261824673336 -0.0237024320444970 0.2128916399065682
atom 31.3666498633542723 10.6483810952775908 6.3669348998729074 Zr
    velocity -0.0889174921037843 0.1691657162246681 0.3393865540590025
atom 36.5276498633542630 10.6483810952775908 6.3669348998729074 Zr
    velocity -0.0619168989656219 0.2872695134207547 -0.6042270053374906
atom 41.6886498633542644 10.6483810952775908 6.3669348998729074 Zr
    velocity 0.2005491267057305 -0.2562738550116306 -0.0378857894665687
atom 0.4006498633542733 15.8613810952775882 6.3669348998729074 Zr
    velocity 0.1832453354550260 -0.3797586667553407 0.4176222120791467
atom 5.5616498633542726 15.8613810952775882 6.3669348998729074 Zr
    velocity -0.2324198928704758 -0.5126982567425774 0.0211182345884047
atom 10.7226498633542668 15.8613810952775882 6.3669348998729074 Zr
    velocity 0.5195107233982109 0.1470592747990470 0.0320514911951263
atom 15.8836498633542647 15.8613810952775882 6.3669348998729074 Zr
    velocity 0.4360533177208345 -0.1849892268242831 -0.3774540226469538
atom 21.0446498633542696 15.8613810952775882 6.3669348998729074 Zr
    velocity -0.2313753343507677 -0.1083514281251961 0.4772792558894968
atom 26.2056498633542674 15.8613810952775882 6.3669348998729074 Zr
    velocity 0.2573257367372785 0.2763874050428674 0.3469082166910477
atom 31.3666498633542723 15.8613810952775882 6.3669348998729074 Zr
    velocity 0.2757939068750296 -0.4543462380766061 0.4808783599728222
atom 36.5276498633542630 15.8613810952775882 6.3669348998729074 Zr
    velocity -0.4506799000421433 -0.1045987713367547 -0.5915244491759304
atom 41.6886498633542644 15.8613810952775882 6.3669348998729074 Zr
    velocity 0.1147055487876284 -0.4489724297967203 -0.2832827806919563
atom 0.4006498633542733 21.0743810952775874 6.3669348998729074 Zr
    velocity 0.0716843935659837 0.3353746341884037 -0.0240591702978112
atom 5.5616498633542726 21.0743810952775874 6.3669348998729074 Zr
    velocity 0.4224947078282069 0.3507349650958250 -0.5354781852696857
atom 10.7226498633542668 21.0743810952775874 6.3669348998729074 Zr
    velocity -0.0319622233523556 0.3797713599609733 0.1636630850056012
atom 15.8836498633542647 21.0743810952775874 6.3669348998729074 Zr
    velocity -0.1106459251099358 0.3759018905256697 0.2534620485948323
atom 21.0446498633542696 21.0743810952775874 6.3669348998729074 Zr
    velocity -0.2576828344328136 -0.1690675376913056 0.3159322571665393
atom 26.2056498633542674 21.0743810952775874 6.3669348998729074 Zr
    velocity -0.3872134194328264 0.0960120959281194 0.3438329796131983
atom 31.3666498633542723 21.0743810952775874 6.3669348998729074 Zr
    velocity 0.0990196295181266 -0.3608626881473026 -0.0621180067619927
atom 36.5276498633542630 21.0743810952775874 6.3669348998729074 Zr
    velocity -0.2258464704977511 0.0509855729201770 -0.2556593757156372
atom 41.6886498633542644 21.0743810952775874 6.3669348998729074 Zr
    velocity 0.1915053566081784 -0.3567943336700671 0.0532730810616035
atom 0.4006498633542733 26.2873810952775884 6.3669348998729074 Zr
    velocity -0.2243143959169606 0.4857510303230405 -0.0601906602063119
atom 5.5616498633542726 26.2873810952775884 6.3669348998729074 Zr
    velocity -0.0250325187305749 0.4447968891050072 0.4096739725642030
atom 10.7226498633542668 26.2873810952775884 6.3669348998729074 Zr
    velocity -0.3562887727732811 0.1109020888424492 -0.0410380610840712
atom 15.8836498633542647 26.2873810952775884 6.3669348998729074 Zr
    velocity -0.1049699745283318 0.1632280328607053 -0.2913762444621149
atom 21.0446498633542696 26.2873810952775884 6.3669348998729074 Zr
    velocity -0.1390162274769588 0.1767769668460706 -0.4436050527674562
atom 26.2056498633542674 26.2873810952775884 6.3669348998729074 Zr
    velocity -0.2813424157772290 -0.2835743831394767 -0.1801251975644923
atom 31.3666498633542723 26.2873810952775884 6.3669348998729074 Zr
    velocity 0.0695697783945403 0.3719113047008376 -0.0928849654102308
atom 36.5276498633542630 26.2873810952775884 6.3669348998729074 Zr
    velocity 0.0474214263098801 -0.0683393910495099 0.9087733119274023
atom 41.6886498633542644 26.2873810952775884 6.3669348998729074 Zr
    velocity 0.1617494610050349 0.3286333872360313 0.0040925510379841
atom 0.4006498633542733 31.5003810952775858 6.3669348998729074 Zr
    velocity 0.2399252036132795 -0.3211273648702187 -0.0362478752717212
atom 5.5616498633542726 31.5003810952775858 6.3669348998729074 Zr
    velocity -0.3275993354485068 -0.5194422544658110 -0.2488070056529781
atom 10.7226498633542668 31.5003810952775858 6.3669348998729074 Zr
    velocity -0.1692645221315782 0.1838503641128676 -0.4666529573395769
atom 15.8836498633542647 31.5003810952775858 6.3669348998729074 Zr
    velocity -0.3355092144889786 0.2847743855165629 0.3443551636898570
atom 21.0446498633542696 31.5003810952775858 6.3669348998729074 Zr
    velocity -0.1826476429819378 -0.1377091869778435 -0.1033451788867096
atom 26.2056498633542674 31.5003810952775858 6.3669348998729074 Zr
    velocity -0.1482536553263666 0.4604405744898720 -0.2917513667051047
atom 31.3666498633542723 31.5003810952775858 6.3669348998729074 Zr
    velocity 0.1652094683172707 -0.4519907290038578 -0.3339267926971621
atom 36.5276498633542630 31.5003810952775858 6.3669348998729074 Zr
    velocity 0.1528120218942099 -0.3147073825992410 -0.3724474781046494
atom 41.6886498633542644 31.5003810952775858 6.3669348998729074 Zr
    velocity 0.2494814610327850 -0.2581017300098107 0.4310480643785705
atom 0.4006498633542733 36.7133810952775974 6.3669348998729074 Zr
    velocity -0.3379267931472475 -0.1653702473859052 -0.1716582251873721
atom 5.5616498633542726 36.7133810952775974 6.3669348998729074 Zr
    velocity -0.0142594233402498 0.2124530455314961 0.1462593000843736
atom 10.7226498633542668 36.7133810952775974 6.3669348998729074 Zr
    velocity -0.0788812038954952 -0.0625507364616146 -0.1748865519203389
atom 15.8836498633542647 36.7133810952775974 6.3669348998729074 Zr
    velocity -0.3429527792060056 0.0717361957684732 0.1130531406744280
atom 21.0446498633542696 36.7133810952775974 6.3669348998729074 Zr
    velocity -0.3913638977088009 -0.0311559355406634 -0.3262235446692387
atom 26.2056498633542674 36.7133810952775974 6.3669348998729074 Zr
    velocity -0.7231056153264568 -0.2756125819251053 0.3720237132398644
atom 31.3666498633542723 36.7133810952775974 6.3669348998729074 Zr
    velocity -0.0155374551368601 -0.0214072915591341 -0.0111697147570115
atom 36.5276498633542630 36.7133810952775974 6.3669348998729074 Zr
    velocity 0.0406968676406094 0.3552938468672626 0.1311121926398203
atom 41.6886498633542644 36.7133810952775974 6.3669348998729074 Zr
    velocity -0.0179385756551197 0.1019660137811149 -0.2009349904791802
atom 0.4006498633542733 41.9263810952775842 6.3669348998729074 Zr
    velocity -0.2591693882163243 0.3741618112616300 0.3412264664323244
atom 5.5616498633542726 41.9263810952775842 6.3669348998729074 Zr
    velocity -0.2315648793132022 -0.4785361074746161 0.2758972148551866
atom 10.7226498633542668 41.9263810952775842 6.3669348998729074 Zr
    velocity -0.4668000447189135 -0.2926942607282554 0.0176420310947974
atom 15.8836498633542647 41.9263810952775842 6.3669348998729074 Zr
    velocity -0.4988923590792451 -0.0507217905095488 0.4598424011043035
atom 21.0446498633542696 41.9263810952775842 6.3669348998729074 Zr
    velocity 0.6253559421300445 0.3832682915568491 0.1157009471691501
atom 26.2056498633542674 41.9263810952775842 6.3669348998729074 Zr
    velocity 0.3897084224788551 0.3313569700349591 -0.2856612761510215
atom 31.3666498633542723 41.9263810952775842 6.3669348998729074 Zr
    velocity -0.3199028937042494 -0.1520354897325970 -0.2281439743982993
atom 36.5276498633542630 41.9263810952775842 6.3669348998729074 Zr
    velocity 0.0748398762827388 -0.5306184932746696 0.1454678906284264
atom 41.6886498633542644 41.9263810952775842 6.3669348998729074 Zr
    velocity 0.5828952331752789 -0.0778945431650936 0.0385855580032272
atom -0.4483945180388231 0.2223810952775864 11.6288759522246732 Zr
    velocity 0.0321839523171697 -0.2635051765769437 -0.0058092645701868
atom 4.7126054819611758 0.2223810952775864 11.6288759522246732 Zr
    velocity -0.0936435867597428 -0.3392822676444504 0.3168750605786532
atom 9.8736054819611709 0.2223810952775864 11.6288759522246732 Zr
    velocity 0.4045572858247301 -0.6210757502547437 0.0299111270382427
atom 15.0346054819611687 0.2223810952775864 11.6288759522246732 Zr
    velocity -0.0067651819705898 0.2702424822480108 0.5165196876821653
atom 20.1956054819611737 0.2223810952775864 11.6288759522246732 Zr
    velocity 0.4965070150624379 0.1953550848079198 0.2346561435955616
atom 25.3566054819611715 0.2223810952775864 11.6288759522246732 Zr
    velocity 0.0516180560369810 -0.0251403563735322 -0.3043303299817215
atom 30.5176054819611764 0.2223810952775864 11.6288759522246732 Zr
    velocity -0.8375639009889797 -0.3489264646317871 0.3286520865219373
atom 35.6786054819611707 0.2223810952775864 11.6288759522246732 Zr
    velocity 0.1605305756962501 -0.1574186273676082 0.0735778033366026
atom 40.8396054819611720 0.2223810952775864 11.6288759522246732 Zr
    velocity 0.2480830123374067 0.4727865269640597 0.3886679982267498
atom -0.4483945180388231 5.4353810952775863 11.6288759522246732 Zr
    velocity -0.1939803247163459 0.2668137480599385 0.0187116639050751
atom 4.7126054819611758 5.4353810952775863 11.6288759522246732 Zr
    velocity 0.0378063734903020 0.0949178802084854 -0.1732897589786834
atom 9.8736054819611709 5.4353810952775863 11.6288759522246732 Zr
    velocity 0.2732691337873198 0.2789366534260915 -0.0854879471900256
atom 15.0346054819611687 5.4353810952775863 11.6288759522246732 Zr
    velocity -0.0381782446696060 -0.4706212908040601 -0.0692907761387851
atom 20.1956054819611737 5.4353810952775863 11.6288759522246732 Zr
    velocity 0.3122046818632399 0.0416695873323108 0.2808822872836376
atom 25.3566054819611715 5.4353810952775863 11.6288759522246732 Zr
    velocity 0.0062966489089886 0.0919142059542712 -0.6087608823575991
atom 30.5176054819611764 5.4353810952775863 11.6288759522246732 Zr
    velocity -0.3104539764488706 0.2587882161821294 -0.3916101763934767
atom 35.6786054819611707 5.4353810952775863 11.6288759522246732 Zr
    velocity -0.4155205991065209 0.7259460438227685 -0.1862374188018757
atom 40.8396054819611720 5.4353810952775863 11.6288759522246732 Zr
    velocity -0.1744009185698945 -0.0927062250264359 -0.0366358624537481
atom -0.4483945180388231 10.6483810952775908 11.6288759522246732 Zr
    velocity -0.7028846477216388 0.1657301930048489 0.1125421326453206
atom 4.7126054819611758 10.6483810952775908 11.6288759522246732 Zr
    velocity -0.0831435946213799 -0.1014016569564677 -0.3576965185265992
atom 9.8736054819611709 10.6483810952775908 11.6288759522246732 Zr
    velocity -0.3129227180499087 0.0701513607216924 0.2043498330254078
atom 15.0346054819611687 10.6483810952775908 11.6288759522246732 Zr
    velocity -0.1086272752184493 0.2608491897270670 0.3310686274393776
atom 20.1956054819611737 10.6483810952775908 11.6288759522246732 Zr
    velocity 0.2064787848891352 0.2949356531414853 0.4262266848664336
atom 25.3566054819611715 10.6483810952775908 11.6288759522246732 Zr
    velocity 0.4539477529193069 0.0842101013866485 0.1236321353721390
atom 30.5176054819611764 10.6483810952775908 11.6288759522246732 Zr
    velocity 0.4719402257453150 -0.2504598390687468 0.1922429362779077
atom 35.6786054819611707 10.6483810952775908 11.6288759522246732 Zr
    velocity 0.2686590038590330 -0.0098693347417267 -0.3787611459593486
atom 40.8396054819611720 10.6483810952775908 11.6288759522246732 Zr
    velocity -0.1755606088714751 -0.2149167876667155 0.1688441763061407
atom -0.4483945180388231 15.8613810952775882 11.6288759522246732 Zr
    velocity 0.4470452322712551 -0.4501698293569751 0.3768327213601037
atom 4.7126054819611758 15.8613810952775882 11.6288759522246732 Zr
    velocity -0.0099257817327409 -0.0143412871287246 0.0053358715978798
atom 9.8736054819611709 15.8613810952775882 11.6288759522246732 Zr
    velocity 0.1041317726658335 0.4067402029381904 0.0614964332991261
atom 15.0346054819611687 15.8613810952775882 11.6288759522246732 Zr
    velocity -0.4230374043468773 0.2278508348717083 0.1283210420685865
atom 20.1956054819611737 15.8613810952775882 11.6288759522246732 Zr
    velocity 0.0651374812879921 0.4684251783117497 -0.2202471658359108
atom 25.3566054819611715 15.8613810952775882 11.6288759522246732 Zr
    velocity -0.4685934892303287 0.6533075995512140 0.0563094678769112
atom 30.5176054819611764 15.8613810952775882 11.6288759522246732 Zr
    velocity -0.3401883258975944 -0.0616520087349682 -0.1618685357986632
atom 35.6786054819611707 15.8613810952775882 11.6288759522246732 Zr
    velocity -0.4557203247288822 0.0024142392330761 -0.1239014172645889
atom 40.8396054819611720 15.8613810952775882 11.6288759522246732 Zr
    velocity 0.0327995717202948 0.1052263914154947 -0.0129434477197876
atom -0.4483945180388231 21.0743810952775874 11.6288759522246732 Zr
    velocity -0.2094498574570774 0.0276001065958139 0.7781179066046704
atom 4.7126054819611758 21.0743810952775874 11.6288759522246732 Zr
    velocity -0.0480542170667754 -0.3561196440799975 0.2352602880713835
atom 9.8736054819611709 21.0743810952775874 11.6288759522246732 Zr
    velocity 0.1034068077669241 -0.0342869223254075 -0.2022558538189120
atom 15.0346054819611687 21.0743810952775874 11.6288759522246732 Zr
    velocity -0.0097217389990199 0.6013500980237095 -0.7028551380794920
atom 20.1956054819611737 21.0743810952775874 11.6288759522246732 Zr
    velocity 0.2557991026929434 -0.0728639802865999 -0.2591065798387786
atom 25.3566054819611715 21.0743810952775874 11.6288759522246732 Zr
    velocity -0.3372983371549707 0.0196406073321910 0.0222802320997559
atom 30.5176054819611764 21.0743810952775874 11.6288759522246732 Zr
    velocity -0.1663003182834862 -0.3439357942840651 0.2465446962668325
atom 35.6786054819611707 21.0743810952775874 11.6288759522246732 Zr
    velocity -0.3045943105682843 -0.2448096703885102 -0.5795236186202991
atom 40.8396054819611720 21.0743810952775874 11.6288759522246732 Zr
    velocity -0.4260988117383308 0.2337187539628529 -0.1190852334057072
atom -0.4483945180388231 26.2873810952775884 11.6288759522246732 Zr
    velocity 0.2924288841195710 -0.1296355102662791 0.0935471168508960
atom 4.7126054819611758 26.2873810952775884 11.6288759522246732 Zr
    velocity 0.5440868687914260 0.3898743330000089 0.2924660063966473
atom 9.8736054819611709 26.2873810952775884 11.6288759522246732 Zr
    velocity -0.0038089747227349 0.2121878920830487 0.0405383161050805
atom 15.0346054819611687 26.2873810952775884 11.6288759522246732 Zr
    velocity -0.2088088964588033 -0.1347837726581317 0.1708326317636560
atom 20.1956054819611737 26.2873810952775884 11.6288759522246732 Zr