#=======================================================
# FHI-aims file: 600_geometry.in.primitive.supercell_324.0010K
# Created using the Atomic Simulation Environment (ASE)
# Sat Nov 26 17:29:06 2022

# Additional information:
#  created from MB distrubtion
#  T = 10.0 K
#  quantum:             False
#  deterministic:       False
#  plus_minus:          False
#  gauge_eigenvectors:  False
#  Random seed:         1396054278
#  Sample number:       1
#=======================================================
lattice_vector 15.4829999999999988 0.0000000000000000 0.0000000000000000 
lattice_vector 0.0000000000000000 15.6389999999999993 0.0000000000000000 
lattice_vector -2.5471331441792895 0.0000000000000000 15.7858231570553009 
atom 1.2496942447473685 0.2223810952775880 1.1049938475211398 Zr
    velocity -0.3005904291620128 -0.3618378875793849 -0.1273203065429331
atom 6.4106942447473685 0.2223810952775880 1.1049938475211398 Zr
    velocity 0.3034612313573162 -0.0450330003015032 0.0799169239672878
atom 11.5716942447473681 0.2223810952775880 1.1049938475211398 Zr
    velocity -0.0460916237514847 0.1774270536628735 0.0064703709090009
atom 1.2496942447473685 5.4353810952775872 1.1049938475211398 Zr
    velocity -0.0015472019974584 0.6872131599269381 0.0449004697864893
atom 6.4106942447473685 5.4353810952775872 1.1049938475211398 Zr
    velocity -0.1731740684779167 -0.2465523478385214 -0.1310417535766986
atom 11.5716942447473681 5.4353810952775872 1.1049938475211398 Zr
    velocity 0.3325256996413106 -0.2997240974062542 0.1730220401027823
atom 1.2496942447473685 10.6483810952775872 1.1049938475211398 Zr
    velocity -0.1300597054419564 -0.1309270913166448 0.1361781803039348
atom 6.4106942447473685 10.6483810952775872 1.1049938475211398 Zr
    velocity 0.1263165899919040 0.1423027331107188 -0.2052565062412778
atom 11.5716942447473681 10.6483810952775872 1.1049938475211398 Zr
    velocity -0.2203084376784941 0.3356541745241429 0.2654165835240715
atom 0.4006498633542718 0.2223810952775880 6.3669348998729074 Zr
    velocity 0.9039191638014410 0.0292958361595783 -0.0514939973868336
atom 5.5616498633542717 0.2223810952775880 6.3669348998729074 Zr
    velocity -0.3785497343250447 0.1935573984675409 0.2316017327701674
atom 10.7226498633542722 0.2223810952775880 6.3669348998729074 Zr
    velocity 0.3044838608536969 -0.3846068550292038 0.3882585596385820
atom 0.4006498633542718 5.4353810952775872 6.3669348998729074 Zr
    velocity -0.5164929737608833 -0.4745320475531304 0.0343183021408871
atom 5.5616498633542717 5.4353810952775872 6.3669348998729074 Zr
    velocity -0.0458318644270990 -0.3099900464456158 -0.0197253186624069
atom 10.7226498633542722 5.4353810952775872 6.3669348998729074 Zr
    velocity -0.4585699193376124 0.2114897602727703 -0.1721948365984997
atom 0.4006498633542718 10.6483810952775872 6.3669348998729074 Zr
    velocity -0.0191984294781264 -0.1516374977124466 -0.1344544327928154
atom 5.5616498633542717 10.6483810952775872 6.3669348998729074 Zr
    velocity -0.1968160268671479 -0.0207750765049404 -0.4362215795127602
atom 10.7226498633542722 10.6483810952775872 6.3669348998729074 Zr
    velocity 0.0140594931243397 -0.4594293165436840 -0.3316360810873041
atom -0.4483945180388247 0.2223810952775880 11.6288759522246750 Zr
    velocity 0.0175386601853663 -0.5551272291125987 -0.2360052766117421
atom 4.7126054819611749 0.2223810952775880 11.6288759522246750 Zr
    velocity 0.4172200530427018 0.0744128128850530 0.1839655863283295
atom 9.8736054819611763 0.2223810952775880 11.6288759522246750 Zr
    velocity -0.1012319559428212 -0.0716065425310726 -0.2428554338722686
atom -0.4483945180388247 5.4353810952775872 11.6288759522246750 Zr
    velocity 0.4506229903105184 -0.0925879037566216 0.1496244700735274
atom 4.7126054819611749 5.4353810952775872 11.6288759522246750 Zr
    velocity 0.4726399766984811 0.3227257105577138 -0.0794579626758333
atom 9.8736054819611763 5.4353810952775872 11.6288759522246750 Zr
    velocity 0.0241293892969735 -0.4055546391592763 -0.0982498494209365
atom -0.4483945180388247 10.6483810952775872 11.6288759522246750 Zr
    velocity -0.1150733677642556 0.2692814195022322 -0.0977323501738985
atom 4.7126054819611749 10.6483810952775872 11.6288759522246750 Zr
    velocity 0.0958276728884695 0.2539396290309756 -0.4342848066722149
atom 9.8736054819611763 10.6483810952775872 11.6288759522246750 Zr
    velocity -0.2268273707294227 -0.5997585495123473 -0.0765415470024783
atom 3.0622610677959141 4.9906189047224112 4.1569472784978023 Zr
    velocity -0.1051637748595250 -0.5942989480477533 -0.0586695266490773
atom 8.2232610677959119 4.9906189047224112 4.1569472784978023 Zr
    velocity 0.0969342626460861 0.2920354824449401 0.0543401150681833
atom 13.3842610677959097 4.9906189047224112 4.1569472784978023 Zr
    velocity 0.1880711025870892 -0.1182426863684814 -0.0519398954410254
atom 3.0622610677959141 10.2036189047224113 4.1569472784978023 Zr
    velocity 0.0075130284196622 0.6513692977081794 -0.0024742940197871
atom 8.2232610677959119 10.2036189047224113 4.1569472784978023 Zr
    velocity -0.0852529572968531 0.1631484264438032 0.0463165378581060
atom 13.3842610677959097 10.2036189047224113 4.1569472784978023 Zr
    velocity 0.2482022384484206 -0.2554836845595348 0.3868909844800968
atom 3.0622610677959141 15.4166189047224087 4.1569472784978023 Zr
    velocity 0.2421010855206941 0.1105013613129163 0.1048589516430231
atom 8.2232610677959119 15.4166189047224087 4.1569472784978023 Zr
    velocity 0.1531075651306625 -0.1336340803240558 -0.0164248340322073
atom 13.3842610677959097 15.4166189047224087 4.1569472784978023 Zr
    velocity -0.3473840428717862 -0.1063891907232052 -0.1376947316953321
atom 2.2132166864028182 4.9906189047224112 9.4188883308495654 Zr
    velocity 0.4029930029513274 0.0985998558243772 0.2965349627394984
atom 7.3742166864028169 4.9906189047224112 9.4188883308495654 Zr
    velocity -0.5942205674767956 -0.3324731713361576 -0.4095914628495553
atom 12.5352166864028138 4.9906189047224112 9.4188883308495654 Zr
    velocity -0.0619135373811460 0.0829890001119328 -0.0326627323672903
atom 2.2132166864028182 10.2036189047224113 9.4188883308495654 Zr
    velocity -0.1305789953152518 -0.4395317824121669 0.1149481149821175
atom 7.3742166864028169 10.2036189047224113 9.4188883308495654 Zr
    velocity 0.0696192677777767 0.1763147083477790 0.5423434658335369
atom 12.5352166864028138 10.2036189047224113 9.4188883308495654 Zr
    velocity -0.4046357165800545 0.5372522616774339 0.0540565312151758
atom 2.2132166864028182 15.4166189047224087 9.4188883308495654 Zr
    velocity 0.0678578262202329 0.1238657142280478 -0.4330752960173203
atom 7.3742166864028169 15.4166189047224087 9.4188883308495654 Zr
    velocity 0.4255488755427506 0.0471480496642552 -0.2054505266588472
atom 12.5352166864028138 15.4166189047224087 9.4188883308495654 Zr
    velocity 0.0932312396778020 0.3715233721768755 0.2796862255618655
atom 1.3641723050097216 4.9906189047224112 14.6808293832013330 Zr
    velocity 0.0794770491203077 0.5969382493647437 -0.3804450190224067
atom 6.5251723050097183 4.9906189047224112 14.6808293832013330 Zr
    velocity 0.1418726324236103 0.3982570923362541 -0.1818864962043434
atom 11.6861723050097179 4.9906189047224112 14.6808293832013330 Zr
    velocity -0.3948539975912148 0.2528649041849225 -0.4872412702936558
atom 1.3641723050097216 10.2036189047224113 14.6808293832013330 Zr
    velocity 0.3089622678811493 -0.1459167477342118 0.7210987941110608
atom 6.5251723050097183 10.2036189047224113 14.6808293832013330 Zr
    velocity -0.0637817375241533 0.1962103681904856 0.1775284152184219
atom 11.6861723050097179 10.2036189047224113 14.6808293832013330 Zr
    velocity -0.2595635721879854 -0.1269705285677809 -0.1722949775855857
atom 1.3641723050097216 15.4166189047224087 14.6808293832013330 Zr
    velocity -0.2153708890740323 -0.3393779728552436 0.0391828356506015
atom 6.5251723050097183 15.4166189047224087 14.6808293832013330 Zr
    velocity -0.1886894037919150 -0.1200091856769241 0.2544789118869978
atom 11.6861723050097179 15.4166189047224087 14.6808293832013330 Zr
    velocity -0.0026015942477759 -0.2557571973669385 -0.1822741196243292
atom 3.4867832584924625 2.8288810952775885 1.5259767523219179 Zr
    velocity 0.3070233595139198 -0.0418268212670379 0.3053225173696826
atom 8.6477832584924617 2.8288810952775885 1.5259767523219179 Zr
    velocity -0.1161169621884131 0.7221287833864914 0.0936305733438467
atom 13.8087832584924595 2.8288810952775885 1.5259767523219179 Zr
    velocity 0.0605291136270052 0.2382265948949711 0.0152564708677318
atom 3.4867832584924625 8.0418810952775885 1.5259767523219179 Zr
    velocity 0.3607797464149934 -0.3735090065193817 -0.0878081145440618
atom 8.6477832584924617 8.0418810952775885 1.5259767523219179 Zr
    velocity 0.0108270515776497 0.0060780191654211 0.2834201452603484
atom 13.8087832584924595 8.0418810952775885 1.5259767523219179 Zr
    velocity 0.2362633303210042 0.0782395099470378 -0.2428057763514216
atom 3.4867832584924625 13.2548810952775877 1.5259767523219179 Zr
    velocity 0.1866534143283103 -0.1400588615166370 -0.1929603678728144
atom 8.6477832584924617 13.2548810952775877 1.5259767523219179 Zr
    velocity 0.5807758536220411 0.5546340270391713 -0.4579305534051026
atom 13.8087832584924595 13.2548810952775877 1.5259767523219179 Zr
    velocity -0.1456425769781280 0.1486876305116611 -0.1002052366685094
atom 2.6377388770993662 2.8288810952775885 6.7879178046736861 Zr
    velocity 0.0725716381645864 0.4926561453390594 0.1256011300880786
atom 7.7987388770993640 2.8288810952775885 6.7879178046736861 Zr
    velocity 0.3435893762804980 -0.0761580002734619 -0.1357230696811375
atom 12.9597388770993618 2.8288810952775885 6.7879178046736861 Zr
    velocity 0.0969581352269057 -0.2008674343519322 0.0049208050995339
atom 2.6377388770993662 8.0418810952775885 6.7879178046736861 Zr
    velocity 0.0295000515266222 0.3004619751110468 0.5498856253175175
atom 7.7987388770993640 8.0418810952775885 6.7879178046736861 Zr
    velocity 0.3240648490879478 0.4570327277601537 -0.0438199584368872
atom 12.9597388770993618 8.0418810952775885 6.7879178046736861 Zr
    velocity 0.1177644610444535 -0.3224300127837709 0.2092029337269059
atom 2.6377388770993662 13.2548810952775877 6.7879178046736861 Zr
    velocity -0.3619650403313386 0.2071984770469108 0.1835357520987721
atom 7.7987388770993640 13.2548810952775877 6.7879178046736861 Zr
    velocity 0.0901612720379062 0.0753258370434312 -0.1541926436076566
atom 12.9597388770993618 13.2548810952775877 6.7879178046736861 Zr
    velocity -0.0364638043132493 -0.5435006132274273 0.0054854061697240
atom 1.7886944957062698 2.8288810952775885 12.0498588570254501 Zr
    velocity -0.2367767330711027 0.0844982917125477 0.1867550049519284
atom 6.9496944957062681 2.8288810952775885 12.0498588570254501 Zr
    velocity 0.2626772276629504 0.0225226431001678 0.2217773415652755
atom 12.1106944957062659 2.8288810952775885 12.0498588570254501 Zr
    velocity 0.3162503779569949 0.1186363005343691 -0.2097601483394733
atom 1.7886944957062698 8.0418810952775885 12.0498588570254501 Zr
    velocity -0.8188930875638829 0.2513419150451967 -0.4353512673853407
atom 6.9496944957062681 8.0418810952775885 12.0498588570254501 Zr
    velocity -0.0055413808060881 -0.0070155265073983 0.0111664213168630
atom 12.1106944957062659 8.0418810952775885 12.0498588570254501 Zr
    velocity 0.0421567040756102 0.1084337214270537 -0.3631794526561527
atom 1.7886944957062698 13.2548810952775877 12.0498588570254501 Zr
    velocity 0.3112321608624825 0.7503311634221598 -0.2653443471145029
atom 6.9496944957062681 13.2548810952775877 12.0498588570254501 Zr
    velocity 0.2273117321110791 0.3405636100240907 0.0292022457950477
atom 12.1106944957062659 13.2548810952775877 12.0498588570254501 Zr
    velocity 0.0189684881796889 0.5987788028942966 0.2192537861877422
atom 0.8251720540508201 2.3841189047224107 3.7359643736970236 Zr
    velocity 0.6428458056117435 0.2073258757691669 -0.1995817808714619
atom 5.9861720540508196 2.3841189047224107 3.7359643736970236 Zr
    velocity 0.1851342826954561 -0.3129149113702942 -0.1765520033075601
atom 11.1471720540508219 2.3841189047224107 3.7359643736970236 Zr
    velocity -0.3481938110089024 -0.2049410294417703 0.4055219587293765
atom 0.8251720540508201 7.5971189047224117 3.7359643736970236 Zr
    velocity 0.0551135426438345 0.5938291561898209 0.8308331379317739
atom 5.9861720540508196 7.5971189047224117 3.7359643736970236 Zr
    velocity 0.1500986205807829 0.3377660574738761 -0.0330847687723489
atom 11.1471720540508219 7.5971189047224117 3.7359643736970236 Zr
    velocity -0.1159227762276868 0.0166064649937849 -0.1663622551564917
atom 0.8251720540508201 12.8101189047224100 3.7359643736970236 Zr
    velocity -0.2693463602915751 -0.2828232277517073 0.2883687252580974
atom 5.9861720540508196 12.8101189047224100 3.7359643736970236 Zr
    velocity 0.6812777787048524 0.1697593621343439 -0.1306303354398955
atom 11.1471720540508219 12.8101189047224100 3.7359643736970236 Zr
    velocity -0.6916678098954321 -0.6339306243028605 0.1530512641722318
atom -0.0238723273422765 2.3841189047224107 8.9979054260487921 Zr
    velocity 0.2750647440590254 -0.4350482535262005 0.1211754686633382
atom 5.1371276726577237 2.3841189047224107 8.9979054260487921 Zr
    velocity -0.3163163210431180 -0.0645962108175796 0.4511304586293174
atom 10.2981276726577260 2.3841189047224107 8.9979054260487921 Zr
    velocity -0.1369066541117474 -0.1415652628752248 0.1502290772035483
atom -0.0238723273422765 7.5971189047224117 8.9979054260487921 Zr
    velocity 0.0081465460254330 -0.1595846292511260 0.1300590069351105
atom 5.1371276726577237 7.5971189047224117 8.9979054260487921 Zr
    velocity -0.0783570213186704 -0.5638667740868200 0.5071457822543217
atom 10.2981276726577260 7.5971189047224117 8.9979054260487921 Zr
    velocity -0.3017738613524926 -0.2995623626913674 -0.0171477097302881
atom -0.0238723273422765 12.8101189047224100 8.9979054260487921 Zr
    velocity -0.1743897504502395 -0.0333184164427154 0.1400987977681434
atom 5.1371276726577237 12.8101189047224100 8.9979054260487921 Zr
    velocity -0.2684810991823960 -0.0858357292058873 -0.2456052036504041
atom 10.2981276726577260 12.8101189047224100 8.9979054260487921 Zr
    velocity -0.1799590626503205 -0.3196012514328281 -0.4090440820177970
atom -0.8729167087353729 2.3841189047224107 14.2598464784005579 Zr
    velocity 0.2694020898034779 -0.1996804394243294 -0.0826497720809342
atom 4.2880832912646270 2.3841189047224107 14.2598464784005579 Zr
    velocity 0.0123935156221959 -0.2880808720940538 -0.0554544686817894
atom 9.4490832912646319 2.3841189047224107 14.2598464784005579 Zr
    velocity 0.0479345179389005 0.3798797517383271 0.2211522585855452
atom -0.8729167087353729 7.5971189047224117 14.2598464784005579 Zr
    velocity -0.5324009049793188 -0.4134636175162887 0.1050409998078847
atom 4.2880832912646270 7.5971189047224117 14.2598464784005579 Zr
    velocity 0.0322130189363970 0.1728230194453755 -0.0668557013579244
atom 9.4490832912646319 7.5971189047224117 14.2598464784005579 Zr
    velocity 0.1417185258936421 -0.0001389015778155 0.5254513501485381
atom -0.8729167087353729 12.8101189047224100 14.2598464784005579 Zr
    velocity -0.1285679764014109 0.0791940558641943 -0.2225946766786603
atom 4.2880832912646270 12.8101189047224100 14.2598464784005579 Zr
    velocity 0.1664634520541910 -0.4117827656491462 -0.3746618822955776
atom 9.4490832912646319 12.8101189047224100 14.2598464784005579 Zr
    velocity -0.3698116252170969 0.4871514250627866 -0.2842539172219934
atom 0.0675623114728654 1.7458718729014677 1.8031539676470696 O
    velocity -0.2691926885091533 -0.9646858346030368 -0.4574812461378745
atom 5.2285623114728628 1.7458718729014677 1.8031539676470696 O
    velocity -0.6149226512785039 1.1689654273363426 0.5092267380108845
atom 10.3895623114728632 1.7458718729014677 1.8031539676470696 O
    velocity -0.9727291660412782 -0.0345924224069763 -0.5888799026828037
atom 0.0675623114728654 6.9588718729014669 1.8031539676470696 O
    velocity -0.3522433013160615 -0.8694336927269197 0.8184643618151517
atom 5.2285623114728628 6.9588718729014669 1.8031539676470696 O
    velocity 0.4612293664497866 0.8754558431510638 -1.5276710326830671
atom 10.3895623114728632 6.9588718729014669 1.8031539676470696 O
    velocity -1.1361321597034593 -0.4858847402617783 0.5189296945260139
atom 0.0675623114728654 12.1718718729014661 1.8031539676470696 O
    velocity -0.9344189047834629 -0.2329636114394470 -0.0786333377740499
atom 5.2285623114728628 12.1718718729014661 1.8031539676470696 O
    velocity 0.8515389493397583 -0.0641917243841151 -0.3060012777141351
atom 10.3895623114728632 12.1718718729014661 1.8031539676470696 O
    velocity -0.7144365743147678 -0.0345243056070668 -0.7443182637962483
atom -0.7814820699202309 1.7458718729014677 7.0650950199988358 O
    velocity -0.5839795112948012 -0.7871547286089874 -0.3440121894545328
atom 4.3795179300797660 1.7458718729014677 7.0650950199988358 O
    velocity -0.5644406352295870 0.5747486140186916 0.3763179412546333
atom 9.5405179300797673 1.7458718729014677 7.0650950199988358 O
    velocity -0.3375202779467382 0.0660001805873538 0.8501730430395928
atom -0.7814820699202309 6.9588718729014669 7.0650950199988358 O
    velocity -0.0911119194330477 -0.8219854672506582 -0.6711819294258928
atom 4.3795179300797660 6.9588718729014669 7.0650950199988358 O
    velocity -0.6062953400192532 0.8872753492465876 -0.8831749432775339
atom 9.5405179300797673 6.9588718729014669 7.0650950199988358 O
    velocity -0.4943995898028863 -0.4010533957846236 0.3728226872667734
atom -0.7814820699202309 12.1718718729014661 7.0650950199988358 O
    velocity -1.1725827091434871 0.8975356096550542 1.3307363332958762
atom 4.3795179300797660 12.1718718729014661 7.0650950199988358 O
    velocity -0.0471693902561586 -0.5216704709484002 -0.5041387203120524
atom 9.5405179300797673 12.1718718729014661 7.0650950199988358 O
    velocity 0.8987304332820555 -0.7339064176221568 0.1464185833162473
atom -1.6305264513133275 1.7458718729014677 12.3270360723506034 O
    velocity -0.6811934872409254 0.1772995742332695 0.5153204132322625
atom 3.5304735486866696 1.7458718729014677 12.3270360723506034 O
    velocity 0.4919600422923002 0.3133074316723049 -0.9967142034543832
atom 8.6914735486866697 1.7458718729014677 12.3270360723506034 O
    velocity -0.4363275201998585 -0.2837023979268341 -0.2036368541206741
atom -1.6305264513133275 6.9588718729014669 12.3270360723506034 O
    velocity -0.4956498133735144 -0.2791574538109000 -1.1556871177476244
atom 3.5304735486866696 6.9588718729014669 12.3270360723506034 O
    velocity 0.5405840022827988 1.5040680237532174 0.4927783476270463
atom 8.6914735486866697 6.9588718729014669 12.3270360723506034 O
    velocity 0.5104319819864269 0.6112880801330839 -0.2655297613535637
atom -1.6305264513133275 12.1718718729014661 12.3270360723506034 O
    velocity -0.5241236698500510 -0.4560344614342048 0.0658686705386293
atom 3.5304735486866696 12.1718718729014661 12.3270360723506034 O
    velocity -0.0398291954464657 0.1236163913543667 1.5063118277874139
atom 8.6914735486866697 12.1718718729014661 12.3270360723506034 O
    velocity 0.0378655862248057 0.3837574795984540 -1.1818299106468235
atom 4.2443930010704172 3.4671281270985310 3.4587871583718734 O
    velocity 1.2379388150185311 0.6299699105570774 -0.2649891846999699
atom 9.4053930010704150 3.4671281270985310 3.4587871583718734 O
    velocity -1.4605767304947039 -1.2390673832371504 -0.4229928146555302
atom 14.5663930010704181 3.4671281270985310 3.4587871583718734 O
    velocity 0.9519418089611764 1.0348538560296481 -0.1409076280946513
atom 4.2443930010704172 8.6801281270985307 3.4587871583718734 O
    velocity -0.7547022093984547 1.2355538717813721 0.0216090617552272
atom 9.4053930010704150 8.6801281270985307 3.4587871583718734 O
    velocity 0.1363398756617276 0.2322085767175510 -0.6379588082952632
atom 14.5663930010704181 8.6801281270985307 3.4587871583718734 O
    velocity 1.6143246562815243 0.2101586771904523 -0.3281783013492510
atom 4.2443930010704172 13.8931281270985316 3.4587871583718734 O
    velocity 1.5437957702530631 0.3746886245063766 0.0069996716326416
atom 9.4053930010704150 13.8931281270985316 3.4587871583718734 O
    velocity -0.5698269464909774 -1.1811473670453518 -0.3064079624790109
atom 14.5663930010704181 13.8931281270985316 3.4587871583718734 O
    velocity -0.5683444660866629 -1.0559043567812081 -1.1632488718032594
atom 3.3953486196773213 3.4671281270985310 8.7207282107236388 O
    velocity -0.0854752413982379 -0.4300026687868067 0.4842742686954151
atom 8.5563486196773155 3.4671281270985310 8.7207282107236388 O
    velocity -0.5046354388338994 -0.3473952903321680 0.8203787362196800
atom 13.7173486196773187 3.4671281270985310 8.7207282107236388 O
    velocity 1.0937795576624900 -0.3928256778217993 0.1876497387376596
atom 3.3953486196773213 8.6801281270985307 8.7207282107236388 O
    velocity 0.8290045015253789 0.6444550161016083 0.0783711535730465
atom 8.5563486196773155 8.6801281270985307 8.7207282107236388 O
    velocity 0.2517256616083612 -0.3277616033878882 0.8153135429842919
atom 13.7173486196773187 8.6801281270985307 8.7207282107236388 O
    velocity -1.3055675058928911 0.0593830252169757 -1.0278571291015826
atom 3.3953486196773213 13.8931281270985316 8.7207282107236388 O
    velocity -0.3527931022506997 -0.7271948111647288 -0.9471019679575020
atom 8.5563486196773155 13.8931281270985316 8.7207282107236388 O
    velocity 0.0725456627439835 0.5513938432343233 0.3568270151789165
atom 13.7173486196773187 13.8931281270985316 8.7207282107236388 O
    velocity 0.9094064097077493 -1.7961477929883267 1.4903747930225701
atom 2.5463042382842245 3.4671281270985310 13.9826692630754064 O
    velocity -0.8234558864596695 -0.9708288890328852 -0.5124466748402866
atom 7.7073042382842214 3.4671281270985310 13.9826692630754064 O
    velocity 1.3028671736731032 0.2477740216390315 1.3219713789156886
atom 12.8683042382842245 3.4671281270985310 13.9826692630754064 O
    velocity 1.2833998860961982 0.4300189937352877 -0.0673861139462648
atom 2.5463042382842245 8.6801281270985307 13.9826692630754064 O
    velocity -0.4927590592900338 -1.1566876361343899 0.6752758999244824
atom 7.7073042382842214 8.6801281270985307 13.9826692630754064 O
    velocity 0.7604023020670608 0.7318389635952762 -0.1113828997529206
atom 12.8683042382842245 8.6801281270985307 13.9826692630754064 O
    velocity 0.9058871140719854 0.3397458291855354 -0.9051586116260530
atom 2.5463042382842245 13.8931281270985316 13.9826692630754064 O
    velocity -0.9169704540121683 -0.8524653903509585 0.8704089424593711
atom 7.7073042382842214 13.8931281270985316 13.9826692630754064 O
    velocity -0.3368554042055720 -0.5197576205482627 -0.6280885830550499
atom 12.8683042382842245 13.8931281270985316 13.9826692630754064 O
    velocity -0.5544113186347537 0.6165882600838215 -0.1830493221307015
atom 4.6689151917669660 4.3523718729014673 0.8278166321959898 O
    velocity -0.9007281878089470 -0.9115535360651957 0.7209028851376559
atom 9.8299151917669629 4.3523718729014673 0.8278166321959898 O
    velocity -0.2147271668802671 0.1304237511737839 0.2545596006724140
atom 14.9909151917669661 4.3523718729014673 0.8278166321959898 O
    velocity -0.5712581785055230 0.0347799299941083 -0.9321996393733266
atom 4.6689151917669660 9.5653718729014674 0.8278166321959898 O
    velocity -0.1466275870670433 -0.6191895678265850 0.1016946095126715
atom 9.8299151917669629 9.5653718729014674 0.8278166321959898 O
    velocity -0.0024588908974448 -0.8338923848456843 0.3647472492158538
atom 14.9909151917669661 9.5653718729014674 0.8278166321959898 O
    velocity -0.7316484185398513 0.7314430013231535 0.7550346285181189
atom 4.6689151917669660 14.7783718729014666 0.8278166321959898 O
    velocity -0.3278460650067314 0.1321242870355971 -0.2726400121303247
atom 9.8299151917669629 14.7783718729014666 0.8278166321959898 O
    velocity -0.3148714005644521 0.8149332707978946 -0.0085755790906476
atom 14.9909151917669661 14.7783718729014666 0.8278166321959898 O
    velocity 0.2183277529566224 -0.8156910846071493 -0.7196127759966210
atom 3.8198708103738692 4.3523718729014673 6.0897576845477559 O
    velocity 0.2237781027906373 0.5015272440502857 0.7475423844704059
atom 8.9808708103738670 4.3523718729014673 6.0897576845477559 O
    velocity -0.1189004201484063 1.1695352511480503 -0.6229450860605753
atom 14.1418708103738702 4.3523718729014673 6.0897576845477559 O
    velocity 0.0405685847771807 0.9966188575247624 -0.4556437770099924
atom 3.8198708103738692 9.5653718729014674 6.0897576845477559 O
    velocity -0.9624430821690844 0.0555462275703445 -0.0913667808494054
atom 8.9808708103738670 9.5653718729014674 6.0897576845477559 O
    velocity -0.1174720559358886 -0.8823743442284617 -0.1786728925877301
atom 14.1418708103738702 9.5653718729014674 6.0897576845477559 O
    velocity -0.5358649417944134 1.0917567821825542 0.1510105213787589
atom 3.8198708103738692 14.7783718729014666 6.0897576845477559 O
    velocity 0.1713411020019844 -0.1737064927357727 -0.4871100148189884
atom 8.9808708103738670 14.7783718729014666 6.0897576845477559 O
    velocity 0.2831541619738612 -0.3778740433478214 -1.2003630381557480
atom 14.1418708103738702 14.7783718729014666 6.0897576845477559 O
    velocity 0.3828498054504995 -1.0764942577701848 0.3778549011620523
atom 2.9708264289807729 4.3523718729014673 11.3516987368995235 O
    velocity -1.5017637596566642 0.5921672270676667 0.8969297831865430
atom 8.1318264289807694 4.3523718729014673 11.3516987368995235 O
    velocity -0.4134015583887113 -0.2955526506872291 0.7571947461040804
atom 13.2928264289807725 4.3523718729014673 11.3516987368995235 O
    velocity -0.3765489694450557 1.5640817448655058 -0.5974223960983175
atom 2.9708264289807729 9.5653718729014674 11.3516987368995235 O
    velocity 1.0539745428154612 0.0716651848085154 -0.3947816854129212
atom 8.1318264289807694 9.5653718729014674 11.3516987368995235 O
    velocity 0.2051112954205774 -0.7240606757587922 -0.1011828449208919
atom 13.2928264289807725 9.5653718729014674 11.3516987368995235 O
    velocity -0.4990340510434670 0.3048220885535465 1.8973064434650193
atom 2.9708264289807729 14.7783718729014666 11.3516987368995235 O
    velocity 0.4490691887209389 -0.1441471564104002 1.0225838667657161
atom 8.1318264289807694 14.7783718729014666 11.3516987368995235 O
    velocity 0.1939935932460502 0.4730983223892632 1.0186147868000450
atom 13.2928264289807725 14.7783718729014666 11.3516987368995235 O
    velocity 0.4012165085847817 0.6957502718806554 1.0476803865891515
atom -0.3569598792236830 0.8606281270985324 4.4341244938229538 O
    velocity 0.5295555924150477 -1.0420354268031509 -0.0996245631995910
atom 4.8040401207763139 0.8606281270985324 4.4341244938229538 O
    velocity 0.1189188340335632 0.2082727693558311 0.3644737962656970
atom 9.9650401207763153 0.8606281270985324 4.4341244938229538 O
    velocity -0.4941145846004782 1.2115550370122012 0.3379972151990575
atom -0.3569598792236830 6.0736281270985319 4.4341244938229538 O
    velocity -0.7526096519267854 -0.5560450877856710 0.4985594982386630
atom 4.8040401207763139 6.0736281270985319 4.4341244938229538 O
    velocity -0.1953933501289457 0.2941928951171382 -0.3711789615429521
atom 9.9650401207763153 6.0736281270985319 4.4341244938229538 O
    velocity -0.0801294885110089 -0.0677904855867691 0.0457105291441717
atom -0.3569598792236830 11.2866281270985329 4.4341244938229538 O
    velocity 1.3894920572267153 -0.3162953356799391 0.4700414075454874
atom 4.8040401207763139 11.2866281270985329 4.4341244938229538 O
    velocity 1.4171083997198284 -0.5485429430705541 -0.5435662140587713
atom 9.9650401207763153 11.2866281270985329 4.4341244938229538 O
    velocity 0.4183365646436783 -0.6702115064139652 -0.3578016129698530
atom -1.2060042606167793 0.8606281270985324 9.6960655461747205 O
    velocity -0.3896492777399080 -1.1710050646765038 -0.0239347462117073
atom 3.9549957393832180 0.8606281270985324 9.6960655461747205 O
    velocity 0.0015256373565306 -0.4612704355785940 -1.0962575687372400
atom 9.1159957393832176 0.8606281270985324 9.6960655461747205 O
    velocity 0.3272654252276830 1.2933068633204190 -0.2599775072660707
atom -1.2060042606167793 6.0736281270985319 9.6960655461747205 O
    velocity 0.5681208528904184 0.1036706220277216 -0.3308261054809986
atom 3.9549957393832180 6.0736281270985319 9.6960655461747205 O
    velocity -0.4649724732674653 0.2939561599750472 0.4844776300089783
atom 9.1159957393832176 6.0736281270985319 9.6960655461747205 O
    velocity 0.2228086169962698 1.0106509093465126 0.3024237092386037
atom -1.2060042606167793 11.2866281270985329 9.6960655461747205 O
    velocity -0.7623116504070359 0.2170380403281262 -0.1427874236174609
atom 3.9549957393832180 11.2866281270985329 9.6960655461747205 O
    velocity 0.5124795486494810 -0.4666339859502078 -1.6765939100375327
atom 9.1159957393832176 11.2866281270985329 9.6960655461747205 O
    velocity -0.0231981527436109 -0.3527603399245403 -0.2545373570358124
atom -2.0550486420098757 0.8606281270985324 14.9580065985264863 O
    velocity -0.4747746693315368 0.1495987217956801 -1.2863152709094741
atom 3.1059513579901217 0.8606281270985324 14.9580065985264863 O
    velocity -0.3989412188585391 0.4751648070865724 -0.5740662475325664
atom 8.2669513579901217 0.8606281270985324 14.9580065985264863 O
    velocity -0.9406918151064232 0.6131775569981662 -0.7815275511364719
atom -2.0550486420098757 6.0736281270985319 14.9580065985264863 O
    velocity 0.5185161890589037 -0.2061038884482240 0.7168705840847309
atom 3.1059513579901217 6.0736281270985319 14.9580065985264863 O
    velocity 0.0198804327243943 0.3586255269664258 -0.0746083362902890
atom 8.2669513579901217 6.0736281270985319 14.9580065985264863 O
    velocity 0.2859391102007172 0.1480774152951982 -1.5870770355752915