#=======================================================
# FHI-aims file: 600_geometry.in.primitive.supercell_2592.0010K
# Created using the Atomic Simulation Environment (ASE)
# Sat Nov 26 17:29:19 2022

# Additional information:
#  created from MB distrubtion
#  T = 10.0 K
#  quantum:             False
#  deterministic:       False
#  plus_minus:          False
#  gauge_eigenvectors:  False
#  Random seed:         731327582
#  Sample number:       1
#=======================================================
lattice_vector 30.9659999999999975 0.0000000000000000 0.0000000000000000 
lattice_vector 0.0000000000000000 31.2779999999999987 0.0000000000000000 
lattice_vector -5.0942662883585790 0.0000000000000000 31.5716463141106018 
atom 1.2496942447473667 0.2223810952775880 1.1049938475211414 Zr
    velocity 0.1674534848755702 -0.2761501675746788 -0.3631463489969365
atom 6.4106942447473676 0.2223810952775880 1.1049938475211414 Zr
    velocity -0.0787381449071511 0.1044633379382694 -0.0741509125557757
atom 11.5716942447473681 0.2223810952775880 1.1049938475211414 Zr
    velocity 0.1819493008464245 -0.4350640831820200 -0.3207202079145885
atom 16.7326942447473641 0.2223810952775880 1.1049938475211414 Zr
    velocity 0.2858651531385439 -0.6268772138364495 -0.3662630668337634
atom 21.8936942447473619 0.2223810952775880 1.1049938475211414 Zr
    velocity 0.0335896033769556 0.2144500490748842 -0.0613473969039847
atom 27.0546942447473633 0.2223810952775880 1.1049938475211414 Zr
    velocity -0.4039562477043057 -0.2057671804040155 0.2155076808675426
atom 1.2496942447473667 5.4353810952775854 1.1049938475211414 Zr
    velocity -0.4260878484535388 0.2027904919159845 0.4583184996438581
atom 6.4106942447473676 5.4353810952775854 1.1049938475211414 Zr
    velocity -0.4492786745225983 -0.1319599237046583 -0.4372256088825383
atom 11.5716942447473681 5.4353810952775854 1.1049938475211414 Zr
    velocity -0.0823581005407259 -0.1744035384855009 -0.3999458369730785
atom 16.7326942447473641 5.4353810952775854 1.1049938475211414 Zr
    velocity -0.2295885718849131 -0.2217767385619184 -0.2174483858688507
atom 21.8936942447473619 5.4353810952775854 1.1049938475211414 Zr
    velocity 0.0069136987429445 -0.2328525644435373 -0.2721593808890017
atom 27.0546942447473633 5.4353810952775854 1.1049938475211414 Zr
    velocity -0.0162185536395910 0.3665633740140191 0.0139550673762542
atom 1.2496942447473667 10.6483810952775855 1.1049938475211414 Zr
    velocity -0.3890274830949038 -0.1678667475886278 0.2132022013131171
atom 6.4106942447473676 10.6483810952775855 1.1049938475211414 Zr
    velocity 0.5917896594347952 -0.6322298318077610 -0.0841252226049849
atom 11.5716942447473681 10.6483810952775855 1.1049938475211414 Zr
    velocity -0.1481849918627626 -0.1863734635262883 -0.2406669624898646
atom 16.7326942447473641 10.6483810952775855 1.1049938475211414 Zr
    velocity 0.3279016032439930 0.3812463695613178 0.3010798907486389
atom 21.8936942447473619 10.6483810952775855 1.1049938475211414 Zr
    velocity 0.0473045161025101 0.3159815300167876 0.0401549458626693
atom 27.0546942447473633 10.6483810952775855 1.1049938475211414 Zr
    velocity -0.3807869644986230 -0.0049417928587033 -0.0501187399497709
atom 1.2496942447473667 15.8613810952775864 1.1049938475211414 Zr
    velocity 0.1912130235280822 0.2699570400680544 0.0678800737179588
atom 6.4106942447473676 15.8613810952775864 1.1049938475211414 Zr
    velocity -0.1121566192875347 0.4851356673039783 0.0333287650374870
atom 11.5716942447473681 15.8613810952775864 1.1049938475211414 Zr
    velocity -0.5610009068254790 -0.0949348171821716 0.3695989425260358
atom 16.7326942447473641 15.8613810952775864 1.1049938475211414 Zr
    velocity -0.0807259503750837 0.5853074180352146 0.2146094919892720
atom 21.8936942447473619 15.8613810952775864 1.1049938475211414 Zr
    velocity 0.4780250997445291 -0.4845926419296574 -0.3773312935249922
atom 27.0546942447473633 15.8613810952775864 1.1049938475211414 Zr
    velocity 0.1788853243126911 -0.2259841064725937 0.1073738407983024
atom 1.2496942447473667 21.0743810952775874 1.1049938475211414 Zr
    velocity -0.0026791249698343 -0.1110540353847053 -0.0006561180018149
atom 6.4106942447473676 21.0743810952775874 1.1049938475211414 Zr
    velocity -0.0798945189064158 0.2998853352246422 0.4620917415912374
atom 11.5716942447473681 21.0743810952775874 1.1049938475211414 Zr
    velocity -0.1769137511102289 0.4320461397892693 0.1247923274675978
atom 16.7326942447473641 21.0743810952775874 1.1049938475211414 Zr
    velocity -0.0156718774533753 0.1013909526897691 0.0094319192735470
atom 21.8936942447473619 21.0743810952775874 1.1049938475211414 Zr
    velocity -0.7350725518195803 -0.1739405982187242 -0.4735490852540170
atom 27.0546942447473633 21.0743810952775874 1.1049938475211414 Zr
    velocity 0.0185980022293782 0.7550144391687823 0.3517299697225483
atom 1.2496942447473667 26.2873810952775919 1.1049938475211414 Zr
    velocity 0.3400448149621230 0.3955497174847984 -0.1478752668203884
atom 6.4106942447473676 26.2873810952775919 1.1049938475211414 Zr
    velocity -0.0707947621914549 -0.0170528554439704 -0.2421082283629948
atom 11.5716942447473681 26.2873810952775919 1.1049938475211414 Zr
    velocity -0.1757651240220746 0.1443240276294421 0.4323907046193939
atom 16.7326942447473641 26.2873810952775919 1.1049938475211414 Zr
    velocity 0.3417346401889815 -0.1085357222068010 -0.0748429806253053
atom 21.8936942447473619 26.2873810952775919 1.1049938475211414 Zr
    velocity 0.0794599295397284 -0.7438372414288015 0.2096556381725821
atom 27.0546942447473633 26.2873810952775919 1.1049938475211414 Zr
    velocity 0.0954365323019500 -0.2190962137374232 0.0711180306286376
atom 0.4006498633542704 0.2223810952775880 6.3669348998729065 Zr
    velocity -0.0238265615387799 -0.3720675638133764 -0.1821756738894139
atom 5.5616498633542717 0.2223810952775880 6.3669348998729065 Zr
    velocity 0.0198125986961542 0.1805767435485203 0.1720720649475169
atom 10.7226498633542722 0.2223810952775880 6.3669348998729065 Zr
    velocity 0.0995142485726171 -0.2981057617169346 -0.0940569822562660
atom 15.8836498633542682 0.2223810952775880 6.3669348998729065 Zr
    velocity -0.1154283511326696 -0.0632610508374479 0.2002912889891393
atom 21.0446498633542660 0.2223810952775880 6.3669348998729065 Zr
    velocity -0.0181794673444090 0.4034249667755695 0.1463955484097994
atom 26.2056498633542674 0.2223810952775880 6.3669348998729065 Zr
    velocity 0.0563013002956349 0.4994885762709015 0.4405231744215537
atom 0.4006498633542704 5.4353810952775854 6.3669348998729065 Zr
    velocity 0.0924540331990985 -0.3394413506415103 0.1708084054600835
atom 5.5616498633542717 5.4353810952775854 6.3669348998729065 Zr
    velocity -0.2470191336413477 -0.4432383124530810 -0.5276241382982907
atom 10.7226498633542722 5.4353810952775854 6.3669348998729065 Zr
    velocity 0.2559869382326543 -0.2782305074715204 -0.0262443243523874
atom 15.8836498633542682 5.4353810952775854 6.3669348998729065 Zr
    velocity -0.3530664517663046 -0.5004547062278778 0.1660822808875419
atom 21.0446498633542660 5.4353810952775854 6.3669348998729065 Zr
    velocity -0.0061252774728302 -0.1966106463366544 0.2160791918929698
atom 26.2056498633542674 5.4353810952775854 6.3669348998729065 Zr
    velocity 0.0833670005515238 -0.1489486508463332 -0.0576117487139953
atom 0.4006498633542704 10.6483810952775855 6.3669348998729065 Zr
    velocity -0.0656890657648396 -0.0225853545241027 0.0340571238425736
atom 5.5616498633542717 10.6483810952775855 6.3669348998729065 Zr
    velocity 0.3712256639023907 0.1422884803742442 0.8085948384520183
atom 10.7226498633542722 10.6483810952775855 6.3669348998729065 Zr
    velocity 0.3368980563116399 0.0763289523297217 -0.0573823546603205
atom 15.8836498633542682 10.6483810952775855 6.3669348998729065 Zr
    velocity 0.1405623099505174 0.4439271979518339 -0.2663575679217910
atom 21.0446498633542660 10.6483810952775855 6.3669348998729065 Zr
    velocity -0.2709935927610728 0.2489162432959710 -0.2774143574055764
atom 26.2056498633542674 10.6483810952775855 6.3669348998729065 Zr
    velocity -0.2611076974036798 -0.4852450100165885 0.2253196012628583
atom 0.4006498633542704 15.8613810952775864 6.3669348998729065 Zr
    velocity -0.0615344435712602 -0.0803503006538927 -0.3779753343573899
atom 5.5616498633542717 15.8613810952775864 6.3669348998729065 Zr
    velocity -0.0451622123334317 -0.2787299910119581 0.1154392989697476
atom 10.7226498633542722 15.8613810952775864 6.3669348998729065 Zr
    velocity 0.2783571788033700 -0.2017343445920504 0.0677666267669039
atom 15.8836498633542682 15.8613810952775864 6.3669348998729065 Zr
    velocity -0.2461586908448382 -0.0077013927484074 -0.0303271940782475
atom 21.0446498633542660 15.8613810952775864 6.3669348998729065 Zr
    velocity 0.0289062928226597 0.3616753687362813 -0.4247669638088744
atom 26.2056498633542674 15.8613810952775864 6.3669348998729065 Zr
    velocity 0.5614022302590038 0.3821246038096881 0.5961492266545040
atom 0.4006498633542704 21.0743810952775874 6.3669348998729065 Zr
    velocity -0.0173170818206532 0.0460727254286186 0.1516806023654390
atom 5.5616498633542717 21.0743810952775874 6.3669348998729065 Zr
    velocity 0.1625538995835759 0.3568148405143129 -0.0161383709724986
atom 10.7226498633542722 21.0743810952775874 6.3669348998729065 Zr
    velocity -0.1103118038779285 0.2478573941273270 -0.3748300224117882
atom 15.8836498633542682 21.0743810952775874 6.3669348998729065 Zr
    velocity 0.4338373724041388 -0.1332314142606394 0.1432025339161447
atom 21.0446498633542660 21.0743810952775874 6.3669348998729065 Zr
    velocity 0.1786868852808806 -0.3976140295339162 0.0236295114988478
atom 26.2056498633542674 21.0743810952775874 6.3669348998729065 Zr
    velocity -0.3819006297439252 -0.1722193919498153 -0.4025406821072079
atom 0.4006498633542704 26.2873810952775919 6.3669348998729065 Zr
    velocity -0.3773408387805372 0.1726258254567512 -0.1474638769792328
atom 5.5616498633542717 26.2873810952775919 6.3669348998729065 Zr
    velocity -0.3941018908224225 0.2909085441888092 -0.2857272374042591
atom 10.7226498633542722 26.2873810952775919 6.3669348998729065 Zr
    velocity -0.1894808646058848 -0.2913570206809747 -0.1057120222868111
atom 15.8836498633542682 26.2873810952775919 6.3669348998729065 Zr
    velocity -0.0414722368324695 0.4215309338705573 0.1232491220852371
atom 21.0446498633542660 26.2873810952775919 6.3669348998729065 Zr
    velocity -0.1699708737647993 0.4881642151362465 -0.4516700227285768
atom 26.2056498633542674 26.2873810952775919 6.3669348998729065 Zr
    velocity -0.1135145814676217 0.2290812350680019 0.0008723963305816
atom -0.4483945180388262 0.2223810952775880 11.6288759522246750 Zr
    velocity 0.4352206336317316 -0.0991678408747808 0.0043983865424338
atom 4.7126054819611749 0.2223810952775880 11.6288759522246750 Zr
    velocity 0.0372031076614389 -0.2777920540845726 0.2232201735667998
atom 9.8736054819611763 0.2223810952775880 11.6288759522246750 Zr
    velocity -0.1774986761846330 -0.5123835430197170 0.0318748402259811
atom 15.0346054819611723 0.2223810952775880 11.6288759522246750 Zr
    velocity -0.3928238210023590 -0.1706707313692467 -0.1209057312087387
atom 20.1956054819611701 0.2223810952775880 11.6288759522246750 Zr
    velocity -0.0122541151071817 -0.3417228038827058 0.2176363874123176
atom 25.3566054819611715 0.2223810952775880 11.6288759522246750 Zr
    velocity 0.1459682218911969 0.1465745743748267 0.0623670878879904
atom -0.4483945180388262 5.4353810952775854 11.6288759522246750 Zr
    velocity 0.1126942452864979 0.0374375378607482 -0.2648495980198646
atom 4.7126054819611749 5.4353810952775854 11.6288759522246750 Zr
    velocity -0.1852418429953664 -0.0351326315684844 -0.0904675577552076
atom 9.8736054819611763 5.4353810952775854 11.6288759522246750 Zr
    velocity 0.1789117085660394 0.5491066616570101 -0.2356214880085618
atom 15.0346054819611723 5.4353810952775854 11.6288759522246750 Zr
    velocity -0.3702412742052100 -0.3272279864276510 -0.2794193208981872
atom 20.1956054819611701 5.4353810952775854 11.6288759522246750 Zr
    velocity -0.0577860062794166 0.3084953158715298 0.0139743997226240
atom 25.3566054819611715 5.4353810952775854 11.6288759522246750 Zr
    velocity 0.2043802816144381 -0.3300061241495593 0.0140004069377257
atom -0.4483945180388262 10.6483810952775855 11.6288759522246750 Zr
    velocity -0.2048581350450160 -0.0662055452328167 -0.1055802815292358
atom 4.7126054819611749 10.6483810952775855 11.6288759522246750 Zr
    velocity -0.0130132204499790 -0.1208738126866854 -0.0839909633863434
atom 9.8736054819611763 10.6483810952775855 11.6288759522246750 Zr
    velocity -0.2883843881489001 -0.1991708361326872 0.7147773172764154
atom 15.0346054819611723 10.6483810952775855 11.6288759522246750 Zr
    velocity 0.2222641562526846 -0.0494828002083477 -0.3871337981015082
atom 20.1956054819611701 10.6483810952775855 11.6288759522246750 Zr
    velocity -0.4435309905058241 0.3341921109912784 0.1833557144622369
atom 25.3566054819611715 10.6483810952775855 11.6288759522246750 Zr
    velocity -0.2897982232358237 -0.2488054885184981 0.1755475776811919
atom -0.4483945180388262 15.8613810952775864 11.6288759522246750 Zr
    velocity 0.4880147463742872 0.1341533012995644 0.2795029024187418
atom 4.7126054819611749 15.8613810952775864 11.6288759522246750 Zr
    velocity 0.6100306562846717 -0.4586554089981390 -0.8135605713314782
atom 9.8736054819611763 15.8613810952775864 11.6288759522246750 Zr
    velocity 0.2247518880661289 0.0872955165703518 0.1368270817909883
atom 15.0346054819611723 15.8613810952775864 11.6288759522246750 Zr
    velocity -0.1131511517376064 -0.0366254001537431 0.0125666967459863
atom 20.1956054819611701 15.8613810952775864 11.6288759522246750 Zr
    velocity 0.0234003175578698 -0.4563145327950515 -0.1261605322203639
atom 25.3566054819611715 15.8613810952775864 11.6288759522246750 Zr
    velocity 0.0944385791164878 -0.1345333917701666 0.5371213005845300
atom -0.4483945180388262 21.0743810952775874 11.6288759522246750 Zr
    velocity 0.0923839307335528 0.3513777895443317 0.1967203432137177
atom 4.7126054819611749 21.0743810952775874 11.6288759522246750 Zr
    velocity 0.4341425976066863 0.0363431086433493 -0.1730328436399245
atom 9.8736054819611763 21.0743810952775874 11.6288759522246750 Zr
    velocity 0.0015971941171302 0.0598830341126914 0.3047786563578101
atom 15.0346054819611723 21.0743810952775874 11.6288759522246750 Zr
    velocity 0.0484436711629464 0.1446823286574359 0.2243486686302307
atom 20.1956054819611701 21.0743810952775874 11.6288759522246750 Zr
    velocity 0.0349935252850229 0.2092649471777965 0.0193986989756765
atom 25.3566054819611715 21.0743810952775874 11.6288759522246750 Zr
    velocity -0.4451855315282133 -0.2623666563114574 -0.2082374335680443
atom -0.4483945180388262 26.2873810952775919 11.6288759522246750 Zr
    velocity -0.1101576411723856 0.0859107575064739 -0.3784874878414888
atom 4.7126054819611749 26.2873810952775919 11.6288759522246750 Zr
    velocity -0.4339503602058889 -0.1913463316567672 0.1025814333082181
atom 9.8736054819611763 26.2873810952775919 11.6288759522246750 Zr
    velocity -0.2168943840990178 0.2522955906362608 0.2709672327725667
atom 15.0346054819611723 26.2873810952775919 11.6288759522246750 Zr
    velocity -0.0052524435868821 0.4343955270794290 0.0055204221521350
atom 20.1956054819611701 26.2873810952775919 11.6288759522246750 Zr
    velocity 0.0356822531911038 0.5605185521240744 -0.2027392139150332
atom 25.3566054819611715 26.2873810952775919 11.6288759522246750 Zr
    velocity -0.0783792395579266 0.2656059316304299 0.2898438036059074
atom -1.2974388994319228 0.2223810952775880 16.8908170045764408 Zr
    velocity -0.2396385022536527 0.3613520815102973 0.4655356392230274
atom 3.8635611005680786 0.2223810952775880 16.8908170045764408 Zr
    velocity 0.2321729791150447 -0.0114765725321969 -0.0213146833665479
atom 9.0245611005680786 0.2223810952775880 16.8908170045764408 Zr
    velocity 0.0832952224192889 0.3451733321109699 0.4293997108761838
atom 14.1855611005680746 0.2223810952775880 16.8908170045764408 Zr
    velocity -0.4682592775064190 0.4597515195554696 -0.3647422071114771
atom 19.3465611005680742 0.2223810952775880 16.8908170045764408 Zr
    velocity -0.1926907337147439 -0.2828553688891969 0.2865497665336259
atom 24.5075611005680756 0.2223810952775880 16.8908170045764408 Zr
    velocity 0.3392292724347505 -0.2319089642789960 0.3812429957668664
atom -1.2974388994319228 5.4353810952775854 16.8908170045764408 Zr
    velocity -0.2377571977083795 0.7123706187761553 0.1024391455978028
atom 3.8635611005680786 5.4353810952775854 16.8908170045764408 Zr
    velocity -0.0226697464736185 -0.3511465146383038 -0.8135896583000731
atom 9.0245611005680786 5.4353810952775854 16.8908170045764408 Zr
    velocity 0.0637763078554398 -0.2408386975664795 -0.0171658757021813
atom 14.1855611005680746 5.4353810952775854 16.8908170045764408 Zr
    velocity 0.4813158119087758 -0.1584502316549105 -0.0938729094469636
atom 19.3465611005680742 5.4353810952775854 16.8908170045764408 Zr
    velocity 0.0414151578243164 -0.1534921569949586 -0.1853685853400351
atom 24.5075611005680756 5.4353810952775854 16.8908170045764408 Zr
    velocity -0.2347804629116914 -0.2398499342681757 -0.1223665080835777
atom -1.2974388994319228 10.6483810952775855 16.8908170045764408 Zr
    velocity -0.7981587981171298 -0.1558935542019141 0.3546995936366010
atom 3.8635611005680786 10.6483810952775855 16.8908170045764408 Zr
    velocity -0.1496363683399455 -0.0080396414087371 -0.1541239105567571
atom 9.0245611005680786 10.6483810952775855 16.8908170045764408 Zr
    velocity -0.4111238120833415 -0.2181513011953893 -0.1096688459189583
atom 14.1855611005680746 10.6483810952775855 16.8908170045764408 Zr
    velocity 0.3525953824720960 0.3480745709823446 0.0772759545836298
atom 19.3465611005680742 10.6483810952775855 16.8908170045764408 Zr
    velocity -0.5637066315424901 0.0072489976136103 0.2555449566752426
atom 24.5075611005680756 10.6483810952775855 16.8908170045764408 Zr
    velocity 0.3989181440005439 -0.2029255939209315 0.0009691077529661
atom -1.2974388994319228 15.8613810952775864 16.8908170045764408 Zr
    velocity -0.5032910070268712 -0.3206807623158884 0.1899148756869128
atom 3.8635611005680786 15.8613810952775864 16.8908170045764408 Zr
    velocity -0.1299340293533300 0.0784116526113820 0.1070463490799349
atom 9.0245611005680786 15.8613810952775864 16.8908170045764408 Zr
    velocity -0.1385350993312805 -0.1947981301347812 0.4868957748321610
atom 14.1855611005680746 15.8613810952775864 16.8908170045764408 Zr
    velocity -0.3388328337676768 0.4411476243096896 0.4212245502756649
atom 19.3465611005680742 15.8613810952775864 16.8908170045764408 Zr
    velocity 0.6039722699631362 -0.3064941489629100 -0.0251431961883828
atom 24.5075611005680756 15.8613810952775864 16.8908170045764408 Zr
    velocity -0.4819844374176064 -0.5173912473056349 0.3899281220137173
atom -1.2974388994319228 21.0743810952775874 16.8908170045764408 Zr
    velocity -0.0520251232160995 0.2296210632573109 0.2969657758710151
atom 3.8635611005680786 21.0743810952775874 16.8908170045764408 Zr
    velocity 0.2890609285247496 -0.3287579791277203 0.0428489496261448
atom 9.0245611005680786 21.0743810952775874 16.8908170045764408 Zr
    velocity 0.2340436308059775 -0.2346489578964789 -0.5244298940470292
atom 14.1855611005680746 21.0743810952775874 16.8908170045764408 Zr
    velocity -0.2235307682611496 0.1317582245087427 -0.1410312781181514
atom 19.3465611005680742 21.0743810952775874 16.8908170045764408 Zr
    velocity 0.1167495869268394 -0.2237534741599631 -0.4657308922286994
atom 24.5075611005680756 21.0743810952775874 16.8908170045764408 Zr
    velocity -0.5141734473954431 -0.1609086631106111 -0.3172471564589205
atom -1.2974388994319228 26.2873810952775919 16.8908170045764408 Zr
    velocity -0.5124357643768618 -0.1059606242687793 0.0968695792428604
atom 3.8635611005680786 26.2873810952775919 16.8908170045764408 Zr
    velocity -0.0930312347489656 0.6965784426073135 0.0847802795709254
atom 9.0245611005680786 26.2873810952775919 16.8908170045764408 Zr
    velocity -0.0828685448704871 -0.1150958281722014 0.0564086992183394
atom 14.1855611005680746 26.2873810952775919 16.8908170045764408 Zr
    velocity -0.3957451470692075 -0.1165139805585686 0.1092672052682128
atom 19.3465611005680742 26.2873810952775919 16.8908170045764408 Zr
    velocity 0.3638243468267958 -0.0756438223903754 -0.0847458498765098
atom 24.5075611005680756 26.2873810952775919 16.8908170045764408 Zr
    velocity -0.1716475408731455 0.0275867405213111 -0.1401806024603824
atom -2.1464832808250178 0.2223810952775880 22.1527580569281994 Zr
    velocity -0.2913094796159599 0.1962014363692137 0.0647174912861540
atom 3.0145167191749835 0.2223810952775880 22.1527580569281994 Zr
    velocity 0.1198055026411246 -0.7442675837808993 -0.1712444531432046
atom 8.1755167191749809 0.2223810952775880 22.1527580569281994 Zr
    velocity -0.4518490216897739 -0.2580816053333436 -0.3701175852039849
atom 13.3365167191749805 0.2223810952775880 22.1527580569281994 Zr
    velocity 0.0976042564591058 0.2922918172716486 0.6046863030779676
atom 18.4975167191749783 0.2223810952775880 22.1527580569281994 Zr
    velocity 0.2640544987363656 0.4573839539097930 -0.0497879886138583
atom 23.6585167191749797 0.2223810952775880 22.1527580569281994 Zr
    velocity -0.1617256378919212 0.0158044584682295 -0.0330582214450446
atom -2.1464832808250178 5.4353810952775854 22.1527580569281994 Zr
    velocity -0.0647092025071878 0.4254352674308478 -0.3256137829352782
atom 3.0145167191749835 5.4353810952775854 22.1527580569281994 Zr
    velocity 0.0625569410330073 0.1831961091990818 -0.0057196725433312
atom 8.1755167191749809 5.4353810952775854 22.1527580569281994 Zr
    velocity -0.1839706477257315 0.1750246175985952 -0.0442732076047720
atom 13.3365167191749805 5.4353810952775854 22.1527580569281994 Zr
    velocity -0.0168739829372337 -0.4464782296609868 -0.0450229152344859
atom 18.4975167191749783 5.4353810952775854 22.1527580569281994 Zr
    velocity 0.1525609905228572 -0.4574464993517574 0.2284541717955172
atom 23.6585167191749797 5.4353810952775854 22.1527580569281994 Zr
    velocity 0.3951219083959304 -0.7408171305357296 0.4483127884538321
atom -2.1464832808250178 10.6483810952775855 22.1527580569281994 Zr
    velocity 0.1580804769805329 0.0675461151160085 0.0152302437034430
atom 3.0145167191749835 10.6483810952775855 22.1527580569281994 Zr
    velocity 0.4183784431483284 -0.0935717645823154 -0.0089257937996719
atom 8.1755167191749809 10.6483810952775855 22.1527580569281994 Zr
    velocity -0.2683371812272819 0.1346350124119598 0.1295388241212073
atom 13.3365167191749805 10.6483810952775855 22.1527580569281994 Zr
    velocity -0.1457404502159866 -0.2203157217976905 -0.0771823056141751
atom 18.4975167191749783 10.6483810952775855 22.1527580569281994 Zr
    velocity -0.0823670238309327 -0.1382369374040871 0.0659693242201918
atom 23.6585167191749797 10.6483810952775855 22.1527580569281994 Zr
    velocity -0.1013976943037565 0.0597324821188521 -0.0127321875158954
atom -2.1464832808250178 15.8613810952775864 22.1527580569281994 Zr
    velocity -0.1251996112278367 0.0575347080334936 0.3004952261264406
atom 3.0145167191749835 15.8613810952775864 22.1527580569281994 Zr
    velocity -0.2211653691673245 0.0278651551629526 -0.2449525472773908
atom 8.1755167191749809 15.8613810952775864 22.1527580569281994 Zr
    velocity 0.2410228322697193 -0.5888540468219989 0.1229404303939258
atom 13.3365167191749805 15.8613810952775864 22.1527580569281994 Zr
    velocity 0.2490146535176219 0.0072977275324628 0.4933346296498242
atom 18.4975167191749783 15.8613810952775864 22.1527580569281994 Zr
    velocity -0.0069257202256340 -0.1937479682737909 0.0314197128167440
atom 23.6585167191749797 15.8613810952775864 22.1527580569281994 Zr
    velocity -0.2645963280405428 -0.2244334520180419 0.2222363415294157
atom -2.1464832808250178 21.0743810952775874 22.1527580569281994 Zr
    velocity -0.1314036303212397 0.3385331797746468 0.0227598968890666
atom 3.0145167191749835 21.0743810952775874 22.1527580569281994 Zr
    velocity 0.1663510676435467 0.1436526867550445 0.0940884011611401
atom 8.1755167191749809 21.0743810952775874 22.1527580569281994 Zr
    velocity 0.1769382340206610 0.4018558718159526 -0.5937403120489563
atom 13.3365167191749805 21.0743810952775874 22.1527580569281994 Zr
    velocity 0.2708026239921747 -0.0290201860663219 0.7530695195875234
atom 18.4975167191749783 21.0743810952775874 22.1527580569281994 Zr
    velocity 0.3571578254720221 0.3961936046228595 -0.5389588163309860
atom 23.6585167191749797 21.0743810952775874 22.1527580569281994 Zr
    velocity 0.8355824190066897 -0.2005922843281509 -0.1462535147859848
atom -2.1464832808250178 26.2873810952775919 22.1527580569281994 Zr
    velocity -0.2966212826516168 -0.2831918009333486 0.3648797534116923
atom 3.0145167191749835 26.2873810952775919 22.1527580569281994 Zr
    velocity 0.2245412842686644 0.2155033413241817 -0.2421605175912362
atom 8.1755167191749809 26.2873810952775919 22.1527580569281994 Zr
    velocity 0.2273358498135626 0.2655872287212374 -0.1458655300856875
atom 13.3365167191749805 26.2873810952775919 22.1527580569281994 Zr
    velocity 0.1631022789667210 0.1311943114696677 -0.2558141028452027
atom 18.4975167191749783 26.2873810952775919 22.1527580569281994 Zr
    velocity -0.4740364208274874 0.1979645240011197 -0.4270810045856410
atom 23.6585167191749797 26.2873810952775919 22.1527580569281994 Zr
    velocity 0.4635372055649227 -0.1267074372790715 0.1524197363541231
atom -2.9955276622181151 0.2223810952775880 27.4146991092799688 Zr
    velocity -0.3627412687021557 0.4955082249859716 0.2699931274959594
atom 2.1654723377818863 0.2223810952775880 27.4146991092799688 Zr
    velocity 0.0741712802267363 0.0582591884678859 -0.6243896033502605
atom 7.3264723377818868 0.2223810952775880 27.4146991092799688 Zr
    velocity 0.1666802175247445 0.0428657574367528 0.3164506949642319
atom 12.4874723377818828 0.2223810952775880 27.4146991092799688 Zr
    velocity 0.1770798243287871 -0.0855501770794679 -0.0803146980508284
atom 17.6484723377818788 0.2223810952775880 27.4146991092799688 Zr
    velocity 0.1402653596026757 0.4259605266722735 -0.4315223018869734
atom 22.8094723377818802 0.2223810952775880 27.4146991092799688 Zr
    velocity 0.3811911954672299 -0.1516600659964239 0.0998139129179706
atom -2.9955276622181151 5.4353810952775854 27.4146991092799688 Zr
    velocity -0.0895971470822808 0.1367686049953727 0.1320648778472265
atom 2.1654723377818863 5.4353810952775854 27.4146991092799688 Zr
    velocity 0.5471662893979875 -0.4893054131965397 -0.0083061017229086
atom 7.3264723377818868 5.4353810952775854 27.4146991092799688 Zr
    velocity 0.2341785857218566 -0.3839273046604211 0.3854013858682167
atom 12.4874723377818828 5.4353810952775854 27.4146991092799688 Zr
    velocity 0.2112330845952121 -0.1764690658383638 0.5610799016652830
atom 17.6484723377818788 5.4353810952775854 27.4146991092799688 Zr
    velocity -0.3219833288288175 0.0233795975029023 -0.1083357996607053
atom 22.8094723377818802 5.4353810952775854 27.4146991092799688 Zr
    velocity 0.1448152940004543 -0.0046871026522609 -0.3042363010253443
atom -2.9955276622181151 10.6483810952775855 27.4146991092799688 Zr
    velocity -0.1526836480971567 -0.0805963771104449 0.1134884696618398
atom 2.1654723377818863 10.6483810952775855 27.4146991092799688 Zr
    velocity -0.3930752824202297 0.1182164002824736 0.0532662671288296
atom 7.3264723377818868 10.6483810952775855 27.4146991092799688 Zr
    velocity -0.0393424318545671 -0.2202193131082189 0.2077921859515530
atom 12.4874723377818828 10.6483810952775855 27.4146991092799688 Zr
    velocity -0.0269757123718697 -0.0161761138168059 -0.0902301284572572
atom 17.6484723377818788 10.6483810952775855 27.4146991092799688 Zr
    velocity 0.1960361791703685 -0.0846027811313506 -0.6442728148490388
atom 22.8094723377818802 10.6483810952775855 27.4146991092799688 Zr
    velocity -0.1735999426465389 -0.4705671216532776 0.1629512108300883
atom -2.9955276622181151 15.8613810952775864 27.4146991092799688 Zr
    velocity 0.2255009947711120 -0.3209145665420538 0.0545064177455363
atom 2.1654723377818863 15.8613810952775864 27.4146991092799688 Zr
    velocity 0.0739547264837261 -0.0303558178671373 -0.0523785004756645
atom 7.3264723377818868 15.8613810952775864 27.4146991092799688 Zr
    velocity 0.0228333755543001 0.7012688759431516 0.4906846643410539
atom 12.4874723377818828 15.8613810952775864 27.4146991092799688 Zr
    velocity 0.2382102818982701 -0.0508287405971647 -0.0198735513186691
atom 17.6484723377818788 15.8613810952775864 27.4146991092799688 Zr
    velocity -0.2194703098761440 0.3205385119636734 0.4103813209995118
atom 22.8094723377818802 15.8613810952775864 27.4146991092799688 Zr
    velocity 0.0926571597958972 0.2450810102280269 0.0276050866965664
atom -2.9955276622181151 21.0743810952775874 27.4146991092799688 Zr
    velocity 0.0331662802066619 0.0417286694687351 0.1040304696514393
atom 2.1654723377818863 21.0743810952775874 27.4146991092799688 Zr
    velocity 0.0230864166615872 -0.0891555375147602 -0.2443946435770757
atom 7.3264723377818868 21.0743810952775874 27.4146991092799688 Zr
    velocity 0.0465073343520581 -0.2895567384192413 -0.2137563191664452
atom 12.4874723377818828 21.0743810952775874 27.4146991092799688 Zr
    velocity -0.7407144424974799 0.0389922751440809 0.3430680044120311
atom 17.6484723377818788 21.0743810952775874 27.4146991092799688 Zr
    velocity -0.0584608906421515 -0.3464440484336831 0.3264696350050309
atom 22.8094723377818802 21.0743810952775874 27.4146991092799688 Zr
    velocity 0.0771279408675046 -0.0387751794240321 -0.0372562057723405
atom -2.9955276622181151 26.2873810952775919 27.4146991092799688 Zr
    velocity 0.2054229769958651 0.0512546262147774 0.6680877498163115