#=======================================================
# FHI-aims file: 600_geometry.in.primitive.supercell_4116
# Created using the Atomic Simulation Environment (ASE)
# Sat Nov 26 17:28:29 2022

# Additional information:
#  Number of atoms:     4116
#  Spacegroup:          14
#  supercell:           True
#  supercell_matrix:    [7, 0, 0, 0, 7, 0, 0, 0, 7]
#  Supercell matrix:    [7 0 0 0 7 0 0 0 7]
#=======================================================
lattice_vector 36.1269999999999953 0.0000000000000000 0.0000000000000000 
lattice_vector 0.0000000000000000 36.4909999999999997 0.0000000000000000 
lattice_vector -5.9433106697516749 0.0000000000000000 36.8335873664623676 
atom_frac 0.0395269837631429 0.0060941354108571 0.0299996260621429 Zr
atom_frac 0.1823841266202857 0.0060941354108571 0.0299996260621429 Zr
atom_frac 0.3252412694774285 0.0060941354108571 0.0299996260621429 Zr
atom_frac 0.4680984123345714 0.0060941354108571 0.0299996260621429 Zr
atom_frac 0.6109555551917142 0.0060941354108571 0.0299996260621429 Zr
atom_frac 0.7538126980488571 0.0060941354108571 0.0299996260621429 Zr
atom_frac 0.8966698409060000 0.0060941354108571 0.0299996260621429 Zr
atom_frac 0.0395269837631429 0.1489512782680000 0.0299996260621429 Zr
atom_frac 0.1823841266202857 0.1489512782680000 0.0299996260621429 Zr
atom_frac 0.3252412694774285 0.1489512782680000 0.0299996260621429 Zr
atom_frac 0.4680984123345714 0.1489512782680000 0.0299996260621429 Zr
atom_frac 0.6109555551917142 0.1489512782680000 0.0299996260621429 Zr
atom_frac 0.7538126980488571 0.1489512782680000 0.0299996260621429 Zr
atom_frac 0.8966698409060000 0.1489512782680000 0.0299996260621429 Zr
atom_frac 0.0395269837631429 0.2918084211251429 0.0299996260621429 Zr
atom_frac 0.1823841266202857 0.2918084211251429 0.0299996260621429 Zr
atom_frac 0.3252412694774285 0.2918084211251429 0.0299996260621429 Zr
atom_frac 0.4680984123345714 0.2918084211251429 0.0299996260621429 Zr
atom_frac 0.6109555551917142 0.2918084211251429 0.0299996260621429 Zr
atom_frac 0.7538126980488571 0.2918084211251429 0.0299996260621429 Zr
atom_frac 0.8966698409060000 0.2918084211251429 0.0299996260621429 Zr
atom_frac 0.0395269837631429 0.4346655639822857 0.0299996260621429 Zr
atom_frac 0.1823841266202857 0.4346655639822857 0.0299996260621429 Zr
atom_frac 0.3252412694774285 0.4346655639822857 0.0299996260621429 Zr
atom_frac 0.4680984123345714 0.4346655639822857 0.0299996260621429 Zr
atom_frac 0.6109555551917142 0.4346655639822857 0.0299996260621429 Zr
atom_frac 0.7538126980488571 0.4346655639822857 0.0299996260621429 Zr
atom_frac 0.8966698409060000 0.4346655639822857 0.0299996260621429 Zr
atom_frac 0.0395269837631429 0.5775227068394286 0.0299996260621429 Zr
atom_frac 0.1823841266202857 0.5775227068394286 0.0299996260621429 Zr
atom_frac 0.3252412694774285 0.5775227068394286 0.0299996260621429 Zr
atom_frac 0.4680984123345714 0.5775227068394286 0.0299996260621429 Zr
atom_frac 0.6109555551917142 0.5775227068394286 0.0299996260621429 Zr
atom_frac 0.7538126980488571 0.5775227068394286 0.0299996260621429 Zr
atom_frac 0.8966698409060000 0.5775227068394286 0.0299996260621429 Zr
atom_frac 0.0395269837631429 0.7203798496965714 0.0299996260621429 Zr
atom_frac 0.1823841266202857 0.7203798496965714 0.0299996260621429 Zr
atom_frac 0.3252412694774285 0.7203798496965714 0.0299996260621429 Zr
atom_frac 0.4680984123345714 0.7203798496965714 0.0299996260621429 Zr
atom_frac 0.6109555551917142 0.7203798496965714 0.0299996260621429 Zr
atom_frac 0.7538126980488571 0.7203798496965714 0.0299996260621429 Zr
atom_frac 0.8966698409060000 0.7203798496965714 0.0299996260621429 Zr
atom_frac 0.0395269837631429 0.8632369925537142 0.0299996260621429 Zr
atom_frac 0.1823841266202857 0.8632369925537142 0.0299996260621429 Zr
atom_frac 0.3252412694774285 0.8632369925537142 0.0299996260621429 Zr
atom_frac 0.4680984123345714 0.8632369925537142 0.0299996260621429 Zr
atom_frac 0.6109555551917142 0.8632369925537142 0.0299996260621429 Zr
atom_frac 0.7538126980488571 0.8632369925537142 0.0299996260621429 Zr
atom_frac 0.8966698409060000 0.8632369925537142 0.0299996260621429 Zr
atom_frac 0.0395269837631429 0.0060941354108571 0.1728567689192857 Zr
atom_frac 0.1823841266202857 0.0060941354108571 0.1728567689192857 Zr
atom_frac 0.3252412694774285 0.0060941354108571 0.1728567689192857 Zr
atom_frac 0.4680984123345714 0.0060941354108571 0.1728567689192857 Zr
atom_frac 0.6109555551917142 0.0060941354108571 0.1728567689192857 Zr
atom_frac 0.7538126980488571 0.0060941354108571 0.1728567689192857 Zr
atom_frac 0.8966698409060000 0.0060941354108571 0.1728567689192857 Zr
atom_frac 0.0395269837631429 0.1489512782680000 0.1728567689192857 Zr
atom_frac 0.1823841266202857 0.1489512782680000 0.1728567689192857 Zr
atom_frac 0.3252412694774285 0.1489512782680000 0.1728567689192857 Zr
atom_frac 0.4680984123345714 0.1489512782680000 0.1728567689192857 Zr
atom_frac 0.6109555551917142 0.1489512782680000 0.1728567689192857 Zr
atom_frac 0.7538126980488571 0.1489512782680000 0.1728567689192857 Zr
atom_frac 0.8966698409060000 0.1489512782680000 0.1728567689192857 Zr
atom_frac 0.0395269837631429 0.2918084211251429 0.1728567689192857 Zr
atom_frac 0.1823841266202857 0.2918084211251429 0.1728567689192857 Zr
atom_frac 0.3252412694774285 0.2918084211251429 0.1728567689192857 Zr
atom_frac 0.4680984123345714 0.2918084211251429 0.1728567689192857 Zr
atom_frac 0.6109555551917142 0.2918084211251429 0.1728567689192857 Zr
atom_frac 0.7538126980488571 0.2918084211251429 0.1728567689192857 Zr
atom_frac 0.8966698409060000 0.2918084211251429 0.1728567689192857 Zr
atom_frac 0.0395269837631429 0.4346655639822857 0.1728567689192857 Zr
atom_frac 0.1823841266202857 0.4346655639822857 0.1728567689192857 Zr
atom_frac 0.3252412694774285 0.4346655639822857 0.1728567689192857 Zr
atom_frac 0.4680984123345714 0.4346655639822857 0.1728567689192857 Zr
atom_frac 0.6109555551917142 0.4346655639822857 0.1728567689192857 Zr
atom_frac 0.7538126980488571 0.4346655639822857 0.1728567689192857 Zr
atom_frac 0.8966698409060000 0.4346655639822857 0.1728567689192857 Zr
atom_frac 0.0395269837631429 0.5775227068394286 0.1728567689192857 Zr
atom_frac 0.1823841266202857 0.5775227068394286 0.1728567689192857 Zr
atom_frac 0.3252412694774285 0.5775227068394286 0.1728567689192857 Zr
atom_frac 0.4680984123345714 0.5775227068394286 0.1728567689192857 Zr
atom_frac 0.6109555551917142 0.5775227068394286 0.1728567689192857 Zr
atom_frac 0.7538126980488571 0.5775227068394286 0.1728567689192857 Zr
atom_frac 0.8966698409060000 0.5775227068394286 0.1728567689192857 Zr
atom_frac 0.0395269837631429 0.7203798496965714 0.1728567689192857 Zr
atom_frac 0.1823841266202857 0.7203798496965714 0.1728567689192857 Zr
atom_frac 0.3252412694774285 0.7203798496965714 0.1728567689192857 Zr
atom_frac 0.4680984123345714 0.7203798496965714 0.1728567689192857 Zr
atom_frac 0.6109555551917142 0.7203798496965714 0.1728567689192857 Zr
atom_frac 0.7538126980488571 0.7203798496965714 0.1728567689192857 Zr
atom_frac 0.8966698409060000 0.7203798496965714 0.1728567689192857 Zr
atom_frac 0.0395269837631429 0.8632369925537142 0.1728567689192857 Zr
atom_frac 0.1823841266202857 0.8632369925537142 0.1728567689192857 Zr
atom_frac 0.3252412694774285 0.8632369925537142 0.1728567689192857 Zr
atom_frac 0.4680984123345714 0.8632369925537142 0.1728567689192857 Zr
atom_frac 0.6109555551917142 0.8632369925537142 0.1728567689192857 Zr
atom_frac 0.7538126980488571 0.8632369925537142 0.1728567689192857 Zr
atom_frac 0.8966698409060000 0.8632369925537142 0.1728567689192857 Zr
atom_frac 0.0395269837631429 0.0060941354108571 0.3157139117764285 Zr
atom_frac 0.1823841266202857 0.0060941354108571 0.3157139117764285 Zr
atom_frac 0.3252412694774285 0.0060941354108571 0.3157139117764285 Zr
atom_frac 0.4680984123345714 0.0060941354108571 0.3157139117764285 Zr
atom_frac 0.6109555551917142 0.0060941354108571 0.3157139117764285 Zr
atom_frac 0.7538126980488571 0.0060941354108571 0.3157139117764285 Zr
atom_frac 0.8966698409060000 0.0060941354108571 0.3157139117764285 Zr
atom_frac 0.0395269837631429 0.1489512782680000 0.3157139117764285 Zr
atom_frac 0.1823841266202857 0.1489512782680000 0.3157139117764285 Zr
atom_frac 0.3252412694774285 0.1489512782680000 0.3157139117764285 Zr
atom_frac 0.4680984123345714 0.1489512782680000 0.3157139117764285 Zr
atom_frac 0.6109555551917142 0.1489512782680000 0.3157139117764285 Zr
atom_frac 0.7538126980488571 0.1489512782680000 0.3157139117764285 Zr
atom_frac 0.8966698409060000 0.1489512782680000 0.3157139117764285 Zr
atom_frac 0.0395269837631429 0.2918084211251429 0.3157139117764285 Zr
atom_frac 0.1823841266202857 0.2918084211251429 0.3157139117764285 Zr
atom_frac 0.3252412694774285 0.2918084211251429 0.3157139117764285 Zr
atom_frac 0.4680984123345714 0.2918084211251429 0.3157139117764285 Zr
atom_frac 0.6109555551917142 0.2918084211251429 0.3157139117764285 Zr
atom_frac 0.7538126980488571 0.2918084211251429 0.3157139117764285 Zr
atom_frac 0.8966698409060000 0.2918084211251429 0.3157139117764285 Zr
atom_frac 0.0395269837631429 0.4346655639822857 0.3157139117764285 Zr
atom_frac 0.1823841266202857 0.4346655639822857 0.3157139117764285 Zr
atom_frac 0.3252412694774285 0.4346655639822857 0.3157139117764285 Zr
atom_frac 0.4680984123345714 0.4346655639822857 0.3157139117764285 Zr
atom_frac 0.6109555551917142 0.4346655639822857 0.3157139117764285 Zr
atom_frac 0.7538126980488571 0.4346655639822857 0.3157139117764285 Zr
atom_frac 0.8966698409060000 0.4346655639822857 0.3157139117764285 Zr
atom_frac 0.0395269837631429 0.5775227068394286 0.3157139117764285 Zr
atom_frac 0.1823841266202857 0.5775227068394286 0.3157139117764285 Zr
atom_frac 0.3252412694774285 0.5775227068394286 0.3157139117764285 Zr
atom_frac 0.4680984123345714 0.5775227068394286 0.3157139117764285 Zr
atom_frac 0.6109555551917142 0.5775227068394286 0.3157139117764285 Zr
atom_frac 0.7538126980488571 0.5775227068394286 0.3157139117764285 Zr
atom_frac 0.8966698409060000 0.5775227068394286 0.3157139117764285 Zr
atom_frac 0.0395269837631429 0.7203798496965714 0.3157139117764285 Zr
atom_frac 0.1823841266202857 0.7203798496965714 0.3157139117764285 Zr
atom_frac 0.3252412694774285 0.7203798496965714 0.3157139117764285 Zr
atom_frac 0.4680984123345714 0.7203798496965714 0.3157139117764285 Zr
atom_frac 0.6109555551917142 0.7203798496965714 0.3157139117764285 Zr
atom_frac 0.7538126980488571 0.7203798496965714 0.3157139117764285 Zr
atom_frac 0.8966698409060000 0.7203798496965714 0.3157139117764285 Zr
atom_frac 0.0395269837631429 0.8632369925537142 0.3157139117764285 Zr
atom_frac 0.1823841266202857 0.8632369925537142 0.3157139117764285 Zr
atom_frac 0.3252412694774285 0.8632369925537142 0.3157139117764285 Zr
atom_frac 0.4680984123345714 0.8632369925537142 0.3157139117764285 Zr
atom_frac 0.6109555551917142 0.8632369925537142 0.3157139117764285 Zr
atom_frac 0.7538126980488571 0.8632369925537142 0.3157139117764285 Zr
atom_frac 0.8966698409060000 0.8632369925537142 0.3157139117764285 Zr
atom_frac 0.0395269837631429 0.0060941354108571 0.4585710546335715 Zr
atom_frac 0.1823841266202857 0.0060941354108571 0.4585710546335715 Zr
atom_frac 0.3252412694774286 0.0060941354108571 0.4585710546335715 Zr
atom_frac 0.4680984123345714 0.0060941354108571 0.4585710546335715 Zr
atom_frac 0.6109555551917142 0.0060941354108571 0.4585710546335715 Zr
atom_frac 0.7538126980488571 0.0060941354108571 0.4585710546335715 Zr
atom_frac 0.8966698409060000 0.0060941354108571 0.4585710546335715 Zr
atom_frac 0.0395269837631429 0.1489512782680000 0.4585710546335715 Zr
atom_frac 0.1823841266202857 0.1489512782680000 0.4585710546335715 Zr
atom_frac 0.3252412694774286 0.1489512782680000 0.4585710546335715 Zr
atom_frac 0.4680984123345714 0.1489512782680000 0.4585710546335715 Zr
atom_frac 0.6109555551917142 0.1489512782680000 0.4585710546335715 Zr
atom_frac 0.7538126980488571 0.1489512782680000 0.4585710546335715 Zr
atom_frac 0.8966698409060000 0.1489512782680000 0.4585710546335715 Zr
atom_frac 0.0395269837631429 0.2918084211251429 0.4585710546335715 Zr
atom_frac 0.1823841266202857 0.2918084211251429 0.4585710546335715 Zr
atom_frac 0.3252412694774286 0.2918084211251429 0.4585710546335715 Zr
atom_frac 0.4680984123345714 0.2918084211251429 0.4585710546335715 Zr
atom_frac 0.6109555551917142 0.2918084211251429 0.4585710546335715 Zr
atom_frac 0.7538126980488571 0.2918084211251429 0.4585710546335715 Zr
atom_frac 0.8966698409060000 0.2918084211251429 0.4585710546335715 Zr
atom_frac 0.0395269837631429 0.4346655639822857 0.4585710546335715 Zr
atom_frac 0.1823841266202857 0.4346655639822857 0.4585710546335715 Zr
atom_frac 0.3252412694774286 0.4346655639822857 0.4585710546335715 Zr
atom_frac 0.4680984123345714 0.4346655639822857 0.4585710546335715 Zr
atom_frac 0.6109555551917142 0.4346655639822857 0.4585710546335715 Zr
atom_frac 0.7538126980488571 0.4346655639822857 0.4585710546335715 Zr
atom_frac 0.8966698409060000 0.4346655639822857 0.4585710546335715 Zr
atom_frac 0.0395269837631429 0.5775227068394286 0.4585710546335715 Zr
atom_frac 0.1823841266202857 0.5775227068394286 0.4585710546335715 Zr
atom_frac 0.3252412694774286 0.5775227068394286 0.4585710546335715 Zr
atom_frac 0.4680984123345714 0.5775227068394286 0.4585710546335715 Zr
atom_frac 0.6109555551917142 0.5775227068394286 0.4585710546335715 Zr
atom_frac 0.7538126980488571 0.5775227068394286 0.4585710546335715 Zr
atom_frac 0.8966698409060000 0.5775227068394286 0.4585710546335715 Zr
atom_frac 0.0395269837631429 0.7203798496965714 0.4585710546335715 Zr
atom_frac 0.1823841266202857 0.7203798496965714 0.4585710546335715 Zr
atom_frac 0.3252412694774286 0.7203798496965714 0.4585710546335715 Zr
atom_frac 0.4680984123345714 0.7203798496965714 0.4585710546335715 Zr
atom_frac 0.6109555551917142 0.7203798496965714 0.4585710546335715 Zr
atom_frac 0.7538126980488571 0.7203798496965714 0.4585710546335715 Zr
atom_frac 0.8966698409060000 0.7203798496965714 0.4585710546335715 Zr
atom_frac 0.0395269837631429 0.8632369925537142 0.4585710546335715 Zr
atom_frac 0.1823841266202857 0.8632369925537142 0.4585710546335715 Zr
atom_frac 0.3252412694774286 0.8632369925537142 0.4585710546335715 Zr
atom_frac 0.4680984123345714 0.8632369925537142 0.4585710546335715 Zr
atom_frac 0.6109555551917142 0.8632369925537142 0.4585710546335715 Zr
atom_frac 0.7538126980488571 0.8632369925537142 0.4585710546335715 Zr
atom_frac 0.8966698409060000 0.8632369925537142 0.4585710546335715 Zr
atom_frac 0.0395269837631429 0.0060941354108571 0.6014281974907142 Zr
atom_frac 0.1823841266202857 0.0060941354108571 0.6014281974907142 Zr
atom_frac 0.3252412694774285 0.0060941354108571 0.6014281974907142 Zr
atom_frac 0.4680984123345714 0.0060941354108571 0.6014281974907142 Zr
atom_frac 0.6109555551917142 0.0060941354108571 0.6014281974907142 Zr
atom_frac 0.7538126980488571 0.0060941354108571 0.6014281974907142 Zr
atom_frac 0.8966698409060000 0.0060941354108571 0.6014281974907142 Zr
atom_frac 0.0395269837631429 0.1489512782680000 0.6014281974907142 Zr
atom_frac 0.1823841266202857 0.1489512782680000 0.6014281974907142 Zr
atom_frac 0.3252412694774285 0.1489512782680000 0.6014281974907142 Zr
atom_frac 0.4680984123345714 0.1489512782680000 0.6014281974907142 Zr
atom_frac 0.6109555551917142 0.1489512782680000 0.6014281974907142 Zr
atom_frac 0.7538126980488571 0.1489512782680000 0.6014281974907142 Zr
atom_frac 0.8966698409060000 0.1489512782680000 0.6014281974907142 Zr
atom_frac 0.0395269837631429 0.2918084211251429 0.6014281974907142 Zr
atom_frac 0.1823841266202857 0.2918084211251429 0.6014281974907142 Zr
atom_frac 0.3252412694774285 0.2918084211251429 0.6014281974907142 Zr
atom_frac 0.4680984123345714 0.2918084211251429 0.6014281974907142 Zr
atom_frac 0.6109555551917142 0.2918084211251429 0.6014281974907142 Zr
atom_frac 0.7538126980488571 0.2918084211251429 0.6014281974907142 Zr
atom_frac 0.8966698409060000 0.2918084211251429 0.6014281974907142 Zr
atom_frac 0.0395269837631429 0.4346655639822857 0.6014281974907142 Zr
atom_frac 0.1823841266202857 0.4346655639822857 0.6014281974907142 Zr
atom_frac 0.3252412694774285 0.4346655639822857 0.6014281974907142 Zr
atom_frac 0.4680984123345714 0.4346655639822857 0.6014281974907142 Zr
atom_frac 0.6109555551917142 0.4346655639822857 0.6014281974907142 Zr
atom_frac 0.7538126980488571 0.4346655639822857 0.6014281974907142 Zr
atom_frac 0.8966698409060000 0.4346655639822857 0.6014281974907142 Zr
atom_frac 0.0395269837631429 0.5775227068394286 0.6014281974907142 Zr
atom_frac 0.1823841266202857 0.5775227068394286 0.6014281974907142 Zr
atom_frac 0.3252412694774285 0.5775227068394286 0.6014281974907142 Zr
atom_frac 0.4680984123345714 0.5775227068394286 0.6014281974907142 Zr
atom_frac 0.6109555551917142 0.5775227068394286 0.6014281974907142 Zr
atom_frac 0.7538126980488571 0.5775227068394286 0.6014281974907142 Zr
atom_frac 0.8966698409060000 0.5775227068394286 0.6014281974907142 Zr
atom_frac 0.0395269837631429 0.7203798496965714 0.6014281974907142 Zr
atom_frac 0.1823841266202857 0.7203798496965714 0.6014281974907142 Zr
atom_frac 0.3252412694774285 0.7203798496965714 0.6014281974907142 Zr
atom_frac 0.4680984123345714 0.7203798496965714 0.6014281974907142 Zr
atom_frac 0.6109555551917142 0.7203798496965714 0.6014281974907142 Zr
atom_frac 0.7538126980488571 0.7203798496965714 0.6014281974907142 Zr
atom_frac 0.8966698409060000 0.7203798496965714 0.6014281974907142 Zr
atom_frac 0.0395269837631429 0.8632369925537142 0.6014281974907142 Zr
atom_frac 0.1823841266202857 0.8632369925537142 0.6014281974907142 Zr
atom_frac 0.3252412694774285 0.8632369925537142 0.6014281974907142 Zr
atom_frac 0.4680984123345714 0.8632369925537142 0.6014281974907142 Zr
atom_frac 0.6109555551917142 0.8632369925537142 0.6014281974907142 Zr
atom_frac 0.7538126980488571 0.8632369925537142 0.6014281974907142 Zr
atom_frac 0.8966698409060000 0.8632369925537142 0.6014281974907142 Zr
atom_frac 0.0395269837631429 0.0060941354108571 0.7442853403478571 Zr
atom_frac 0.1823841266202857 0.0060941354108571 0.7442853403478571 Zr
atom_frac 0.3252412694774285 0.0060941354108571 0.7442853403478571 Zr
atom_frac 0.4680984123345714 0.0060941354108571 0.7442853403478571 Zr
atom_frac 0.6109555551917143 0.0060941354108571 0.7442853403478571 Zr
atom_frac 0.7538126980488572 0.0060941354108571 0.7442853403478571 Zr
atom_frac 0.8966698409060000 0.0060941354108571 0.7442853403478571 Zr
atom_frac 0.0395269837631429 0.1489512782680000 0.7442853403478571 Zr
atom_frac 0.1823841266202857 0.1489512782680000 0.7442853403478571 Zr
atom_frac 0.3252412694774285 0.1489512782680000 0.7442853403478571 Zr
atom_frac 0.4680984123345714 0.1489512782680000 0.7442853403478571 Zr
atom_frac 0.6109555551917143 0.1489512782680000 0.7442853403478571 Zr
atom_frac 0.7538126980488572 0.1489512782680000 0.7442853403478571 Zr
atom_frac 0.8966698409060000 0.1489512782680000 0.7442853403478571 Zr
atom_frac 0.0395269837631429 0.2918084211251429 0.7442853403478571 Zr
atom_frac 0.1823841266202857 0.2918084211251429 0.7442853403478571 Zr
atom_frac 0.3252412694774285 0.2918084211251429 0.7442853403478571 Zr
atom_frac 0.4680984123345714 0.2918084211251429 0.7442853403478571 Zr
atom_frac 0.6109555551917143 0.2918084211251429 0.7442853403478571 Zr
atom_frac 0.7538126980488572 0.2918084211251429 0.7442853403478571 Zr
atom_frac 0.8966698409060000 0.2918084211251429 0.7442853403478571 Zr
atom_frac 0.0395269837631429 0.4346655639822857 0.7442853403478571 Zr
atom_frac 0.1823841266202857 0.4346655639822857 0.7442853403478571 Zr
atom_frac 0.3252412694774285 0.4346655639822857 0.7442853403478571 Zr
atom_frac 0.4680984123345714 0.4346655639822857 0.7442853403478571 Zr
atom_frac 0.6109555551917143 0.4346655639822857 0.7442853403478571 Zr
atom_frac 0.7538126980488572 0.4346655639822857 0.7442853403478571 Zr
atom_frac 0.8966698409060000 0.4346655639822857 0.7442853403478571 Zr
atom_frac 0.0395269837631429 0.5775227068394286 0.7442853403478571 Zr
atom_frac 0.1823841266202857 0.5775227068394286 0.7442853403478571 Zr
atom_frac 0.3252412694774285 0.5775227068394286 0.7442853403478571 Zr
atom_frac 0.4680984123345714 0.5775227068394286 0.7442853403478571 Zr
atom_frac 0.6109555551917143 0.5775227068394286 0.7442853403478571 Zr
atom_frac 0.7538126980488572 0.5775227068394286 0.7442853403478571 Zr
atom_frac 0.8966698409060000 0.5775227068394286 0.7442853403478571 Zr
atom_frac 0.0395269837631429 0.7203798496965714 0.7442853403478571 Zr
atom_frac 0.1823841266202857 0.7203798496965714 0.7442853403478571 Zr
atom_frac 0.3252412694774285 0.7203798496965714 0.7442853403478571 Zr
atom_frac 0.4680984123345714 0.7203798496965714 0.7442853403478571 Zr
atom_frac 0.6109555551917143 0.7203798496965714 0.7442853403478571 Zr
atom_frac 0.7538126980488572 0.7203798496965714 0.7442853403478571 Zr
atom_frac 0.8966698409060000 0.7203798496965714 0.7442853403478571 Zr
atom_frac 0.0395269837631429 0.8632369925537142 0.7442853403478571 Zr
atom_frac 0.1823841266202857 0.8632369925537142 0.7442853403478571 Zr
atom_frac 0.3252412694774285 0.8632369925537142 0.7442853403478571 Zr
atom_frac 0.4680984123345714 0.8632369925537142 0.7442853403478571 Zr
atom_frac 0.6109555551917143 0.8632369925537142 0.7442853403478571 Zr
atom_frac 0.7538126980488572 0.8632369925537142 0.7442853403478571 Zr
atom_frac 0.8966698409060000 0.8632369925537142 0.7442853403478571 Zr
atom_frac 0.0395269837631429 0.0060941354108571 0.8871424832049999 Zr
atom_frac 0.1823841266202857 0.0060941354108571 0.8871424832049999 Zr
atom_frac 0.3252412694774285 0.0060941354108571 0.8871424832049999 Zr
atom_frac 0.4680984123345714 0.0060941354108571 0.8871424832049999 Zr
atom_frac 0.6109555551917141 0.0060941354108571 0.8871424832049999 Zr
atom_frac 0.7538126980488571 0.0060941354108571 0.8871424832049999 Zr
atom_frac 0.8966698409060000 0.0060941354108571 0.8871424832049999 Zr
atom_frac 0.0395269837631429 0.1489512782680000 0.8871424832049999 Zr
atom_frac 0.1823841266202857 0.1489512782680000 0.8871424832049999 Zr
atom_frac 0.3252412694774285 0.1489512782680000 0.8871424832049999 Zr
atom_frac 0.4680984123345714 0.1489512782680000 0.8871424832049999 Zr
atom_frac 0.6109555551917141 0.1489512782680000 0.8871424832049999 Zr
atom_frac 0.7538126980488571 0.1489512782680000 0.8871424832049999 Zr
atom_frac 0.8966698409060000 0.1489512782680000 0.8871424832049999 Zr
atom_frac 0.0395269837631429 0.2918084211251429 0.8871424832049999 Zr
atom_frac 0.1823841266202857 0.2918084211251429 0.8871424832049999 Zr
atom_frac 0.3252412694774285 0.2918084211251429 0.8871424832049999 Zr
atom_frac 0.4680984123345714 0.2918084211251429 0.8871424832049999 Zr
atom_frac 0.6109555551917141 0.2918084211251429 0.8871424832049999 Zr
atom_frac 0.7538126980488571 0.2918084211251429 0.8871424832049999 Zr
atom_frac 0.8966698409060000 0.2918084211251429 0.8871424832049999 Zr
atom_frac 0.0395269837631429 0.4346655639822857 0.8871424832049999 Zr
atom_frac 0.1823841266202857 0.4346655639822857 0.8871424832049999 Zr
atom_frac 0.3252412694774285 0.4346655639822857 0.8871424832049999 Zr
atom_frac 0.4680984123345714 0.4346655639822857 0.8871424832049999 Zr
atom_frac 0.6109555551917141 0.4346655639822857 0.8871424832049999 Zr
atom_frac 0.7538126980488571 0.4346655639822857 0.8871424832049999 Zr
atom_frac 0.8966698409060000 0.4346655639822857 0.8871424832049999 Zr
atom_frac 0.0395269837631429 0.5775227068394286 0.8871424832049999 Zr
atom_frac 0.1823841266202857 0.5775227068394286 0.8871424832049999 Zr
atom_frac 0.3252412694774285 0.5775227068394286 0.8871424832049999 Zr
atom_frac 0.4680984123345714 0.5775227068394286 0.8871424832049999 Zr
atom_frac 0.6109555551917141 0.5775227068394286 0.8871424832049999 Zr
atom_frac 0.7538126980488571 0.5775227068394286 0.8871424832049999 Zr
atom_frac 0.8966698409060000 0.5775227068394286 0.8871424832049999 Zr
atom_frac 0.0395269837631429 0.7203798496965714 0.8871424832049999 Zr
atom_frac 0.1823841266202857 0.7203798496965714 0.8871424832049999 Zr
atom_frac 0.3252412694774285 0.7203798496965714 0.8871424832049999 Zr
atom_frac 0.4680984123345714 0.7203798496965714 0.8871424832049999 Zr
atom_frac 0.6109555551917141 0.7203798496965714 0.8871424832049999 Zr
atom_frac 0.7538126980488571 0.7203798496965714 0.8871424832049999 Zr
atom_frac 0.8966698409060000 0.7203798496965714 0.8871424832049999 Zr
atom_frac 0.0395269837631429 0.8632369925537142 0.8871424832049999 Zr
atom_frac 0.1823841266202857 0.8632369925537142 0.8871424832049999 Zr
atom_frac 0.3252412694774285 0.8632369925537142 0.8871424832049999 Zr
atom_frac 0.4680984123345714 0.8632369925537142 0.8871424832049999 Zr
atom_frac 0.6109555551917141 0.8632369925537142 0.8871424832049999 Zr
atom_frac 0.7538126980488571 0.8632369925537142 0.8871424832049999 Zr
atom_frac 0.8966698409060000 0.8632369925537142 0.8871424832049999 Zr
atom_frac 0.1033301509511429 0.1367630074462857 0.1128575187950000 Zr
atom_frac 0.2461872938082857 0.1367630074462857 0.1128575187950000 Zr
atom_frac 0.3890444366654285 0.1367630074462857 0.1128575187950000 Zr
atom_frac 0.5319015795225713 0.1367630074462857 0.1128575187950000 Zr
atom_frac 0.6747587223797142 0.1367630074462857 0.1128575187950000 Zr
atom_frac 0.8176158652368570 0.1367630074462857 0.1128575187950000 Zr
atom_frac 0.9604730080940000 0.1367630074462857 0.1128575187950000 Zr
atom_frac 0.1033301509511429 0.2796201503034286 0.1128575187950000 Zr
atom_frac 0.2461872938082857 0.2796201503034286 0.1128575187950000 Zr
atom_frac 0.3890444366654285 0.2796201503034286 0.1128575187950000 Zr
atom_frac 0.5319015795225713 0.2796201503034286 0.1128575187950000 Zr
atom_frac 0.6747587223797142 0.2796201503034286 0.1128575187950000 Zr
atom_frac 0.8176158652368570 0.2796201503034286 0.1128575187950000 Zr
atom_frac 0.9604730080940000 0.2796201503034286 0.1128575187950000 Zr
atom_frac 0.1033301509511429 0.4224772931605714 0.1128575187950000 Zr
atom_frac 0.2461872938082857 0.4224772931605714 0.1128575187950000 Zr
atom_frac 0.3890444366654285 0.4224772931605714 0.1128575187950000 Zr
atom_frac 0.5319015795225713 0.4224772931605714 0.1128575187950000 Zr
atom_frac 0.6747587223797142 0.4224772931605714 0.1128575187950000 Zr
atom_frac 0.8176158652368570 0.4224772931605714 0.1128575187950000 Zr
atom_frac 0.9604730080940000 0.4224772931605714 0.1128575187950000 Zr
atom_frac 0.1033301509511429 0.5653344360177143 0.1128575187950000 Zr
atom_frac 0.2461872938082857 0.5653344360177143 0.1128575187950000 Zr
atom_frac 0.3890444366654285 0.5653344360177143 0.1128575187950000 Zr
atom_frac 0.5319015795225713 0.5653344360177143 0.1128575187950000 Zr
atom_frac 0.6747587223797142 0.5653344360177143 0.1128575187950000 Zr
atom_frac 0.8176158652368570 0.5653344360177143 0.1128575187950000 Zr
atom_frac 0.9604730080940000 0.5653344360177143 0.1128575187950000 Zr
atom_frac 0.1033301509511429 0.7081915788748572 0.1128575187950000 Zr
atom_frac 0.2461872938082857 0.7081915788748572 0.1128575187950000 Zr
atom_frac 0.3890444366654285 0.7081915788748572 0.1128575187950000 Zr
atom_frac 0.5319015795225713 0.7081915788748572 0.1128575187950000 Zr
atom_frac 0.6747587223797142 0.7081915788748572 0.1128575187950000 Zr
atom_frac 0.8176158652368570 0.7081915788748572 0.1128575187950000 Zr
atom_frac 0.9604730080940000 0.7081915788748572 0.1128575187950000 Zr
atom_frac 0.1033301509511429 0.8510487217320001 0.1128575187950000 Zr
atom_frac 0.2461872938082857 0.8510487217320001 0.1128575187950000 Zr
atom_frac 0.3890444366654285 0.8510487217320001 0.1128575187950000 Zr
atom_frac 0.5319015795225713 0.8510487217320001 0.1128575187950000 Zr
atom_frac 0.6747587223797142 0.8510487217320001 0.1128575187950000 Zr
atom_frac 0.8176158652368570 0.8510487217320001 0.1128575187950000 Zr
atom_frac 0.9604730080940000 0.8510487217320001 0.1128575187950000 Zr
atom_frac 0.1033301509511429 0.9939058645891429 0.1128575187950000 Zr
atom_frac 0.2461872938082857 0.9939058645891429 0.1128575187950000 Zr
atom_frac 0.3890444366654285 0.9939058645891429 0.1128575187950000 Zr
atom_frac 0.5319015795225713 0.9939058645891429 0.1128575187950000 Zr
atom_frac 0.6747587223797142 0.9939058645891429 0.1128575187950000 Zr
atom_frac 0.8176158652368570 0.9939058645891429 0.1128575187950000 Zr
atom_frac 0.9604730080940000 0.9939058645891429 0.1128575187950000 Zr
atom_frac 0.1033301509511429 0.1367630074462857 0.2557146616521428 Zr
atom_frac 0.2461872938082857 0.1367630074462857 0.2557146616521428 Zr
atom_frac 0.3890444366654285 0.1367630074462857 0.2557146616521428 Zr
atom_frac 0.5319015795225713 0.1367630074462857 0.2557146616521428 Zr
atom_frac 0.6747587223797142 0.1367630074462857 0.2557146616521428 Zr
atom_frac 0.8176158652368570 0.1367630074462857 0.2557146616521428 Zr
atom_frac 0.9604730080940000 0.1367630074462857 0.2557146616521428 Zr
atom_frac 0.1033301509511429 0.2796201503034286 0.2557146616521428 Zr
atom_frac 0.2461872938082857 0.2796201503034286 0.2557146616521428 Zr
atom_frac 0.3890444366654285 0.2796201503034286 0.2557146616521428 Zr
atom_frac 0.5319015795225713 0.2796201503034286 0.2557146616521428 Zr
atom_frac 0.6747587223797142 0.2796201503034286 0.2557146616521428 Zr
atom_frac 0.8176158652368570 0.2796201503034286 0.2557146616521428 Zr
atom_frac 0.9604730080940000 0.2796201503034286 0.2557146616521428 Zr
atom_frac 0.1033301509511429 0.4224772931605714 0.2557146616521428 Zr
atom_frac 0.2461872938082857 0.4224772931605714 0.2557146616521428 Zr
atom_frac 0.3890444366654285 0.4224772931605714 0.2557146616521428 Zr
atom_frac 0.5319015795225713 0.4224772931605714 0.2557146616521428 Zr
atom_frac 0.6747587223797142 0.4224772931605714 0.2557146616521428 Zr
atom_frac 0.8176158652368570 0.4224772931605714 0.2557146616521428 Zr
atom_frac 0.9604730080940000 0.4224772931605714 0.2557146616521428 Zr
atom_frac 0.1033301509511429 0.5653344360177143 0.2557146616521428 Zr
atom_frac 0.2461872938082857 0.5653344360177143 0.2557146616521428 Zr
atom_frac 0.3890444366654285 0.5653344360177143 0.2557146616521428 Zr
atom_frac 0.5319015795225713 0.5653344360177143 0.2557146616521428 Zr
atom_frac 0.6747587223797142 0.5653344360177143 0.2557146616521428 Zr