#=======================================================
# FHI-aims file: 600_geometry.in.primitive.supercell_1500.0010K
# Created using the Atomic Simulation Environment (ASE)
# Sat Nov 26 17:29:14 2022

# Additional information:
#  created from MB distrubtion
#  T = 10.0 K
#  quantum:             False
#  deterministic:       False
#  plus_minus:          False
#  gauge_eigenvectors:  False
#  Random seed:         1410918985
#  Sample number:       1
#=======================================================
lattice_vector 25.8049999999999997 0.0000000000000000 0.0000000000000000 
lattice_vector 0.0000000000000000 26.0650000000000013 0.0000000000000000 
lattice_vector -4.2452219069654822 0.0000000000000000 26.3097052617588325 
atom 1.2496942447473680 0.2223810952775880 1.1049938475211403 Zr
    velocity -0.0638380665141711 -0.0936349597132141 -0.5297783812199361
atom 6.4106942447473685 0.2223810952775880 1.1049938475211403 Zr
    velocity -0.3622504381864524 0.6935728468925675 0.0328779265996497
atom 11.5716942447473681 0.2223810952775880 1.1049938475211403 Zr
    velocity 0.0449533100391757 -0.6564058160529106 -0.3821679757107079
atom 16.7326942447473677 0.2223810952775880 1.1049938475211403 Zr
    velocity -0.2725660721438902 -0.1329310472933879 -0.0651548803094417
atom 21.8936942447473655 0.2223810952775880 1.1049938475211403 Zr
    velocity -0.4722096775665008 -0.0122244150607471 0.1106001256675532
atom 1.2496942447473680 5.4353810952775881 1.1049938475211403 Zr
    velocity 0.1513386686098612 -0.1104561723528794 0.0399814908666305
atom 6.4106942447473685 5.4353810952775881 1.1049938475211403 Zr
    velocity 0.1480286384178779 0.0092277343524203 0.0083819805666603
atom 11.5716942447473681 5.4353810952775881 1.1049938475211403 Zr
    velocity -0.3633354526558187 -0.4751451027043757 -0.0510339116532588
atom 16.7326942447473677 5.4353810952775881 1.1049938475211403 Zr
    velocity 0.1455641348994779 -0.1059959486439414 -0.1109966463117826
atom 21.8936942447473655 5.4353810952775881 1.1049938475211403 Zr
    velocity -0.3238561314432749 -0.0777593531004887 -0.1312193627610874
atom 1.2496942447473680 10.6483810952775908 1.1049938475211403 Zr
    velocity 0.1669886203380058 0.1021125332949905 -0.2060129270353498
atom 6.4106942447473685 10.6483810952775908 1.1049938475211403 Zr
    velocity 0.2539614557610457 -0.0034985130078349 -0.6588289052388607
atom 11.5716942447473681 10.6483810952775908 1.1049938475211403 Zr
    velocity -0.1768645719840301 -0.0478155814955840 -0.2329957607715823
atom 16.7326942447473677 10.6483810952775908 1.1049938475211403 Zr
    velocity -0.5901534910286189 -0.0478260012810103 -0.5900225618365447
atom 21.8936942447473655 10.6483810952775908 1.1049938475211403 Zr
    velocity 0.2742709043623383 0.7034314041038053 -0.1439146487415983
atom 1.2496942447473680 15.8613810952775900 1.1049938475211403 Zr
    velocity 0.1617068483504487 0.1599706403758966 0.2410234839932157
atom 6.4106942447473685 15.8613810952775900 1.1049938475211403 Zr
    velocity -0.0768218550371794 0.0435383308120717 0.0060124401110685
atom 11.5716942447473681 15.8613810952775900 1.1049938475211403 Zr
    velocity 0.0409062631830448 0.1489181567316057 -0.4434333454812497
atom 16.7326942447473677 15.8613810952775900 1.1049938475211403 Zr
    velocity -0.0757965365432210 -0.1380049660438106 0.0332129016027478
atom 21.8936942447473655 15.8613810952775900 1.1049938475211403 Zr
    velocity 0.1422907117485256 0.1712857722263687 -0.0525956097042666
atom 1.2496942447473680 21.0743810952775910 1.1049938475211403 Zr
    velocity -0.0452858896522543 -0.0257839751545002 0.1323925888354226
atom 6.4106942447473685 21.0743810952775910 1.1049938475211403 Zr
    velocity -0.7082025476735140 0.2888560166450220 0.2915356558298695
atom 11.5716942447473681 21.0743810952775910 1.1049938475211403 Zr
    velocity 0.1708523250366367 0.1707004142850216 -0.0734487403315621
atom 16.7326942447473677 21.0743810952775910 1.1049938475211403 Zr
    velocity 0.4490760968719451 -0.3060020005670495 -0.0557278921940711
atom 21.8936942447473655 21.0743810952775910 1.1049938475211403 Zr
    velocity 0.4924385631288699 -0.0967985332909402 0.1777678218601546
atom 0.4006498633542711 0.2223810952775880 6.3669348998729092 Zr
    velocity 0.3360581390671328 0.0744736844919374 0.0491794959070004
atom 5.5616498633542717 0.2223810952775880 6.3669348998729092 Zr
    velocity -0.5552065765380529 0.4012661270467886 0.1919823126316928
atom 10.7226498633542722 0.2223810952775880 6.3669348998729092 Zr
    velocity 0.2626026703747528 -0.0321479384253845 -0.4225864014099480
atom 15.8836498633542718 0.2223810952775880 6.3669348998729092 Zr
    velocity -0.1954344333876316 0.0878460784753643 0.2144582024730489
atom 21.0446498633542696 0.2223810952775880 6.3669348998729092 Zr
    velocity 0.0596903632909364 0.1907394646835217 0.1361315544409230
atom 0.4006498633542711 5.4353810952775881 6.3669348998729092 Zr
    velocity -0.1379402643152845 0.0398945083187537 -0.2194753068497945
atom 5.5616498633542717 5.4353810952775881 6.3669348998729092 Zr
    velocity 0.1363064649462007 -0.3761109333389627 -0.1931711079802297
atom 10.7226498633542722 5.4353810952775881 6.3669348998729092 Zr
    velocity -0.6730076864092518 0.1352426651995946 -0.3678886493800002
atom 15.8836498633542718 5.4353810952775881 6.3669348998729092 Zr
    velocity 0.0946901450638465 0.4806776585250248 0.3056441243493824
atom 21.0446498633542696 5.4353810952775881 6.3669348998729092 Zr
    velocity -0.1792841437660212 0.2435840374687005 0.3352012420143873
atom 0.4006498633542711 10.6483810952775908 6.3669348998729092 Zr
    velocity -0.0715804958815819 0.0370269917741158 -0.2527678312313699
atom 5.5616498633542717 10.6483810952775908 6.3669348998729092 Zr
    velocity 0.3830779368699809 -0.1461820168559754 0.0149841221300616
atom 10.7226498633542722 10.6483810952775908 6.3669348998729092 Zr
    velocity -0.3251777761394908 0.3942046546016515 0.4538194134490940
atom 15.8836498633542718 10.6483810952775908 6.3669348998729092 Zr
    velocity -0.0802514131286860 -0.4274892546737953 0.3195059062056678
atom 21.0446498633542696 10.6483810952775908 6.3669348998729092 Zr
    velocity 0.1190395922346787 -0.7796991944035970 0.3181342475273519
atom 0.4006498633542711 15.8613810952775900 6.3669348998729092 Zr
    velocity 0.0072345935190196 -0.3603856117282154 -0.1330735613146962
atom 5.5616498633542717 15.8613810952775900 6.3669348998729092 Zr
    velocity -0.3116114889725458 0.0458799322254391 0.6517876283915673
atom 10.7226498633542722 15.8613810952775900 6.3669348998729092 Zr
    velocity 0.2140696622488736 -0.2415090487077662 0.1482094934378564
atom 15.8836498633542718 15.8613810952775900 6.3669348998729092 Zr
    velocity 0.4647682057668592 -0.0521422150384680 -0.7613017228769906
atom 21.0446498633542696 15.8613810952775900 6.3669348998729092 Zr
    velocity -0.1507415571415878 -0.5585232770047404 0.1892391642048453
atom 0.4006498633542711 21.0743810952775910 6.3669348998729092 Zr
    velocity 0.1436076900547934 0.0375249839581553 0.0149753323363071
atom 5.5616498633542717 21.0743810952775910 6.3669348998729092 Zr
    velocity 0.1322948481192143 0.4117120724519640 0.4363981773795853
atom 10.7226498633542722 21.0743810952775910 6.3669348998729092 Zr
    velocity 0.5113710173011289 0.1564605131848593 -0.2400029659211408
atom 15.8836498633542718 21.0743810952775910 6.3669348998729092 Zr
    velocity 0.0483230164482821 -0.3815139137691601 -0.1159810743269482
atom 21.0446498633542696 21.0743810952775910 6.3669348998729092 Zr
    velocity 0.0956664547356278 0.0048618523431847 0.2094756237915203
atom -0.4483945180388255 0.2223810952775880 11.6288759522246767 Zr
    velocity 0.1531421809115284 0.2314547200063629 -0.1558528728116588
atom 4.7126054819611749 0.2223810952775880 11.6288759522246767 Zr
    velocity 0.0096138091901131 0.5015601807758923 0.0570299551240768
atom 9.8736054819611745 0.2223810952775880 11.6288759522246767 Zr
    velocity 0.0383590154098259 -0.3446595021397450 0.0716772832338067
atom 15.0346054819611741 0.2223810952775880 11.6288759522246767 Zr
    velocity 0.0243310187379121 0.6166384816928138 0.0507657671281737
atom 20.1956054819611737 0.2223810952775880 11.6288759522246767 Zr
    velocity 0.4296059076563136 0.2453598017044034 -0.2129045376513823
atom -0.4483945180388255 5.4353810952775881 11.6288759522246767 Zr
    velocity -0.1272562576175235 0.0443494480023741 -0.2459449567592774
atom 4.7126054819611749 5.4353810952775881 11.6288759522246767 Zr
    velocity -0.3591369356350070 -0.4667787764733607 -0.3053962419962608
atom 9.8736054819611745 5.4353810952775881 11.6288759522246767 Zr
    velocity -0.0458906727103319 -0.3255729434136370 -0.1863889695862223
atom 15.0346054819611741 5.4353810952775881 11.6288759522246767 Zr
    velocity 0.0741759172432642 0.5991317867628019 -0.3906644366402139
atom 20.1956054819611737 5.4353810952775881 11.6288759522246767 Zr
    velocity 0.3282532865394726 0.4076729160409932 0.6850089549610773
atom -0.4483945180388255 10.6483810952775908 11.6288759522246767 Zr
    velocity 0.2464821782977442 0.2777899268393737 0.8143936096924379
atom 4.7126054819611749 10.6483810952775908 11.6288759522246767 Zr
    velocity 0.1075273260157422 -0.3470026846795955 0.0322316504477557
atom 9.8736054819611745 10.6483810952775908 11.6288759522246767 Zr
    velocity -0.1172716620316242 -0.2846234555725516 0.0418010982559534
atom 15.0346054819611741 10.6483810952775908 11.6288759522246767 Zr
    velocity -0.4804863001415889 0.0048217627139156 0.4733520594131213
atom 20.1956054819611737 10.6483810952775908 11.6288759522246767 Zr
    velocity -0.2005177670264044 0.1512152496904040 0.1080166078346615
atom -0.4483945180388255 15.8613810952775900 11.6288759522246767 Zr
    velocity -0.1934064665798304 0.4042722963796382 -0.1530155065097257
atom 4.7126054819611749 15.8613810952775900 11.6288759522246767 Zr
    velocity -0.4087144327481835 0.4367555601436219 0.3455130891895362
atom 9.8736054819611745 15.8613810952775900 11.6288759522246767 Zr
    velocity 0.1154277250510973 0.0118194762862384 0.5872844834078130
atom 15.0346054819611741 15.8613810952775900 11.6288759522246767 Zr
    velocity -0.1354872846825549 0.3446346775561902 -0.2235364674181142
atom 20.1956054819611737 15.8613810952775900 11.6288759522246767 Zr
    velocity 0.3819183955211382 -0.2443376407332635 -0.1082575119699071
atom -0.4483945180388255 21.0743810952775910 11.6288759522246767 Zr
    velocity 0.0125007379969716 0.4370161001959235 -0.5359917030268024
atom 4.7126054819611749 21.0743810952775910 11.6288759522246767 Zr
    velocity 0.2333690333669489 0.2308075135138001 0.1660572769418685
atom 9.8736054819611745 21.0743810952775910 11.6288759522246767 Zr
    velocity 0.2751843485652153 -0.1566160416960383 0.3943012338132281
atom 15.0346054819611741 21.0743810952775910 11.6288759522246767 Zr
    velocity -0.1083148750227700 0.2455201794358430 0.0785024061972786
atom 20.1956054819611737 21.0743810952775910 11.6288759522246767 Zr
    velocity 0.4364750803868295 -0.4311609865112112 0.4279405570642062
atom -1.2974388994319217 0.2223810952775880 16.8908170045764408 Zr
    velocity 0.1321957995112090 0.2044686726218563 -0.2129451832365227
atom 3.8635611005680786 0.2223810952775880 16.8908170045764408 Zr
    velocity 0.5100223715845904 0.2738303636035164 -0.3003341021084436
atom 9.0245611005680786 0.2223810952775880 16.8908170045764408 Zr
    velocity 0.3269426508052928 0.0312377705594661 -0.1364788760158941
atom 14.1855611005680782 0.2223810952775880 16.8908170045764408 Zr
    velocity 0.6887834881722100 0.5087785279404047 -0.5052229512557039
atom 19.3465611005680778 0.2223810952775880 16.8908170045764408 Zr
    velocity 0.2990825734230529 0.5044003271995802 0.1907458689068944
atom -1.2974388994319217 5.4353810952775881 16.8908170045764408 Zr
    velocity 0.1446651058979190 0.3453513577622208 0.1127491011804875
atom 3.8635611005680786 5.4353810952775881 16.8908170045764408 Zr
    velocity 0.4285797792242992 -0.1386850185784441 -0.1239994613734652
atom 9.0245611005680786 5.4353810952775881 16.8908170045764408 Zr
    velocity 0.1416971744753866 -0.1534572489976818 -0.1435569923665587
atom 14.1855611005680782 5.4353810952775881 16.8908170045764408 Zr
    velocity 0.9052371295948484 0.1418789767452894 -0.3310909879468451
atom 19.3465611005680778 5.4353810952775881 16.8908170045764408 Zr
    velocity -0.1522335994114988 0.2104179747086717 0.3241435074615510
atom -1.2974388994319217 10.6483810952775908 16.8908170045764408 Zr
    velocity 0.1732425692374649 0.4051412923128010 0.2652630789434885
atom 3.8635611005680786 10.6483810952775908 16.8908170045764408 Zr
    velocity -0.2497587817160336 -0.6887697986614768 0.4174349862599676
atom 9.0245611005680786 10.6483810952775908 16.8908170045764408 Zr
    velocity 0.1364485359086623 -0.3712771610765719 0.4341788958472015
atom 14.1855611005680782 10.6483810952775908 16.8908170045764408 Zr
    velocity -0.3238664181608266 -0.2052290933177107 -0.5162685361380142
atom 19.3465611005680778 10.6483810952775908 16.8908170045764408 Zr
    velocity -0.3221501797779295 -0.1328965574114006 -0.0747000048291849
atom -1.2974388994319217 15.8613810952775900 16.8908170045764408 Zr
    velocity 0.4209536443832670 0.1173278809787675 0.3372064702797344
atom 3.8635611005680786 15.8613810952775900 16.8908170045764408 Zr
    velocity 0.4223903443693016 -0.1193049963572083 -0.2603595932055811
atom 9.0245611005680786 15.8613810952775900 16.8908170045764408 Zr
    velocity 0.2303140301515490 0.5280726717720110 0.1860476457981814
atom 14.1855611005680782 15.8613810952775900 16.8908170045764408 Zr
    velocity -0.4849324990757851 0.2276045636026036 -0.5258460525051714
atom 19.3465611005680778 15.8613810952775900 16.8908170045764408 Zr
    velocity 0.3972979494535372 -0.5642545063936231 -0.3015165784354255
atom -1.2974388994319217 21.0743810952775910 16.8908170045764408 Zr
    velocity -0.0896047086445514 0.0695373349318139 0.0625087822767211
atom 3.8635611005680786 21.0743810952775910 16.8908170045764408 Zr
    velocity -0.0800555824229593 0.1435096474272377 0.0181784306300224
atom 9.0245611005680786 21.0743810952775910 16.8908170045764408 Zr
    velocity 0.1802980829480557 0.3066161721049161 -0.4297701186829094
atom 14.1855611005680782 21.0743810952775910 16.8908170045764408 Zr
    velocity 0.0487980142662535 0.0553501601628884 -0.1700824612369314
atom 19.3465611005680778 21.0743810952775910 16.8908170045764408 Zr
    velocity 0.3032891039784794 -0.1191646426118455 0.1897229209221593
atom -2.1464832808250183 0.2223810952775880 22.1527580569282101 Zr
    velocity -0.3658746207690961 -0.2536904253970084 0.0795742604038031
atom 3.0145167191749844 0.2223810952775880 22.1527580569282101 Zr
    velocity 0.2517475294869252 0.0692405163462350 -0.2406693896417662
atom 8.1755167191749827 0.2223810952775880 22.1527580569282101 Zr
    velocity -0.0706021785769965 -0.0959600978076924 -0.4901756132709569
atom 13.3365167191749823 0.2223810952775880 22.1527580569282101 Zr
    velocity 0.1740339545041496 0.3120991381838089 -0.2552092556885908
atom 18.4975167191749819 0.2223810952775880 22.1527580569282101 Zr
    velocity -0.1706950809086403 -0.2168888259871820 -0.3904652562719059
atom -2.1464832808250183 5.4353810952775881 22.1527580569282101 Zr
    velocity -0.1280344559109913 -0.0505648078183767 0.1685795880949946
atom 3.0145167191749844 5.4353810952775881 22.1527580569282101 Zr
    velocity 0.0597664813478752 0.7836296344806529 0.3593122490095987
atom 8.1755167191749827 5.4353810952775881 22.1527580569282101 Zr
    velocity 0.6038107813159297 0.0496527644422595 0.2497520205237852
atom 13.3365167191749823 5.4353810952775881 22.1527580569282101 Zr
    velocity -0.1954092727063984 0.0689069576868885 0.0249640868766186
atom 18.4975167191749819 5.4353810952775881 22.1527580569282101 Zr
    velocity -0.1892110948719678 -0.3570247676955771 0.0938852304501361
atom -2.1464832808250183 10.6483810952775908 22.1527580569282101 Zr
    velocity -0.0857641276409458 0.1087412993725397 -0.1038278029968436
atom 3.0145167191749844 10.6483810952775908 22.1527580569282101 Zr
    velocity -0.2055406465744345 -0.6612128068834147 0.1091049071117141
atom 8.1755167191749827 10.6483810952775908 22.1527580569282101 Zr
    velocity -0.0811383566840814 -0.2380719108271185 0.4963424788374468
atom 13.3365167191749823 10.6483810952775908 22.1527580569282101 Zr
    velocity 0.0923094031246011 -0.1317800066938371 0.2577455742322465
atom 18.4975167191749819 10.6483810952775908 22.1527580569282101 Zr
    velocity -0.3847329086968868 0.1243450348800190 0.2659518973285366
atom -2.1464832808250183 15.8613810952775900 22.1527580569282101 Zr
    velocity 0.0596772073661035 -0.2255773818031627 -0.0476225355631769
atom 3.0145167191749844 15.8613810952775900 22.1527580569282101 Zr
    velocity 0.0089342265632788 -0.2272658157720859 -0.3240646400024382
atom 8.1755167191749827 15.8613810952775900 22.1527580569282101 Zr
    velocity 0.4056208468626676 -0.2616537978426170 0.0780202293232074
atom 13.3365167191749823 15.8613810952775900 22.1527580569282101 Zr
    velocity -0.2095588138765806 -0.2501759173714515 -0.3851609058622233
atom 18.4975167191749819 15.8613810952775900 22.1527580569282101 Zr
    velocity 0.3591224926340070 0.4939848673211892 -0.4856814533060643
atom -2.1464832808250183 21.0743810952775910 22.1527580569282101 Zr
    velocity 0.1725328764162663 -0.1000470631281896 -0.0172092345264725
atom 3.0145167191749844 21.0743810952775910 22.1527580569282101 Zr
    velocity -0.1804547413234970 -0.2668469912827156 0.5600623959041089
atom 8.1755167191749827 21.0743810952775910 22.1527580569282101 Zr
    velocity -0.1444469102082095 -0.1042035754020430 0.2714421846516605
atom 13.3365167191749823 21.0743810952775910 22.1527580569282101 Zr
    velocity 0.1312847902025983 0.2352336679355663 0.3577484989814387
atom 18.4975167191749819 21.0743810952775910 22.1527580569282101 Zr
    velocity -0.0008234246930005 0.7903808748831561 -0.1399136507247381
atom 3.0622610677959168 4.9906189047224121 4.1569472784978005 Zr
    velocity -0.4138947383481935 0.2196834106362088 0.1434760587712323
atom 8.2232610677959137 4.9906189047224121 4.1569472784978005 Zr
    velocity 0.2243762059858223 -0.6866589003964564 -0.1516407587476935
atom 13.3842610677959133 4.9906189047224121 4.1569472784978005 Zr
    velocity -0.0489060321831008 0.2306901702078797 -0.0345299347886650
atom 18.5452610677959129 4.9906189047224121 4.1569472784978005 Zr
    velocity -0.1505756189956560 -0.3534895080813590 -0.0202754490410458
atom 23.7062610677959178 4.9906189047224121 4.1569472784978005 Zr
    velocity 0.1446158864715847 -0.3258298194756825 -0.0604553227093324
atom 3.0622610677959168 10.2036189047224131 4.1569472784978005 Zr
    velocity -0.5921329429333753 -0.0709117154976809 0.4801941047500683
atom 8.2232610677959137 10.2036189047224131 4.1569472784978005 Zr
    velocity -0.0358374930139442 0.1110330590436743 -0.7135721123873611
atom 13.3842610677959133 10.2036189047224131 4.1569472784978005 Zr
    velocity 0.0016454024682814 0.1715149493383821 -0.3636498037318498
atom 18.5452610677959129 10.2036189047224131 4.1569472784978005 Zr
    velocity 0.2901179843340237 -0.3689239325432931 0.1970178261538727
atom 23.7062610677959178 10.2036189047224131 4.1569472784978005 Zr
    velocity 0.3248990341424040 0.0856406583258540 0.0754065800070362
atom 3.0622610677959168 15.4166189047224140 4.1569472784978005 Zr
    velocity -0.0407092346612637 0.0652855845367692 -0.1536132864701893
atom 8.2232610677959137 15.4166189047224140 4.1569472784978005 Zr
    velocity 0.1053655766603265 0.3026506068294152 -0.1364429510825259
atom 13.3842610677959133 15.4166189047224140 4.1569472784978005 Zr
    velocity 0.3047271059892697 0.3809658735802086 -0.1566298843723059
atom 18.5452610677959129 15.4166189047224140 4.1569472784978005 Zr
    velocity -0.5149033975570287 -0.1691634823705833 0.0884306714967716
atom 23.7062610677959178 15.4166189047224140 4.1569472784978005 Zr
    velocity -0.4135510825189010 0.0229300133386200 0.2346278116622382
atom 3.0622610677959168 20.6296189047224168 4.1569472784978005 Zr
    velocity -0.4270509525796100 0.1721002187266802 0.6352075962078473
atom 8.2232610677959137 20.6296189047224168 4.1569472784978005 Zr
    velocity -0.0241570471210477 -0.5843865996399561 0.0904943499663141
atom 13.3842610677959133 20.6296189047224168 4.1569472784978005 Zr
    velocity -0.2592575820605118 -0.0430609985868887 0.1616366667668869
atom 18.5452610677959129 20.6296189047224168 4.1569472784978005 Zr
    velocity 0.2586832767311392 0.0344682180427567 -0.0342555093603199
atom 23.7062610677959178 20.6296189047224168 4.1569472784978005 Zr
    velocity -0.0851688245346198 -0.1064463214883527 -0.4776574691537632
atom 3.0622610677959168 25.8426189047224142 4.1569472784978005 Zr
    velocity 0.2021632290696614 0.1686282311033696 -0.0169281168906678
atom 8.2232610677959137 25.8426189047224142 4.1569472784978005 Zr
    velocity 0.4994763620321875 0.4877005846375694 0.5009092021520810
atom 13.3842610677959133 25.8426189047224142 4.1569472784978005 Zr
    velocity -0.1517597076035727 -0.0482775393745512 0.0147030481901641
atom 18.5452610677959129 25.8426189047224142 4.1569472784978005 Zr
    velocity -0.0226879175062297 0.7635190029715918 -0.2779676421647551
atom 23.7062610677959178 25.8426189047224142 4.1569472784978005 Zr
    velocity 0.2544885416358025 -0.1178579628298010 0.5087167979727927
atom 2.2132166864028200 4.9906189047224121 9.4188883308495708 Zr
    velocity -0.1772085561753937 0.5049734408136713 -0.1380560024782077
atom 7.3742166864028178 4.9906189047224121 9.4188883308495708 Zr
    velocity 0.1659590369043328 -0.0117142331129360 -0.1656583529251666
atom 12.5352166864028174 4.9906189047224121 9.4188883308495708 Zr
    velocity -0.0885219200509321 0.1286446370167844 -0.2370479162940930
atom 17.6962166864028170 4.9906189047224121 9.4188883308495708 Zr
    velocity -0.1031187737284234 -0.5267946673234420 -0.2865031985126896
atom 22.8572166864028219 4.9906189047224121 9.4188883308495708 Zr
    velocity 0.2569569172856692 0.3962257165537471 0.1230082810815340
atom 2.2132166864028200 10.2036189047224131 9.4188883308495708 Zr
    velocity -0.1892996382533865 -0.5892638867832469 0.1657825777757247
atom 7.3742166864028178 10.2036189047224131 9.4188883308495708 Zr
    velocity -0.8047001241507309 0.5247735228323371 0.2021340563953029
atom 12.5352166864028174 10.2036189047224131 9.4188883308495708 Zr
    velocity 0.1608898988183688 -0.6374956762894831 0.1393407004313126
atom 17.6962166864028170 10.2036189047224131 9.4188883308495708 Zr
    velocity -0.2105579789543862 -0.1906246793058901 0.0964510003183508
atom 22.8572166864028219 10.2036189047224131 9.4188883308495708 Zr
    velocity 0.2166478020191741 0.3081900311967348 -0.4552836656420031
atom 2.2132166864028200 15.4166189047224140 9.4188883308495708 Zr
    velocity -0.1729129358721884 0.5563198406330597 0.2768084371109145
atom 7.3742166864028178 15.4166189047224140 9.4188883308495708 Zr
    velocity 0.2643528757526237 0.6356538577305708 0.7388231433937803
atom 12.5352166864028174 15.4166189047224140 9.4188883308495708 Zr
    velocity -0.2317976014315405 0.0286211517311275 0.7013497897225109
atom 17.6962166864028170 15.4166189047224140 9.4188883308495708 Zr
    velocity 0.2691062443622706 0.2050836461229686 0.1239846372573732
atom 22.8572166864028219 15.4166189047224140 9.4188883308495708 Zr
    velocity -0.3823777302433035 0.0376510173494528 -0.1860517550984372
atom 2.2132166864028200 20.6296189047224168 9.4188883308495708 Zr
    velocity -0.2986584365324776 0.0227898814087499 -0.1785386205285353
atom 7.3742166864028178 20.6296189047224168 9.4188883308495708 Zr
    velocity -0.4392324145392656 -0.0803063555326815 0.0709808029159396
atom 12.5352166864028174 20.6296189047224168 9.4188883308495708 Zr
    velocity 0.1202466057219989 0.2529959353024305 0.2383194961298063
atom 17.6962166864028170 20.6296189047224168 9.4188883308495708 Zr
    velocity -0.0552449062449445 -0.2161283680024389 0.3912519433245114
atom 22.8572166864028219 20.6296189047224168 9.4188883308495708 Zr
    velocity 0.0431080483581851 -0.2065458977483416 -0.4203473269641222
atom 2.2132166864028200 25.8426189047224142 9.4188883308495708 Zr
    velocity -0.0992180410726687 0.2105003007097554 0.1993465856876546
atom 7.3742166864028178 25.8426189047224142 9.4188883308495708 Zr
    velocity 0.3241412704736945 0.6972142920620997 -0.1250427859125368
atom 12.5352166864028174 25.8426189047224142 9.4188883308495708 Zr
    velocity 0.0596683382732836 0.0048697296058384 -0.1889375555544515
atom 17.6962166864028170 25.8426189047224142 9.4188883308495708 Zr
    velocity -0.0426123663002911 -0.0686696527050786 -0.0247338078243381
atom 22.8572166864028219 25.8426189047224142 9.4188883308495708 Zr
    velocity 0.1556801073429831 -0.0319028467155527 0.4693369467815385
atom 1.3641723050097234 4.9906189047224121 14.6808293832013366 Zr
    velocity 0.3691458359342907 0.0135975552306554 -0.0398546816185526
atom 6.5251723050097210 4.9906189047224121 14.6808293832013366 Zr
    velocity -0.4277070362802740 0.0704680200082433 -0.1778372970576747
atom 11.6861723050097233 4.9906189047224121 14.6808293832013366 Zr
    velocity 0.2183312550798117 -0.3770102731341831 0.0510263843706021
atom 16.8471723050097211 4.9906189047224121 14.6808293832013366 Zr
    velocity 0.1178631000275113 -0.4771142773369085 0.0658298837284111
atom 22.0081723050097260 4.9906189047224121 14.6808293832013366 Zr
    velocity -0.1416796204899846 -0.2112600182337652 -0.5340489285978196
atom 1.3641723050097234 10.2036189047224131 14.6808293832013366 Zr
    velocity -0.4348228237002423 -0.0274162918764678 0.2393727197596714
atom 6.5251723050097210 10.2036189047224131 14.6808293832013366 Zr
    velocity -0.1135616256817946 -0.1968787442785312 -0.6695923120402044
atom 11.6861723050097233 10.2036189047224131 14.6808293832013366 Zr
    velocity 0.1697774615914022 -0.0577760451581581 -0.1019349640677040
atom 16.8471723050097211 10.2036189047224131 14.6808293832013366 Zr
    velocity -0.3269780781938393 0.1283764730142861 -0.0814672182693224
atom 22.0081723050097260 10.2036189047224131 14.6808293832013366 Zr
    velocity 0.1415960176536099 -0.0005858236611816 -0.1900421305458791
atom 1.3641723050097234 15.4166189047224140 14.6808293832013366 Zr
    velocity -0.1416885496278462 -0.1569658194960292 -0.1656858558233953
atom 6.5251723050097210 15.4166189047224140 14.6808293832013366 Zr
    velocity -0.1767092079102896 -0.0270806255747234 0.9502417081279202
atom 11.6861723050097233 15.4166189047224140 14.6808293832013366 Zr
    velocity 0.2255931543312937 0.2616226914574740 0.0525577083389165
atom 16.8471723050097211 15.4166189047224140 14.6808293832013366 Zr
    velocity 0.2865576320736390 -0.0171629697862618 -0.3797118545363018
atom 22.0081723050097260 15.4166189047224140 14.6808293832013366 Zr
    velocity 0.0275632932563783 0.5893848867528024 0.1848205849553358
atom 1.3641723050097234 20.6296189047224168 14.6808293832013366 Zr
    velocity 0.3703134667822002 0.3361623284329427 0.1617127192164226
atom 6.5251723050097210 20.6296189047224168 14.6808293832013366 Zr
    velocity 0.3522040310295106 0.0037671312354562 0.4887921537022067
atom 11.6861723050097233 20.6296189047224168 14.6808293832013366 Zr
    velocity -0.0149397218774410 -0.3021815299504442 0.2233015783847324
atom 16.8471723050097211 20.6296189047224168 14.6808293832013366 Zr
    velocity 0.1135427175873824 -0.5061976584914205 -0.1526010318330273
atom 22.0081723050097260 20.6296189047224168 14.6808293832013366 Zr
    velocity -0.2720040169085976 -0.5870756729477548 -0.1271239131269024
atom 1.3641723050097234 25.8426189047224142 14.6808293832013366 Zr
    velocity 0.3948872726459960 -0.1381203401379032 0.0501839765309043
atom 6.5251723050097210 25.8426189047224142 14.6808293832013366 Zr
    velocity -0.0266537486860283 0.1545131507688891 0.0119487199268470
atom 11.6861723050097233 25.8426189047224142 14.6808293832013366 Zr
    velocity -0.1146152817077069 -0.0460749936904249 0.0784746857488528
atom 16.8471723050097211 25.8426189047224142 14.6808293832013366 Zr
    velocity -0.2418555779525179 -0.6504474430458966 0.5272043975893748
atom 22.0081723050097260 25.8426189047224142 14.6808293832013366 Zr
    velocity 0.3581626645289671 -0.1392180118330187 0.5068095602841326
atom 0.5151279236166266 4.9906189047224121 19.9427704355531041 Zr
    velocity 0.3070967240204888 0.0751342710139628 -0.6792594441353546
atom 5.6761279236166242 4.9906189047224121 19.9427704355531041 Zr
    velocity -0.0040477911056267 0.1466171289844591 0.0304386897149640
atom 10.8371279236166238 4.9906189047224121 19.9427704355531041 Zr
    velocity 0.4265547141209772 0.1466219068576460 0.1032300638697354
atom 15.9981279236166234 4.9906189047224121 19.9427704355531041 Zr
    velocity -0.0274203810451271 -0.2464053972542787 0.2746608050216831
atom 21.1591279236166301 4.9906189047224121 19.9427704355531041 Zr
    velocity -0.6901940847110904 -0.0416920928686300 -0.0177112213112181
atom 0.5151279236166266 10.2036189047224131 19.9427704355531041 Zr
    velocity -0.1085938251789463 -0.0955846951264352 0.3349104839108547
atom 5.6761279236166242 10.2036189047224131 19.9427704355531041 Zr
    velocity 0.2758588902560071 -0.0141336443948224 -0.0889430075672691
atom 10.8371279236166238 10.2036189047224131 19.9427704355531041 Zr
    velocity -0.5841485996685906 -0.4131683832229087 -0.0321623482780428
atom 15.9981279236166234 10.2036189047224131 19.9427704355531041 Zr
    velocity -0.0038200954030467 -0.0169023707002642 -0.6564048015816583
atom 21.1591279236166301 10.2036189047224131 19.9427704355531041 Zr
    velocity -0.1237094934720783 0.3074143500774545 0.2743192038979958
atom 0.5151279236166266 15.4166189047224140 19.9427704355531041 Zr
    velocity -0.1347542972162151 -0.4623360860900410 0.1713313399692341
atom 5.6761279236166242 15.4166189047224140 19.9427704355531041 Zr