#=======================================================
# FHI-aims file: 600_geometry.in.primitive.supercell_6144.0010K
# Created using the Atomic Simulation Environment (ASE)
# Sat Nov 26 17:29:38 2022

# Additional information:
#  created from MB distrubtion
#  T = 10.0 K
#  quantum:             False
#  deterministic:       False
#  plus_minus:          False
#  gauge_eigenvectors:  False
#  Random seed:         990631334
#  Sample number:       1
#=======================================================
lattice_vector 41.2879999999999967 0.0000000000000000 0.0000000000000000 
lattice_vector 0.0000000000000000 41.7040000000000006 0.0000000000000000 
lattice_vector -6.7923550511447717 0.0000000000000000 42.0955284188141334 
atom 1.2496942447473678 0.2223810952775880 1.1049938475211403 Zr
    velocity 0.5077634153829343 -0.2781511761742255 0.2463876393875644
atom 6.4106942447473685 0.2223810952775880 1.1049938475211403 Zr
    velocity -0.1681710154530922 -0.0701762722745310 0.5823713166476270
atom 11.5716942447473663 0.2223810952775880 1.1049938475211403 Zr
    velocity -0.1452994725828387 -0.4086471508272250 -0.1789820020636906
atom 16.7326942447473641 0.2223810952775880 1.1049938475211403 Zr
    velocity 0.1973793542462672 -0.2327431926694917 -0.2355981104152045
atom 21.8936942447473655 0.2223810952775880 1.1049938475211403 Zr
    velocity -0.1579749473321658 0.5397773245360569 -0.0536595951591475
atom 27.0546942447473633 0.2223810952775880 1.1049938475211403 Zr
    velocity 0.2675962589762819 0.1980719677699374 0.3808760302891008
atom 32.2156942447473611 0.2223810952775880 1.1049938475211403 Zr
    velocity -0.3185205397012850 0.3333149050311137 0.0153454731097882
atom 37.3766942447473625 0.2223810952775880 1.1049938475211403 Zr
    velocity -0.2472717533998923 0.1159417622358755 0.5647138478923514
atom 1.2496942447473678 5.4353810952775881 1.1049938475211403 Zr
    velocity -0.2376645653397892 -0.3593151896603778 -0.4424593728906648
atom 6.4106942447473685 5.4353810952775881 1.1049938475211403 Zr
    velocity -0.2574731440799246 -0.5044164085105826 -0.1374299181381319
atom 11.5716942447473663 5.4353810952775881 1.1049938475211403 Zr
    velocity 0.0507356237090933 -0.2491076977927182 -0.4996688537352034
atom 16.7326942447473641 5.4353810952775881 1.1049938475211403 Zr
    velocity 0.2732041696811502 0.1279393955728674 -0.3668101852982392
atom 21.8936942447473655 5.4353810952775881 1.1049938475211403 Zr
    velocity 0.0220180111166432 -0.3426612039694029 0.2357101332600921
atom 27.0546942447473633 5.4353810952775881 1.1049938475211403 Zr
    velocity -0.5178933070046765 0.1806619238128439 -0.3919853239579155
atom 32.2156942447473611 5.4353810952775881 1.1049938475211403 Zr
    velocity -0.0817365754890963 -0.2112208996464719 -0.2431687884310944
atom 37.3766942447473625 5.4353810952775881 1.1049938475211403 Zr
    velocity 0.4039340181853529 -0.1034543409056667 -0.1893335120950773
atom 1.2496942447473678 10.6483810952775890 1.1049938475211403 Zr
    velocity 0.3039499374791303 0.3715073783332806 -0.1485228339165169
atom 6.4106942447473685 10.6483810952775890 1.1049938475211403 Zr
    velocity 0.2295605581831516 -0.3824384808199999 -0.1818690456759390
atom 11.5716942447473663 10.6483810952775890 1.1049938475211403 Zr
    velocity 0.1551781398576331 0.3367700946166984 0.5205150800758332
atom 16.7326942447473641 10.6483810952775890 1.1049938475211403 Zr
    velocity -0.3395836764959250 0.0158032827007382 -0.1033366578901831
atom 21.8936942447473655 10.6483810952775890 1.1049938475211403 Zr
    velocity 0.0929657531732718 -0.4481914574912748 -0.2461816880267927
atom 27.0546942447473633 10.6483810952775890 1.1049938475211403 Zr
    velocity 0.2610285787120240 0.2255316584184718 0.0187979059473537
atom 32.2156942447473611 10.6483810952775890 1.1049938475211403 Zr
    velocity 0.4281455043756879 -0.2447476179941046 -0.0087697634280399
atom 37.3766942447473625 10.6483810952775890 1.1049938475211403 Zr
    velocity 0.8228539158362914 0.4151929549917186 0.3587740515483486
atom 1.2496942447473678 15.8613810952775900 1.1049938475211403 Zr
    velocity -0.0110369722770213 -0.5591503376935170 0.0210299554739575
atom 6.4106942447473685 15.8613810952775900 1.1049938475211403 Zr
    velocity 0.2814647252269256 0.0531995430459907 0.4135914673607844
atom 11.5716942447473663 15.8613810952775900 1.1049938475211403 Zr
    velocity 0.1231048070752378 -0.2826362222760041 -0.1681871945946689
atom 16.7326942447473641 15.8613810952775900 1.1049938475211403 Zr
    velocity -0.6311197220972543 0.5517638997236436 -0.5989176080623352
atom 21.8936942447473655 15.8613810952775900 1.1049938475211403 Zr
    velocity 0.1339174220262801 0.0830031331096222 0.3406913286754227
atom 27.0546942447473633 15.8613810952775900 1.1049938475211403 Zr
    velocity -0.3844556642404813 -0.2318972364782045 -0.4044496682328014
atom 32.2156942447473611 15.8613810952775900 1.1049938475211403 Zr
    velocity 0.1279297920278242 0.1578916720772262 0.1991458163524258
atom 37.3766942447473625 15.8613810952775900 1.1049938475211403 Zr
    velocity -0.1996971972848621 -0.1406252605787104 -0.2738752141744390
atom 1.2496942447473678 21.0743810952775910 1.1049938475211403 Zr
    velocity 0.1771059442332320 0.1512332531115733 -0.1002705056600209
atom 6.4106942447473685 21.0743810952775910 1.1049938475211403 Zr
    velocity 0.1290815508091518 -0.3399322423289223 -0.6064769607938696
atom 11.5716942447473663 21.0743810952775910 1.1049938475211403 Zr
    velocity -0.1889423009035107 0.3521760865819229 0.6776465723268486
atom 16.7326942447473641 21.0743810952775910 1.1049938475211403 Zr
    velocity -0.2255852349003578 -0.7128363216894114 -0.5341244100597372
atom 21.8936942447473655 21.0743810952775910 1.1049938475211403 Zr
    velocity -0.7618636235339878 0.4687173203565316 -0.1433502238101381
atom 27.0546942447473633 21.0743810952775910 1.1049938475211403 Zr
    velocity -0.0461428994727879 -0.1751906702003565 0.0889335496235225
atom 32.2156942447473611 21.0743810952775910 1.1049938475211403 Zr
    velocity -0.2307544449092490 0.0829643722154000 0.1413077523089795
atom 37.3766942447473625 21.0743810952775910 1.1049938475211403 Zr
    velocity -0.1053514912524683 -0.1783849360464272 -0.2025727850019061
atom 1.2496942447473678 26.2873810952775884 1.1049938475211403 Zr
    velocity 0.1622722146534124 0.1971800917503918 0.0660726868235856
atom 6.4106942447473685 26.2873810952775884 1.1049938475211403 Zr
    velocity -0.2279997908601399 -0.0444887946361242 0.1500202385139777
atom 11.5716942447473663 26.2873810952775884 1.1049938475211403 Zr
    velocity -0.3168644473612047 -0.2048242307115505 0.3224063903296487
atom 16.7326942447473641 26.2873810952775884 1.1049938475211403 Zr
    velocity -0.0560120896391865 -0.0889703778699180 0.3914500019640093
atom 21.8936942447473655 26.2873810952775884 1.1049938475211403 Zr
    velocity 0.3481706839753239 -0.2201831921014341 0.0176665263935362
atom 27.0546942447473633 26.2873810952775884 1.1049938475211403 Zr
    velocity -0.1307005409422348 0.7694713014692227 -0.4880985809740901
atom 32.2156942447473611 26.2873810952775884 1.1049938475211403 Zr
    velocity -0.2803379321883667 0.1155618855715472 -0.0086043571743254
atom 37.3766942447473625 26.2873810952775884 1.1049938475211403 Zr
    velocity -0.1810560680066751 0.4316989513505861 0.1364568040292812
atom 1.2496942447473678 31.5003810952775893 1.1049938475211403 Zr
    velocity 0.0682781274688165 0.0085794347716461 0.2631836506936276
atom 6.4106942447473685 31.5003810952775893 1.1049938475211403 Zr
    velocity 0.0485207655284478 0.0145738058261961 -0.0320841826827083
atom 11.5716942447473663 31.5003810952775893 1.1049938475211403 Zr
    velocity -0.0316785665402003 0.1062382985691718 -0.6500921519413476
atom 16.7326942447473641 31.5003810952775893 1.1049938475211403 Zr
    velocity 0.0341738835911904 -0.1293502709674769 0.2467312374909805
atom 21.8936942447473655 31.5003810952775893 1.1049938475211403 Zr
    velocity -0.1318422383826222 0.2408133384899885 -0.2259261048229021
atom 27.0546942447473633 31.5003810952775893 1.1049938475211403 Zr
    velocity 0.1157047936803740 0.1465879206072783 0.4216641913761114
atom 32.2156942447473611 31.5003810952775893 1.1049938475211403 Zr
    velocity -0.6047738635822328 0.1398465896533367 -0.3262155103506836
atom 37.3766942447473625 31.5003810952775893 1.1049938475211403 Zr
    velocity -0.0505882326309827 -0.2102196752578495 0.3050008351146830
atom 1.2496942447473678 36.7133810952775903 1.1049938475211403 Zr
    velocity -0.1525830796109275 -0.4281862556554662 -0.1268166187659693
atom 6.4106942447473685 36.7133810952775903 1.1049938475211403 Zr
    velocity 0.1735727877635306 -0.5021595920206602 0.1672760096540907
atom 11.5716942447473663 36.7133810952775903 1.1049938475211403 Zr
    velocity 0.0780356409871792 -0.3813699119752926 0.2434536402460322
atom 16.7326942447473641 36.7133810952775903 1.1049938475211403 Zr
    velocity -0.3337083205874094 0.5820924271743981 -0.2267088115242095
atom 21.8936942447473655 36.7133810952775903 1.1049938475211403 Zr
    velocity -0.2957716947681687 0.0607770281335811 -0.0291896829009430
atom 27.0546942447473633 36.7133810952775903 1.1049938475211403 Zr
    velocity 0.0898098338167776 -0.2561634222485784 -0.4913113448379215
atom 32.2156942447473611 36.7133810952775903 1.1049938475211403 Zr
    velocity -0.1703439624765497 -0.1050157103752424 -0.1644713932545361
atom 37.3766942447473625 36.7133810952775903 1.1049938475211403 Zr
    velocity 0.0236287308889419 -0.1626835757568928 0.0152547957528788
atom 0.4006498633542713 0.2223810952775880 6.3669348998729074 Zr
    velocity -0.2911405613988418 -0.3481940199754318 0.1831377759445662
atom 5.5616498633542717 0.2223810952775880 6.3669348998729074 Zr
    velocity 0.1793920822492471 0.4873252419583667 0.1536575359218002
atom 10.7226498633542704 0.2223810952775880 6.3669348998729074 Zr
    velocity 0.2389574264763317 -0.1062870107653012 -0.1227313678318907
atom 15.8836498633542682 0.2223810952775880 6.3669348998729074 Zr
    velocity 0.1334036411938555 -0.5342207655540517 0.2102700390192042
atom 21.0446498633542696 0.2223810952775880 6.3669348998729074 Zr
    velocity -0.1131122891972738 -0.3303653929752280 -0.5893665861627543
atom 26.2056498633542674 0.2223810952775880 6.3669348998729074 Zr
    velocity -0.1673247998241469 0.1686810273234458 -0.2843845764621085
atom 31.3666498633542652 0.2223810952775880 6.3669348998729074 Zr
    velocity 0.3104454450518949 -0.3397387986583969 -0.1496983953169514
atom 36.5276498633542630 0.2223810952775880 6.3669348998729074 Zr
    velocity -0.2900363552210718 0.1366655388363961 0.1898633003260573
atom 0.4006498633542713 5.4353810952775881 6.3669348998729074 Zr
    velocity 0.5601515496246839 0.1303609156321509 -0.0683033602399657
atom 5.5616498633542717 5.4353810952775881 6.3669348998729074 Zr
    velocity -0.1092188305484075 -0.4713828900868829 0.0594798812444461
atom 10.7226498633542704 5.4353810952775881 6.3669348998729074 Zr
    velocity 0.0180092948884668 -0.2012370395325459 0.4170269488943321
atom 15.8836498633542682 5.4353810952775881 6.3669348998729074 Zr
    velocity -0.2510944555276660 0.5297658183835092 -0.3044680778582317
atom 21.0446498633542696 5.4353810952775881 6.3669348998729074 Zr
    velocity -0.1082920785487692 0.1909212132909596 -0.3673350899899906
atom 26.2056498633542674 5.4353810952775881 6.3669348998729074 Zr
    velocity -0.2398878081204426 -0.3806245954295284 0.0317765804321299
atom 31.3666498633542652 5.4353810952775881 6.3669348998729074 Zr
    velocity -0.4626613592683699 0.1302702458178756 0.0382580813340706
atom 36.5276498633542630 5.4353810952775881 6.3669348998729074 Zr
    velocity -0.3944446837132022 -0.4097170058571466 -0.2830097891836020
atom 0.4006498633542713 10.6483810952775890 6.3669348998729074 Zr
    velocity 0.0080184185194636 0.0992426355550920 -0.4195752904315981
atom 5.5616498633542717 10.6483810952775890 6.3669348998729074 Zr
    velocity 0.4123599085925069 -0.6053837574914895 -0.0451520551140461
atom 10.7226498633542704 10.6483810952775890 6.3669348998729074 Zr
    velocity 0.2466347357965058 0.3303830383864346 -0.3977880261302241
atom 15.8836498633542682 10.6483810952775890 6.3669348998729074 Zr
    velocity -0.4208622649245936 0.2963136323946904 0.2927917545018990
atom 21.0446498633542696 10.6483810952775890 6.3669348998729074 Zr
    velocity -0.3166065866109588 0.0830726033722515 -0.1781792755570025
atom 26.2056498633542674 10.6483810952775890 6.3669348998729074 Zr
    velocity 0.1481672705888920 -0.4148935468715080 0.1206061408869929
atom 31.3666498633542652 10.6483810952775890 6.3669348998729074 Zr
    velocity 0.1219951589868522 0.1672073160926979 -0.2682380105162869
atom 36.5276498633542630 10.6483810952775890 6.3669348998729074 Zr
    velocity -0.0634769710636384 -0.0269734777252379 0.3167766611080441
atom 0.4006498633542713 15.8613810952775900 6.3669348998729074 Zr
    velocity -0.3978527327494871 -0.1742662801302842 -0.3409949971663147
atom 5.5616498633542717 15.8613810952775900 6.3669348998729074 Zr
    velocity 0.1961886207230274 -0.1576400527653389 0.6105294622375810
atom 10.7226498633542704 15.8613810952775900 6.3669348998729074 Zr
    velocity 0.1585253357861123 0.0917029876540971 -0.0057179874456635
atom 15.8836498633542682 15.8613810952775900 6.3669348998729074 Zr
    velocity 0.2451253951306035 -0.3558827407135205 -0.0392162538571605
atom 21.0446498633542696 15.8613810952775900 6.3669348998729074 Zr
    velocity -0.4303600729428669 -0.1912168102500277 -0.0183759284883224
atom 26.2056498633542674 15.8613810952775900 6.3669348998729074 Zr
    velocity 0.0075495868786636 0.3410617730670052 0.2080303956976177
atom 31.3666498633542652 15.8613810952775900 6.3669348998729074 Zr
    velocity 0.0672932256658635 0.0836523980913281 0.2566042358513645
atom 36.5276498633542630 15.8613810952775900 6.3669348998729074 Zr
    velocity -0.4066732734998555 0.1977439104881289 -0.0428740553724415
atom 0.4006498633542713 21.0743810952775910 6.3669348998729074 Zr
    velocity -0.2388117253332326 0.2665576850311341 0.1673614242984541
atom 5.5616498633542717 21.0743810952775910 6.3669348998729074 Zr
    velocity -0.3655940925732869 -0.0686600422339091 -0.2096226989368685
atom 10.7226498633542704 21.0743810952775910 6.3669348998729074 Zr
    velocity -0.1511960432674349 -0.4457166834560174 -0.2119393011288310
atom 15.8836498633542682 21.0743810952775910 6.3669348998729074 Zr
    velocity -0.3004705046014305 0.0861342168932499 0.0301656601486188
atom 21.0446498633542696 21.0743810952775910 6.3669348998729074 Zr
    velocity 0.3224484969615007 0.4341218734684130 -0.0533470616207545
atom 26.2056498633542674 21.0743810952775910 6.3669348998729074 Zr
    velocity 0.5831692711442188 0.4948342394209155 0.7098378992313011
atom 31.3666498633542652 21.0743810952775910 6.3669348998729074 Zr
    velocity 0.1246062480848859 -0.3194556482674978 -0.1719272230464060
atom 36.5276498633542630 21.0743810952775910 6.3669348998729074 Zr
    velocity 0.0484737465526183 0.0965699465849049 -0.0838135904426858
atom 0.4006498633542713 26.2873810952775884 6.3669348998729074 Zr
    velocity -0.4966805162951126 -0.2611233995804111 0.3159006819948439
atom 5.5616498633542717 26.2873810952775884 6.3669348998729074 Zr
    velocity -0.4833915646185715 -0.3995799080290557 0.2482154717033524
atom 10.7226498633542704 26.2873810952775884 6.3669348998729074 Zr
    velocity 0.0248721487303768 0.4300316608928156 0.0367746741740536
atom 15.8836498633542682 26.2873810952775884 6.3669348998729074 Zr
    velocity 0.3109267616605150 -0.0720170267790751 -0.0053116755775609
atom 21.0446498633542696 26.2873810952775884 6.3669348998729074 Zr
    velocity -0.1381663831203974 -0.2697622723227519 -0.2397920762382997
atom 26.2056498633542674 26.2873810952775884 6.3669348998729074 Zr
    velocity 0.1362970463314463 -0.2237560953604169 0.0389896933032443
atom 31.3666498633542652 26.2873810952775884 6.3669348998729074 Zr
    velocity -0.0026334751056089 -0.5321509156129827 0.3175458919026343
atom 36.5276498633542630 26.2873810952775884 6.3669348998729074 Zr
    velocity 0.1915666341138196 -0.4609820787429893 0.2483106223529924
atom 0.4006498633542713 31.5003810952775893 6.3669348998729074 Zr
    velocity 0.0733237034468921 -0.2419281560598959 -0.0571576148232666
atom 5.5616498633542717 31.5003810952775893 6.3669348998729074 Zr
    velocity 0.1130191767499638 -0.3137239269037233 -0.1811632163631513
atom 10.7226498633542704 31.5003810952775893 6.3669348998729074 Zr
    velocity 0.0845226923352833 -0.3619364952649921 -0.2392607800254914
atom 15.8836498633542682 31.5003810952775893 6.3669348998729074 Zr
    velocity -0.1499131695743498 0.1958700565302267 -0.8268746639072481
atom 21.0446498633542696 31.5003810952775893 6.3669348998729074 Zr
    velocity 0.4524766324308823 -0.2897322291993320 0.2654936213932914
atom 26.2056498633542674 31.5003810952775893 6.3669348998729074 Zr
    velocity 0.1632350759896988 0.1153664082554065 -0.5047978317713425
atom 31.3666498633542652 31.5003810952775893 6.3669348998729074 Zr
    velocity 0.1861137225588317 0.0913693831016570 -0.0966661631616115
atom 36.5276498633542630 31.5003810952775893 6.3669348998729074 Zr
    velocity 0.2030868577624131 -0.3187826042546432 0.1038463909068749
atom 0.4006498633542713 36.7133810952775903 6.3669348998729074 Zr
    velocity -0.2409561459884345 -0.3031560430612835 0.4963703721331604
atom 5.5616498633542717 36.7133810952775903 6.3669348998729074 Zr
    velocity 0.1602094844547278 -0.4890412449573681 -0.0263821732364313
atom 10.7226498633542704 36.7133810952775903 6.3669348998729074 Zr
    velocity 0.3632988250857485 -0.2326693283784566 -0.0035746276181922
atom 15.8836498633542682 36.7133810952775903 6.3669348998729074 Zr
    velocity -0.2960469072304756 -0.6940955476773430 -0.0201028308226412
atom 21.0446498633542696 36.7133810952775903 6.3669348998729074 Zr
    velocity -0.1821990538970101 0.0358637569664915 -0.0986003730071663
atom 26.2056498633542674 36.7133810952775903 6.3669348998729074 Zr
    velocity -0.2563437926496508 -0.0730317932317317 0.1517370155896461
atom 31.3666498633542652 36.7133810952775903 6.3669348998729074 Zr
    velocity -0.0362344806586188 -0.0850931159623199 0.2764476500199108
atom 36.5276498633542630 36.7133810952775903 6.3669348998729074 Zr
    velocity 0.0802633531112062 0.2672187346530023 0.0411483282027423
atom -0.4483945180388259 0.2223810952775880 11.6288759522246785 Zr
    velocity 0.7511881253578062 0.2642131732252475 -0.1798469647632242
atom 4.7126054819611740 0.2223810952775880 11.6288759522246785 Zr
    velocity 0.1948067101276036 0.1267851591190475 -0.0732433088202908
atom 9.8736054819611727 0.2223810952775880 11.6288759522246785 Zr
    velocity 0.2464171421070435 0.4028761111119620 -0.1541443529953310
atom 15.0346054819611705 0.2223810952775880 11.6288759522246785 Zr
    velocity 0.2448421027942750 0.2514376878487060 0.1913212282675055
atom 20.1956054819611737 0.2223810952775880 11.6288759522246785 Zr
    velocity -0.2017449718084548 0.2835968847068824 0.1597787800623858
atom 25.3566054819611715 0.2223810952775880 11.6288759522246785 Zr
    velocity -0.1047176291371453 -0.5030202969812180 -0.2039024010257722
atom 30.5176054819611693 0.2223810952775880 11.6288759522246785 Zr
    velocity 0.1363935946952348 0.0296664559165796 0.3212642222130107
atom 35.6786054819611707 0.2223810952775880 11.6288759522246785 Zr
    velocity -0.3177734362090125 0.2082410544756955 -0.5247369948813194
atom -0.4483945180388259 5.4353810952775881 11.6288759522246785 Zr
    velocity -0.3071672215514828 -0.2976578859271091 0.0436697611230585
atom 4.7126054819611740 5.4353810952775881 11.6288759522246785 Zr
    velocity 0.3293129727367742 -0.0040958696275694 -0.1942848715209175
atom 9.8736054819611727 5.4353810952775881 11.6288759522246785 Zr
    velocity -0.1801907870499893 -0.2691132566942171 -0.1061067011757200
atom 15.0346054819611705 5.4353810952775881 11.6288759522246785 Zr
    velocity -0.2610601807610977 -0.4317368465278466 0.3717554052893147
atom 20.1956054819611737 5.4353810952775881 11.6288759522246785 Zr
    velocity -0.0783699785943610 -0.4441811347865499 0.3546886928206671
atom 25.3566054819611715 5.4353810952775881 11.6288759522246785 Zr
    velocity -0.5268896713956450 -0.3475002989818043 0.2307542633488138
atom 30.5176054819611693 5.4353810952775881 11.6288759522246785 Zr
    velocity -0.0771196071887912 0.2639652383146170 0.1602317813288401
atom 35.6786054819611707 5.4353810952775881 11.6288759522246785 Zr
    velocity 0.3224472662320633 0.3501233840493990 -0.2797124814348560
atom -0.4483945180388259 10.6483810952775890 11.6288759522246785 Zr
    velocity -0.1511085008914385 0.0960678570439880 -0.3045461666781603
atom 4.7126054819611740 10.6483810952775890 11.6288759522246785 Zr
    velocity -0.4789579126763473 0.1042530167734113 -0.4637946794020532
atom 9.8736054819611727 10.6483810952775890 11.6288759522246785 Zr
    velocity 0.0468983607482418 -0.1926053590203529 0.1347640673242452
atom 15.0346054819611705 10.6483810952775890 11.6288759522246785 Zr
    velocity 0.3387720875270402 -0.2751083769179124 0.4880130671953147
atom 20.1956054819611737 10.6483810952775890 11.6288759522246785 Zr
    velocity 0.0751899849505501 -0.2841223537349750 0.1052343412062846
atom 25.3566054819611715 10.6483810952775890 11.6288759522246785 Zr
    velocity -0.2035455528558620 -0.1535091863117864 0.3151386672661162
atom 30.5176054819611693 10.6483810952775890 11.6288759522246785 Zr
    velocity 0.2944701405683282 0.0000430494038420 -0.4858259208123842
atom 35.6786054819611707 10.6483810952775890 11.6288759522246785 Zr
    velocity 0.3677349197381400 0.1346972870610858 -0.4478072423438332
atom -0.4483945180388259 15.8613810952775900 11.6288759522246785 Zr
    velocity -0.0276385610782437 0.0526844499240757 0.2677764751038010
atom 4.7126054819611740 15.8613810952775900 11.6288759522246785 Zr
    velocity -0.2632424617345259 -0.2176022685298482 0.1198916781900815
atom 9.8736054819611727 15.8613810952775900 11.6288759522246785 Zr
    velocity 0.0642766059265184 -0.0614361125697837 -0.5028810544616251
atom 15.0346054819611705 15.8613810952775900 11.6288759522246785 Zr
    velocity -0.3857859965074276 -0.0018511817526157 -0.3968058720412178
atom 20.1956054819611737 15.8613810952775900 11.6288759522246785 Zr
    velocity -0.6011204927563116 0.5651367149714844 -0.0064812016049305
atom 25.3566054819611715 15.8613810952775900 11.6288759522246785 Zr
    velocity -0.0526798222647943 -0.0864505895541833 -0.1139102627316960
atom 30.5176054819611693 15.8613810952775900 11.6288759522246785 Zr
    velocity 0.0255194692630120 -0.4879013424143137 -0.1781803115710845
atom 35.6786054819611707 15.8613810952775900 11.6288759522246785 Zr
    velocity -0.3170199757502076 0.1722905772509561 -0.3596725608816059
atom -0.4483945180388259 21.0743810952775910 11.6288759522246785 Zr
    velocity -0.0817498568395127 0.0596612326062371 0.2641257483036791
atom 4.7126054819611740 21.0743810952775910 11.6288759522246785 Zr
    velocity 0.7933190629058234 0.4771046515272166 0.6937219510484707
atom 9.8736054819611727 21.0743810952775910 11.6288759522246785 Zr
    velocity 0.3315011345080525 0.2011695268766555 -0.0296473284031727
atom 15.0346054819611705 21.0743810952775910 11.6288759522246785 Zr
    velocity 0.3313730025752139 -0.5722230404154661 -0.0664495851815232
atom 20.1956054819611737 21.0743810952775910 11.6288759522246785 Zr
    velocity 0.2728329079349506 -0.0644631484066656 -0.2401820625092374
atom 25.3566054819611715 21.0743810952775910 11.6288759522246785 Zr
    velocity -0.0439110455262672 -0.1010952301605337 0.0751660261292333
atom 30.5176054819611693 21.0743810952775910 11.6288759522246785 Zr
    velocity 0.1401297397421030 0.2921482060056279 -0.4213542249330668
atom 35.6786054819611707 21.0743810952775910 11.6288759522246785 Zr
    velocity 0.0741818457153008 -0.9035790157043163 -0.0918133069204968
atom -0.4483945180388259 26.2873810952775884 11.6288759522246785 Zr
    velocity 0.3374319390433909 0.0085808575485130 -0.0811516829252325
atom 4.7126054819611740 26.2873810952775884 11.6288759522246785 Zr
    velocity 0.3020154406500884 0.3299837182768101 -0.1922633870292355
atom 9.8736054819611727 26.2873810952775884 11.6288759522246785 Zr
    velocity 0.1443675955716938 -0.1586330581811660 0.1534306944760402
atom 15.0346054819611705 26.2873810952775884 11.6288759522246785 Zr
    velocity -0.1601690802015395 -0.3141675066462200 0.3698065790029350
atom 20.1956054819611737 26.2873810952775884 11.6288759522246785 Zr
    velocity -0.2717471886698252 0.3210971567310523 -0.5093092474259167
atom 25.3566054819611715 26.2873810952775884 11.6288759522246785 Zr
    velocity 0.2699049494484178 0.5769523988770670 -0.0331527862764879
atom 30.5176054819611693 26.2873810952775884 11.6288759522246785 Zr
    velocity 0.0500543986395373 -0.2521971989494503 0.0523397031860325
atom 35.6786054819611707 26.2873810952775884 11.6288759522246785 Zr
    velocity -0.6330412775670610 -0.3321617119060214 -0.3869817841282636
atom -0.4483945180388259 31.5003810952775893 11.6288759522246785 Zr
    velocity -0.1323973664308592 -0.0565914962969946 -0.1867118570471805
atom 4.7126054819611740 31.5003810952775893 11.6288759522246785 Zr
    velocity 0.3852275735131956 0.2598238091581728 0.0691028034547382
atom 9.8736054819611727 31.5003810952775893 11.6288759522246785 Zr
    velocity -0.1734976358827432 -0.1013296613050799 0.6241872867682202
atom 15.0346054819611705 31.5003810952775893 11.6288759522246785 Zr
    velocity 0.1191326317211623 0.8909458329729273 0.2134724087805657
atom 20.1956054819611737 31.5003810952775893 11.6288759522246785 Zr
    velocity 0.3198175702682390 -0.0008412968557008 -0.5669038494270877
atom 25.3566054819611715 31.5003810952775893 11.6288759522246785 Zr
    velocity 0.0648688133370167 -0.3196730544401146 -0.3724214010212462
atom 30.5176054819611693 31.5003810952775893 11.6288759522246785 Zr
    velocity 0.3449135366349015 -0.4025535143692135 -0.2801821580877927
atom 35.6786054819611707 31.5003810952775893 11.6288759522246785 Zr
    velocity 0.3414711835051850 -0.3272996676292485 -0.1005566039192544
atom -0.4483945180388259 36.7133810952775903 11.6288759522246785 Zr
    velocity -0.0647162117381882 -0.0440302440400852 -0.1582180432536310
atom 4.7126054819611740 36.7133810952775903 11.6288759522246785 Zr
    velocity 0.0362303165582136 0.5122225443035411 -0.2208399962282630
atom 9.8736054819611727 36.7133810952775903 11.6288759522246785 Zr
    velocity -0.0139311449818658 0.0780815698355079 -0.1261565423398065
atom 15.0346054819611705 36.7133810952775903 11.6288759522246785 Zr
    velocity -0.2188547058381822 -0.2923739853078379 -0.0316702038044300
atom 20.1956054819611737 36.7133810952775903 11.6288759522246785 Zr
    velocity -0.2104548047485833 -0.7071480036419010 -0.1503359737578074
atom 25.3566054819611715 36.7133810952775903 11.6288759522246785 Zr
    velocity 0.1029227559652962 -0.0712888610069944 -0.3866433893742564
atom 30.5176054819611693 36.7133810952775903 11.6288759522246785 Zr
    velocity 0.3954624763207206 0.4305477291495896 -0.0976393940173413
atom 35.6786054819611707 36.7133810952775903 11.6288759522246785 Zr
    velocity -0.1219792417759275 -0.0663059310984481 0.0185001663603595
atom -1.2974388994319215 0.2223810952775880 16.8908170045764408 Zr
    velocity -0.0856607594293320 -0.2004230301633511 -0.2904833360517908
atom 3.8635611005680786 0.2223810952775880 16.8908170045764408 Zr
    velocity -0.3995935601715166 -0.1276573977693901 0.1921926616840502
atom 9.0245611005680768 0.2223810952775880 16.8908170045764408 Zr
    velocity 0.2207072546957863 0.3498028249684860 -0.2111099904719725
atom 14.1855611005680746 0.2223810952775880 16.8908170045764408 Zr
    velocity 0.1060450616973143 0.0721226407360735 0.5802413182772882
atom 19.3465611005680778 0.2223810952775880 16.8908170045764408 Zr
    velocity 0.4793362077215337 -0.2405767399754759 -0.1670594436987909
atom 24.5075611005680756 0.2223810952775880 16.8908170045764408 Zr
    velocity -0.2045808833737025 0.3862519340364330 0.1526334479772052
atom 29.6685611005680734 0.2223810952775880 16.8908170045764408 Zr
    velocity 0.0646097397252230 0.1941495590910119 0.0299702659585963
atom 34.8295611005680712 0.2223810952775880 16.8908170045764408 Zr
    velocity -0.1287548619376425 -0.2359894535819009 -0.2326448927895398
atom -1.2974388994319215 5.4353810952775881 16.8908170045764408 Zr
    velocity -0.0703100233515660 0.1442297879226153 0.2791079222066051
atom 3.8635611005680786 5.4353810952775881 16.8908170045764408 Zr
    velocity 0.1253253531231429 -0.0860286471244279 -0.2306699032919234
atom 9.0245611005680768 5.4353810952775881 16.8908170045764408 Zr
    velocity 0.2128059730199298 0.2120404693999400 -0.1746455144366334
atom 14.1855611005680746 5.4353810952775881 16.8908170045764408 Zr
    velocity -0.4105248812386450 0.3842192703406059 -0.1134977442011065
atom 19.3465611005680778 5.4353810952775881 16.8908170045764408 Zr
    velocity 0.0788580515301424 -0.1595414007625841 -0.2355759243283279
atom 24.5075611005680756 5.4353810952775881 16.8908170045764408 Zr
    velocity 0.1616490943048773 0.3332803064078939 -0.0458457209464533
atom 29.6685611005680734 5.4353810952775881 16.8908170045764408 Zr
    velocity 0.1054287124844010 -0.2177185814661385 -0.6199719323571221
atom 34.8295611005680712 5.4353810952775881 16.8908170045764408 Zr
    velocity 0.0148878558276535 -0.1612848460905729 -0.1426136068884673
atom -1.2974388994319215 10.6483810952775890 16.8908170045764408 Zr
    velocity 0.2671448690031684 -0.4518441023943386 -0.2718457695073977
atom 3.8635611005680786 10.6483810952775890 16.8908170045764408 Zr
    velocity 0.1061543322205642 0.1482620392398485 0.5406882363839283
atom 9.0245611005680768 10.6483810952775890 16.8908170045764408 Zr
    velocity 0.5657069343061538 0.4002595087366059 0.1938720835262923