#=======================================================
# FHI-aims file: 600_geometry.in.primitive.supercell_4116.0010K
# Created using the Atomic Simulation Environment (ASE)
# Sat Nov 26 17:29:27 2022

# Additional information:
#  created from MB distrubtion
#  T = 10.0 K
#  quantum:             False
#  deterministic:       False
#  plus_minus:          False
#  gauge_eigenvectors:  False
#  Random seed:         275643416
#  Sample number:       1
#=======================================================
lattice_vector 36.1269999999999953 0.0000000000000000 0.0000000000000000 
lattice_vector 0.0000000000000000 36.4909999999999997 0.0000000000000000 
lattice_vector -5.9433106697516749 0.0000000000000000 36.8335873664623676 
atom 1.2496942447473689 0.2223810952775864 1.1049938475211418 Zr
    velocity 0.1728853171181729 0.4568722228227471 -0.0433373919965229
atom 6.4106942447473658 0.2223810952775864 1.1049938475211418 Zr
    velocity -0.1596551667494852 0.5587083582509527 0.5288072486005057
atom 11.5716942447473627 0.2223810952775864 1.1049938475211418 Zr
    velocity 0.2009767612135073 -0.2152414954657546 -0.1995685120950829
atom 16.7326942447473641 0.2223810952775864 1.1049938475211418 Zr
    velocity -0.2716719611585868 -0.1466545344387740 0.2266628643907997
atom 21.8936942447473619 0.2223810952775864 1.1049938475211418 Zr
    velocity -0.1867762580360139 0.6000141816977046 0.2005781688759209
atom 27.0546942447473633 0.2223810952775864 1.1049938475211418 Zr
    velocity -0.0320500519706758 0.2082951286963580 0.2453404443814168
atom 32.2156942447473611 0.2223810952775864 1.1049938475211418 Zr
    velocity 0.6479897153600462 -0.1988254693450652 -0.0208800392204860
atom 1.2496942447473689 5.4353810952775881 1.1049938475211418 Zr
    velocity 0.3297359810623374 0.2392673368337860 0.1385993804823965
atom 6.4106942447473658 5.4353810952775881 1.1049938475211418 Zr
    velocity 0.0080795760422898 -0.2517846017751068 -0.6506375615765647
atom 11.5716942447473627 5.4353810952775881 1.1049938475211418 Zr
    velocity -0.0249700010682603 0.0874994710804362 0.3302218181786387
atom 16.7326942447473641 5.4353810952775881 1.1049938475211418 Zr
    velocity 0.1950389602392915 0.0911977312017350 0.0279878267013187
atom 21.8936942447473619 5.4353810952775881 1.1049938475211418 Zr
    velocity -0.2046084632282297 -0.1737564684719200 0.2516151567201818
atom 27.0546942447473633 5.4353810952775881 1.1049938475211418 Zr
    velocity -0.0127468677927973 0.3795758201229216 -0.1091326884897261
atom 32.2156942447473611 5.4353810952775881 1.1049938475211418 Zr
    velocity 0.2602431910867986 -0.5575654850571395 0.3803945936961086
atom 1.2496942447473689 10.6483810952775890 1.1049938475211418 Zr
    velocity 0.7914740215217679 -0.2155053163226998 -0.3103405718673121
atom 6.4106942447473658 10.6483810952775890 1.1049938475211418 Zr
    velocity 0.1672863375191629 0.6060064420993144 -0.1102364491669762
atom 11.5716942447473627 10.6483810952775890 1.1049938475211418 Zr
    velocity 0.1733694402092060 0.4407896290237215 -0.0094382201451465
atom 16.7326942447473641 10.6483810952775890 1.1049938475211418 Zr
    velocity -0.1416610303831086 -0.3161237281540289 0.7101607576613976
atom 21.8936942447473619 10.6483810952775890 1.1049938475211418 Zr
    velocity -0.0655719400965872 -0.4575946056801620 0.0065916137732390
atom 27.0546942447473633 10.6483810952775890 1.1049938475211418 Zr
    velocity 0.3052356945291535 -0.3346182963545363 -0.0157931801063015
atom 32.2156942447473611 10.6483810952775890 1.1049938475211418 Zr
    velocity -0.0176309299350624 -0.1326781484561421 -0.2688968790115573
atom 1.2496942447473689 15.8613810952775864 1.1049938475211418 Zr
    velocity 0.3229650944915273 0.1240373555720400 -0.0914964099449068
atom 6.4106942447473658 15.8613810952775864 1.1049938475211418 Zr
    velocity -0.0199941641357438 -0.4199957786043067 0.5342602372333473
atom 11.5716942447473627 15.8613810952775864 1.1049938475211418 Zr
    velocity -0.0406274586759897 0.0832477959125124 0.2327343456117849
atom 16.7326942447473641 15.8613810952775864 1.1049938475211418 Zr
    velocity 0.3808950105207989 0.1617290203427225 -0.4287524431651272
atom 21.8936942447473619 15.8613810952775864 1.1049938475211418 Zr
    velocity 0.4386974442984123 0.0619242441454532 -0.1686920530959423
atom 27.0546942447473633 15.8613810952775864 1.1049938475211418 Zr
    velocity -0.0734847377650534 0.1252843806090912 -0.1701565567974706
atom 32.2156942447473611 15.8613810952775864 1.1049938475211418 Zr
    velocity 0.0193256458980954 -0.3130873193146151 0.2355028612897558
atom 1.2496942447473689 21.0743810952775910 1.1049938475211418 Zr
    velocity -0.2743724899818252 -0.3529197313580372 0.1033403686110844
atom 6.4106942447473658 21.0743810952775910 1.1049938475211418 Zr
    velocity -0.4106667745425794 -0.0740766293459081 0.1566286010082944
atom 11.5716942447473627 21.0743810952775910 1.1049938475211418 Zr
    velocity 0.1050653280865245 0.1569589348491027 0.0457994582613416
atom 16.7326942447473641 21.0743810952775910 1.1049938475211418 Zr
    velocity 0.5516044296029973 -0.0136551920909116 0.2481293429397787
atom 21.8936942447473619 21.0743810952775910 1.1049938475211418 Zr
    velocity 0.1269472551423369 0.1096064491111096 0.2010213062719224
atom 27.0546942447473633 21.0743810952775910 1.1049938475211418 Zr
    velocity -0.5215005528086375 -0.5113866365980918 0.1045903734716942
atom 32.2156942447473611 21.0743810952775910 1.1049938475211418 Zr
    velocity 0.0867653492903163 0.3395765096110624 -0.3164629885371347
atom 1.2496942447473689 26.2873810952775884 1.1049938475211418 Zr
    velocity -0.4514244165593895 -0.2047685459701215 0.3068460280639796
atom 6.4106942447473658 26.2873810952775884 1.1049938475211418 Zr
    velocity -0.1978623884569114 -0.0045845590301091 -0.0330411393753957
atom 11.5716942447473627 26.2873810952775884 1.1049938475211418 Zr
    velocity 0.0551141251894693 -0.1155075331863517 -0.1354042713965016
atom 16.7326942447473641 26.2873810952775884 1.1049938475211418 Zr
    velocity -0.4290052019543369 -0.6751514350326112 -0.7205345217705978
atom 21.8936942447473619 26.2873810952775884 1.1049938475211418 Zr
    velocity 0.7019820163732431 -0.0921734398067477 0.3884527511972236
atom 27.0546942447473633 26.2873810952775884 1.1049938475211418 Zr
    velocity -0.3834920625720321 -0.6444460940291830 -0.0808032584792600
atom 32.2156942447473611 26.2873810952775884 1.1049938475211418 Zr
    velocity 0.5004644075757855 -0.0368128608576155 -0.1051268331602575
atom 1.2496942447473689 31.5003810952775858 1.1049938475211418 Zr
    velocity -0.0116225160541444 0.3375725166543124 -0.0356386268575441
atom 6.4106942447473658 31.5003810952775858 1.1049938475211418 Zr
    velocity -0.1155191346470118 0.0019190946272891 0.5031189955018530
atom 11.5716942447473627 31.5003810952775858 1.1049938475211418 Zr
    velocity 0.6312883723359373 -0.2578628182643534 0.0268269994146053
atom 16.7326942447473641 31.5003810952775858 1.1049938475211418 Zr
    velocity -0.1592066462082471 -0.1619245290663040 0.2299890530031844
atom 21.8936942447473619 31.5003810952775858 1.1049938475211418 Zr
    velocity 0.1995016703622575 0.2474863491613319 -0.1432090075086261
atom 27.0546942447473633 31.5003810952775858 1.1049938475211418 Zr
    velocity -0.4338501238502505 0.5151249673982349 0.3443726184852497
atom 32.2156942447473611 31.5003810952775858 1.1049938475211418 Zr
    velocity -0.4045714758992340 -0.0108709346697753 0.1058927496803943
atom 0.4006498633542729 0.2223810952775864 6.3669348998729065 Zr
    velocity -0.1018829610595115 -0.4421354531102517 0.0919562716048539
atom 5.5616498633542699 0.2223810952775864 6.3669348998729065 Zr
    velocity -0.3492704137239924 -0.4885486907424570 -0.1928124730610130
atom 10.7226498633542668 0.2223810952775864 6.3669348998729065 Zr
    velocity 0.0608811990164902 -0.3631180996464909 -0.1599363664034786
atom 15.8836498633542682 0.2223810952775864 6.3669348998729065 Zr
    velocity 0.1187752480922173 -0.1802168112477660 0.1331345806474583
atom 21.0446498633542660 0.2223810952775864 6.3669348998729065 Zr
    velocity 0.1714248503671914 -0.3471279168687810 0.0590180196710094
atom 26.2056498633542674 0.2223810952775864 6.3669348998729065 Zr
    velocity -0.3793460230012838 -0.0584771387039654 0.4624023656412384
atom 31.3666498633542652 0.2223810952775864 6.3669348998729065 Zr
    velocity -0.0934831549881886 0.2491835829550706 -0.4268323726431489
atom 0.4006498633542729 5.4353810952775881 6.3669348998729065 Zr
    velocity 0.2493043073972725 -0.3850624794987028 -0.2106118230002894
atom 5.5616498633542699 5.4353810952775881 6.3669348998729065 Zr
    velocity 0.0787586074932547 0.6972784966337291 -0.2473077555145324
atom 10.7226498633542668 5.4353810952775881 6.3669348998729065 Zr
    velocity -0.2825814297854444 -0.2170106837424837 0.5543575138454068
atom 15.8836498633542682 5.4353810952775881 6.3669348998729065 Zr
    velocity 0.6241112464529207 0.5739524758475533 0.4849091945584490
atom 21.0446498633542660 5.4353810952775881 6.3669348998729065 Zr
    velocity 0.0250753144535000 -0.4156430173696024 0.0738029832254164
atom 26.2056498633542674 5.4353810952775881 6.3669348998729065 Zr
    velocity 0.7285112391735533 0.4931426881707056 -0.1907773269533376
atom 31.3666498633542652 5.4353810952775881 6.3669348998729065 Zr
    velocity 0.2036998622336470 -0.3141008358387764 0.1941011734819752
atom 0.4006498633542729 10.6483810952775890 6.3669348998729065 Zr
    velocity -0.0883034913575805 -0.4487934272423999 0.1586067601641786
atom 5.5616498633542699 10.6483810952775890 6.3669348998729065 Zr
    velocity -0.1201384995815902 -0.3570131902384243 -0.2510428694357736
atom 10.7226498633542668 10.6483810952775890 6.3669348998729065 Zr
    velocity -0.1345412544787020 -0.2107138148462778 -0.0617185839059759
atom 15.8836498633542682 10.6483810952775890 6.3669348998729065 Zr
    velocity -0.3072683923887892 0.2823182904565183 -0.0360828075556785
atom 21.0446498633542660 10.6483810952775890 6.3669348998729065 Zr
    velocity 0.0707504085757133 0.0269132929270879 -0.1967679308529881
atom 26.2056498633542674 10.6483810952775890 6.3669348998729065 Zr
    velocity -0.2416163722753451 -0.2927937655782009 -0.2563836483941707
atom 31.3666498633542652 10.6483810952775890 6.3669348998729065 Zr
    velocity 0.0673102319001750 0.2413483139272654 0.3568129110549555
atom 0.4006498633542729 15.8613810952775864 6.3669348998729065 Zr
    velocity 0.1472017914742826 -0.2743935851826111 -0.7585729300085828
atom 5.5616498633542699 15.8613810952775864 6.3669348998729065 Zr
    velocity 0.1280170403683864 0.2145304904515418 -0.2258521433959057
atom 10.7226498633542668 15.8613810952775864 6.3669348998729065 Zr
    velocity 0.4366341018607558 0.3428362476854179 0.2657745138417365
atom 15.8836498633542682 15.8613810952775864 6.3669348998729065 Zr
    velocity 0.0127043021482301 0.1338255191113420 0.0020335123229717
atom 21.0446498633542660 15.8613810952775864 6.3669348998729065 Zr
    velocity 0.1225276589617532 0.7285318514473769 -0.1998644622807907
atom 26.2056498633542674 15.8613810952775864 6.3669348998729065 Zr
    velocity 0.2782193045728892 0.1718235031125387 0.5382879296154286
atom 31.3666498633542652 15.8613810952775864 6.3669348998729065 Zr
    velocity -0.2700500233179991 -0.2615701646100527 -0.1608744818347301
atom 0.4006498633542729 21.0743810952775910 6.3669348998729065 Zr
    velocity -0.1368361811428358 -0.0147617058845741 0.1717779877038533
atom 5.5616498633542699 21.0743810952775910 6.3669348998729065 Zr
    velocity 0.0363000158694354 0.2661862598095562 -0.0334332070746164
atom 10.7226498633542668 21.0743810952775910 6.3669348998729065 Zr
    velocity 0.0192124023223909 0.2806042812584186 -0.0527272653908547
atom 15.8836498633542682 21.0743810952775910 6.3669348998729065 Zr
    velocity -0.2687856114337920 -0.4189376834826220 -0.0619439201607557
atom 21.0446498633542660 21.0743810952775910 6.3669348998729065 Zr
    velocity 0.4029644793013212 -0.0756201084494357 0.2618701707665334
atom 26.2056498633542674 21.0743810952775910 6.3669348998729065 Zr
    velocity 0.1860454218607580 -0.4481063339963383 0.1236142999423215
atom 31.3666498633542652 21.0743810952775910 6.3669348998729065 Zr
    velocity -0.2026364636302559 -0.2297140319518891 -0.1315718799141577
atom 0.4006498633542729 26.2873810952775884 6.3669348998729065 Zr
    velocity -0.8128105414405055 0.2942255208323462 0.4303725143069300
atom 5.5616498633542699 26.2873810952775884 6.3669348998729065 Zr
    velocity 0.3652761777014026 -0.7027683513588446 0.3892511153320496
atom 10.7226498633542668 26.2873810952775884 6.3669348998729065 Zr
    velocity -0.6185804347378264 -0.1716134790875118 -0.2868360583151014
atom 15.8836498633542682 26.2873810952775884 6.3669348998729065 Zr
    velocity -0.0197462257082924 0.1457916828900369 -0.1542896643745547
atom 21.0446498633542660 26.2873810952775884 6.3669348998729065 Zr
    velocity -0.1144704742058711 0.0054699489962597 0.0665197293413723
atom 26.2056498633542674 26.2873810952775884 6.3669348998729065 Zr
    velocity 0.1942869827234260 0.1735524299554950 0.2660207125849854
atom 31.3666498633542652 26.2873810952775884 6.3669348998729065 Zr
    velocity -0.1238382413826068 -0.0514147466555052 -0.6367869255994530
atom 0.4006498633542729 31.5003810952775858 6.3669348998729065 Zr
    velocity -0.0725364703634741 -0.0972339098510580 0.0985727519878345
atom 5.5616498633542699 31.5003810952775858 6.3669348998729065 Zr
    velocity 0.0174959712044927 0.5572248622828726 0.0098219459924134
atom 10.7226498633542668 31.5003810952775858 6.3669348998729065 Zr
    velocity -0.4557879966372400 0.1832531232432001 -0.2249831431373695
atom 15.8836498633542682 31.5003810952775858 6.3669348998729065 Zr
    velocity -0.1579526156587751 -0.5365380129259149 0.4172991761823001
atom 21.0446498633542660 31.5003810952775858 6.3669348998729065 Zr
    velocity -0.5430407361014897 -0.1550080282123699 0.0607237870134773
atom 26.2056498633542674 31.5003810952775858 6.3669348998729065 Zr
    velocity 0.3190186599203795 0.0348989010172569 -0.1294045849376461
atom 31.3666498633542652 31.5003810952775858 6.3669348998729065 Zr
    velocity -0.9586001289265642 -0.1740367729359384 0.4455802834277974
atom -0.4483945180388231 0.2223810952775864 11.6288759522246714 Zr
    velocity -0.4576501575338064 0.3655539394357965 -0.1777512279149953
atom 4.7126054819611740 0.2223810952775864 11.6288759522246714 Zr
    velocity -0.1448633716312411 0.1691945531095904 0.0510995635787746
atom 9.8736054819611709 0.2223810952775864 11.6288759522246714 Zr
    velocity -0.1523651896136778 -0.2418037205795592 -0.2178065859465478
atom 15.0346054819611723 0.2223810952775864 11.6288759522246714 Zr
    velocity -0.3545774644412557 0.2637839378817960 -0.1144805839964896
atom 20.1956054819611701 0.2223810952775864 11.6288759522246714 Zr
    velocity -0.1450178946264851 -0.3585937115442849 0.1916498956245710
atom 25.3566054819611715 0.2223810952775864 11.6288759522246714 Zr
    velocity 0.8849041474380364 -0.2254327691592706 -0.4702107870379610
atom 30.5176054819611693 0.2223810952775864 11.6288759522246714 Zr
    velocity -0.0720659974923108 0.4260695581848662 0.0807183184819031
atom -0.4483945180388231 5.4353810952775881 11.6288759522246714 Zr
    velocity 0.3360629628240672 -0.0919120231987982 -0.4255862841196872
atom 4.7126054819611740 5.4353810952775881 11.6288759522246714 Zr
    velocity -0.2427434190669921 -0.2823405127543182 -0.0077272787065519
atom 9.8736054819611709 5.4353810952775881 11.6288759522246714 Zr
    velocity 0.3795321833421824 0.3718015306958367 0.6481837976929529
atom 15.0346054819611723 5.4353810952775881 11.6288759522246714 Zr
    velocity 0.1859873184434837 0.2399163411144672 -0.3207417339267875
atom 20.1956054819611701 5.4353810952775881 11.6288759522246714 Zr
    velocity -0.1428471410874281 0.1828997208957675 0.4104956109721269
atom 25.3566054819611715 5.4353810952775881 11.6288759522246714 Zr
    velocity -0.3270479614191044 0.4411896043395030 0.4339977805249697
atom 30.5176054819611693 5.4353810952775881 11.6288759522246714 Zr
    velocity 0.0419636252205719 0.2549462874749764 0.1279581851936772
atom -0.4483945180388231 10.6483810952775890 11.6288759522246714 Zr
    velocity -0.1074734897759755 -0.1887086044992006 0.1371598020011569
atom 4.7126054819611740 10.6483810952775890 11.6288759522246714 Zr
    velocity 0.1837863729108202 -0.0415618189189728 0.2740673621043551
atom 9.8736054819611709 10.6483810952775890 11.6288759522246714 Zr
    velocity -0.1238760640998999 -0.1917405598736055 0.5861797701076441
atom 15.0346054819611723 10.6483810952775890 11.6288759522246714 Zr
    velocity 0.0039247053761187 -0.2710155321961332 0.2097748431415621
atom 20.1956054819611701 10.6483810952775890 11.6288759522246714 Zr
    velocity -0.1215134988937420 0.0855812159324713 -0.1075881096748067
atom 25.3566054819611715 10.6483810952775890 11.6288759522246714 Zr
    velocity -0.4582028589430683 -0.0066986391554762 0.1039874442726490
atom 30.5176054819611693 10.6483810952775890 11.6288759522246714 Zr
    velocity 0.5646555414927982 -0.2968222111081547 -0.3935532533900472
atom -0.4483945180388231 15.8613810952775864 11.6288759522246714 Zr
    velocity -0.2396842983602984 -0.4406945303947337 -0.0073147034801372
atom 4.7126054819611740 15.8613810952775864 11.6288759522246714 Zr
    velocity -0.0947886764328550 0.3631366591656561 0.3500356639156847
atom 9.8736054819611709 15.8613810952775864 11.6288759522246714 Zr
    velocity 0.0236680702889394 -0.1499638294993254 -0.1227783027706209
atom 15.0346054819611723 15.8613810952775864 11.6288759522246714 Zr
    velocity -0.2879987955281127 -0.3632738799939503 0.0830521526852021
atom 20.1956054819611701 15.8613810952775864 11.6288759522246714 Zr
    velocity 0.0846735627927732 0.0962619040668101 0.0547285597873240
atom 25.3566054819611715 15.8613810952775864 11.6288759522246714 Zr
    velocity 0.0699305705462650 0.2670254473948782 -0.2595374440880229
atom 30.5176054819611693 15.8613810952775864 11.6288759522246714 Zr
    velocity -0.3154097661739594 -0.0135812201987970 -0.1164322985478165
atom -0.4483945180388231 21.0743810952775910 11.6288759522246714 Zr
    velocity -0.0488017897194085 -0.0574894451268891 -0.1905110647271069
atom 4.7126054819611740 21.0743810952775910 11.6288759522246714 Zr
    velocity -0.1470743305588314 0.1328991463757607 0.0209175180502216
atom 9.8736054819611709 21.0743810952775910 11.6288759522246714 Zr
    velocity -0.4737495264782513 -0.0720393474069858 -0.8511586194490038
atom 15.0346054819611723 21.0743810952775910 11.6288759522246714 Zr
    velocity -0.0310115447977629 0.0555189874441381 -0.1790106900327911
atom 20.1956054819611701 21.0743810952775910 11.6288759522246714 Zr
    velocity 0.6385346506544404 -0.2959623091143090 0.4664315587484072
atom 25.3566054819611715 21.0743810952775910 11.6288759522246714 Zr
    velocity 0.2034928237611248 -0.5886576153556504 0.1931176126714709
atom 30.5176054819611693 21.0743810952775910 11.6288759522246714 Zr
    velocity 0.2303807441708034 -0.3130800891501266 0.0161304922844274
atom -0.4483945180388231 26.2873810952775884 11.6288759522246714 Zr
    velocity 0.2040118887979855 0.3325901228957328 0.6127188904453564
atom 4.7126054819611740 26.2873810952775884 11.6288759522246714 Zr
    velocity -0.4321038965990869 -0.1111365282446797 0.1369094731717036
atom 9.8736054819611709 26.2873810952775884 11.6288759522246714 Zr
    velocity 0.2908904160828186 0.3946890302569401 -0.0851034755418942
atom 15.0346054819611723 26.2873810952775884 11.6288759522246714 Zr
    velocity -0.5621169543769895 -0.3938011738366477 0.2911749474657714
atom 20.1956054819611701 26.2873810952775884 11.6288759522246714 Zr
    velocity -0.2841244556201926 -0.1053915366640108 -0.4603383815615437
atom 25.3566054819611715 26.2873810952775884 11.6288759522246714 Zr
    velocity 0.3388270544865530 -0.3205850245086955 -0.4533398600507092
atom 30.5176054819611693 26.2873810952775884 11.6288759522246714 Zr
    velocity 0.2131965368625846 -0.2480076274760974 -0.2632233746448310
atom -0.4483945180388231 31.5003810952775858 11.6288759522246714 Zr
    velocity 0.2760322592072756 -0.1626071404166606 0.1225684798186483
atom 4.7126054819611740 31.5003810952775858 11.6288759522246714 Zr
    velocity 0.2399427030385350 0.3137187171175198 0.5054541544852524
atom 9.8736054819611709 31.5003810952775858 11.6288759522246714 Zr
    velocity -0.0920023354903378 0.1537596176120183 -0.4307632924894542
atom 15.0346054819611723 31.5003810952775858 11.6288759522246714 Zr
    velocity -0.0377346104364485 -0.3775151415990455 -0.0683407500594891
atom 20.1956054819611701 31.5003810952775858 11.6288759522246714 Zr
    velocity 0.0148114818701444 -0.2632816327482138 0.0477065469233506
atom 25.3566054819611715 31.5003810952775858 11.6288759522246714 Zr
    velocity -0.1226798814110556 0.2705183886996623 -0.1812938918792246
atom 30.5176054819611693 31.5003810952775858 11.6288759522246714 Zr
    velocity -0.2513754594847626 0.3273563429835055 -0.2471492364406621
atom -1.2974388994319204 0.2223810952775864 16.8908170045764443 Zr
    velocity 0.0667864368279970 -0.0893012511750835 0.0850975030442336
atom 3.8635611005680768 0.2223810952775864 16.8908170045764443 Zr
    velocity -0.3436547204028114 0.0243827578800745 -0.1050433091081338
atom 9.0245611005680768 0.2223810952775864 16.8908170045764443 Zr
    velocity -0.5061631522811010 -0.3076991950341336 -0.2248201911533587
atom 14.1855611005680746 0.2223810952775864 16.8908170045764443 Zr
    velocity -0.4922178196738197 -0.0308580857386268 0.0742989818582095
atom 19.3465611005680742 0.2223810952775864 16.8908170045764443 Zr
    velocity 0.1655851549986596 0.2758874196834175 0.5074134918398755
atom 24.5075611005680756 0.2223810952775864 16.8908170045764443 Zr
    velocity 0.4649856295300978 0.0938372355867416 -0.3472210935796941
atom 29.6685611005680734 0.2223810952775864 16.8908170045764443 Zr
    velocity -0.4833682139760989 0.1813785297168126 -0.4430983422437437
atom -1.2974388994319204 5.4353810952775881 16.8908170045764443 Zr
    velocity 0.1071151610810115 0.2172793561090217 -0.0530886204220887
atom 3.8635611005680768 5.4353810952775881 16.8908170045764443 Zr
    velocity 0.3229157217562362 -0.1412023661523691 0.2200646482852497
atom 9.0245611005680768 5.4353810952775881 16.8908170045764443 Zr
    velocity 0.3167135388526869 -0.0337987655840128 -0.2062332125279564
atom 14.1855611005680746 5.4353810952775881 16.8908170045764443 Zr
    velocity -0.2706351113511878 -0.1868545495666998 0.2282560936354937
atom 19.3465611005680742 5.4353810952775881 16.8908170045764443 Zr
    velocity -0.0047383740927114 -0.5493504536466035 0.1846111628219365
atom 24.5075611005680756 5.4353810952775881 16.8908170045764443 Zr
    velocity -0.2594282348215933 0.1812657122758996 -0.1036418591385549
atom 29.6685611005680734 5.4353810952775881 16.8908170045764443 Zr
    velocity -0.1189059520008017 0.0760866971654032 0.0282642968082436
atom -1.2974388994319204 10.6483810952775890 16.8908170045764443 Zr
    velocity -0.3643617138310264 0.5411249975218761 -0.3657059894857217
atom 3.8635611005680768 10.6483810952775890 16.8908170045764443 Zr
    velocity -0.4453521181331148 0.0691937441006314 0.2170359588394621
atom 9.0245611005680768 10.6483810952775890 16.8908170045764443 Zr
    velocity -0.1956974620473236 -0.1813100710570115 0.1952541595540795
atom 14.1855611005680746 10.6483810952775890 16.8908170045764443 Zr
    velocity -0.1967477463178854 -0.3171925328363318 -0.4005529062212577
atom 19.3465611005680742 10.6483810952775890 16.8908170045764443 Zr
    velocity -0.1446979569889357 0.0737738079643757 -0.1239941362853497
atom 24.5075611005680756 10.6483810952775890 16.8908170045764443 Zr
    velocity -0.1610983825374032 0.3802966950084088 0.1243161030227938
atom 29.6685611005680734 10.6483810952775890 16.8908170045764443 Zr
    velocity 0.0979098724925090 0.5536579327236405 0.4323034505558611
atom -1.2974388994319204 15.8613810952775864 16.8908170045764443 Zr
    velocity -0.3022951646784318 -0.7783461790484184 -0.1511172319848673
atom 3.8635611005680768 15.8613810952775864 16.8908170045764443 Zr
    velocity -0.7323345395361524 0.0764678275910800 0.2602657472421965
atom 9.0245611005680768 15.8613810952775864 16.8908170045764443 Zr
    velocity 0.0342772452487091 -0.3597741348263042 -0.2493113784750263
atom 14.1855611005680746 15.8613810952775864 16.8908170045764443 Zr
    velocity 0.1801637532454934 -0.0932955228062473 -0.7227028938924372
atom 19.3465611005680742 15.8613810952775864 16.8908170045764443 Zr
    velocity -0.1336433204038673 -0.0877505299788809 0.5169097257742349
atom 24.5075611005680756 15.8613810952775864 16.8908170045764443 Zr
    velocity -0.1700243610569095 -0.3183773762472156 -0.1286376900186881
atom 29.6685611005680734 15.8613810952775864 16.8908170045764443 Zr
    velocity -0.1433945483303196 -0.2834270452909540 0.1633106808505863
atom -1.2974388994319204 21.0743810952775910 16.8908170045764443 Zr
    velocity -0.3250677512604512 0.1239922689783634 0.3998023409335733
atom 3.8635611005680768 21.0743810952775910 16.8908170045764443 Zr
    velocity 0.3183462381364973 0.2935336534941135 -0.1728332310538085
atom 9.0245611005680768 21.0743810952775910 16.8908170045764443 Zr
    velocity 0.0155281292049545 0.4511484488866913 -0.2846722838138870
atom 14.1855611005680746 21.0743810952775910 16.8908170045764443 Zr
    velocity -0.0150701049551459 0.3108459136576268 -0.0395396230516890
atom 19.3465611005680742 21.0743810952775910 16.8908170045764443 Zr
    velocity -0.4340613168417329 -0.4089291898808464 -0.1213434301175904
atom 24.5075611005680756 21.0743810952775910 16.8908170045764443 Zr
    velocity -0.1568670815911341 -0.1744443979063657 -0.0791550378135421
atom 29.6685611005680734 21.0743810952775910 16.8908170045764443 Zr
    velocity 0.5044921802638189 0.3081744048220824 0.1468543617810248
atom -1.2974388994319204 26.2873810952775884 16.8908170045764443 Zr
    velocity -0.3785580326693905 0.2094007538102369 -0.2587046945505872
atom 3.8635611005680768 26.2873810952775884 16.8908170045764443 Zr
    velocity -0.0216577360448647 0.3668341104830750 0.3071933191750693
atom 9.0245611005680768 26.2873810952775884 16.8908170045764443 Zr
    velocity -0.1310285618406211 -0.4876735748030944 -0.3675872702084734
atom 14.1855611005680746 26.2873810952775884 16.8908170045764443 Zr
    velocity 0.3905288405168075 0.0728417868983740 0.0733919631796767
atom 19.3465611005680742 26.2873810952775884 16.8908170045764443 Zr
    velocity -0.4006643884715007 -0.0785700709168364 -0.3518016775201021
atom 24.5075611005680756 26.2873810952775884 16.8908170045764443 Zr
    velocity 0.4782905013137506 -0.3714323962461815 0.0853963592263515
atom 29.6685611005680734 26.2873810952775884 16.8908170045764443 Zr
    velocity 0.0972914039427400 0.0637849244545338 -0.5422230288256530
atom -1.2974388994319204 31.5003810952775858 16.8908170045764443 Zr
    velocity 0.1934963359757759 -0.2645886144769475 -0.3009521620569757
atom 3.8635611005680768 31.5003810952775858 16.8908170045764443 Zr
    velocity -0.1096134595775170 -0.0723561734985152 0.1928642831604030
atom 9.0245611005680768 31.5003810952775858 16.8908170045764443 Zr
    velocity -0.0305106231562237 0.0993090106345029 -0.3048421360874439
atom 14.1855611005680746 31.5003810952775858 16.8908170045764443 Zr
    velocity -0.3607009076614822 0.1997577949152573 0.1382775590612203
atom 19.3465611005680742 31.5003810952775858 16.8908170045764443 Zr
    velocity 0.5502580935533870 -0.3327568142855934 0.2616400869271796
atom 24.5075611005680756 31.5003810952775858 16.8908170045764443 Zr
    velocity 0.4608791079145380 -0.2819531180695600 -0.0178609154415341
atom 29.6685611005680734 31.5003810952775858 16.8908170045764443 Zr
    velocity 0.0758742097942723 -0.1343715753142005 -0.5118822338424267
atom -2.1464832808250160 0.2223810952775864 22.1527580569282030 Zr
    velocity -0.1451762982408585 -0.7879374667308252 -0.1206145707860558
atom 3.0145167191749813 0.2223810952775864 22.1527580569282030 Zr
    velocity 0.0324953080367058 0.1260658928120304 -0.1898471068596092
atom 8.1755167191749774 0.2223810952775864 22.1527580569282030 Zr
    velocity 0.5649785637707336 0.1996819285128609 -0.3237446652287255
atom 13.3365167191749787 0.2223810952775864 22.1527580569282030 Zr
    velocity -0.6534492898573309 0.3050839795311068 -0.1179525628827050
atom 18.4975167191749783 0.2223810952775864 22.1527580569282030 Zr
    velocity 0.0925919913580926 -0.5405863116899525 0.3045107792631128
atom 23.6585167191749797 0.2223810952775864 22.1527580569282030 Zr
    velocity -0.1313614220678108 0.0715970420179229 -0.1240912572598132
atom 28.8195167191749775 0.2223810952775864 22.1527580569282030 Zr
    velocity -0.3099606734395032 0.3507370135973427 -0.4465844831373915
atom -2.1464832808250160 5.4353810952775881 22.1527580569282030 Zr
    velocity 0.0897953513970219 -0.1034189854069214 0.2094973985623131
atom 3.0145167191749813 5.4353810952775881 22.1527580569282030 Zr
    velocity 0.1504982327658218 0.4429248091909512 0.0508503584685672
atom 8.1755167191749774 5.4353810952775881 22.1527580569282030 Zr
    velocity -0.0295648222626592 0.2291886170724010 0.1147558455707725
atom 13.3365167191749787 5.4353810952775881 22.1527580569282030 Zr
    velocity -0.0847300348161082 0.1905836064395439 -0.1659709669760892
atom 18.4975167191749783 5.4353810952775881 22.1527580569282030 Zr
    velocity -0.0569184610001853 0.6916663030523439 0.1771350627436012
atom 23.6585167191749797 5.4353810952775881 22.1527580569282030 Zr
    velocity 0.4930755993343164 0.3215695590950878 0.0999059055042897
atom 28.8195167191749775 5.4353810952775881 22.1527580569282030 Zr
    velocity 0.0590216780782058 -0.0690899585170011 -0.3515029649456219
atom -2.1464832808250160 10.6483810952775890 22.1527580569282030 Zr
    velocity -0.4862171075375296 -0.4174530316144310 0.1691155251756937