#=======================================================
# FHI-aims file: 750_geometry.in.primitive.supercell_2592.0010K
# Created using the Atomic Simulation Environment (ASE)
# Tue Nov 15 14:16:18 2022

# Additional information:
#  created from MB distrubtion
#  T = 10.0 K
#  quantum:             False
#  deterministic:       False
#  plus_minus:          False
#  gauge_eigenvectors:  False
#  Random seed:         202106902
#  Sample number:       1
#=======================================================
lattice_vector 30.9900000000000020 0.0000000000000000 0.0000000000000000 
lattice_vector 0.0000000000000000 31.2779999999999987 0.0000000000000000 
lattice_vector -5.0524754510120786 0.0000000000000000 31.6391228041632075 
atom 1.2522636613681566 0.2223810952775880 1.1073554952356328 Zr
    velocity 0.1838758526260764 -0.1885586861813829 -0.2539221971648573
atom 6.4172636613681577 0.2223810952775880 1.1073554952356328 Zr
    velocity -0.1378546576435733 0.2067463377231284 -0.1491340685773107
atom 11.5822636613681560 0.2223810952775880 1.1073554952356328 Zr
    velocity -0.3111592710121173 0.4456125819006493 -0.0160819686705416
atom 16.7472636613681516 0.2223810952775880 1.1073554952356328 Zr
    velocity 0.5159085725406792 -0.1590861582140128 -0.3813811049256905
atom 21.9122636613681507 0.2223810952775880 1.1073554952356328 Zr
    velocity -0.0519120555178827 -0.0583016313145566 -0.0976113077944463
atom 27.0772636613681534 0.2223810952775880 1.1073554952356328 Zr
    velocity -0.4606426505107907 -0.2314811996871260 0.2323797637824997
atom 1.2522636613681566 5.4353810952775854 1.1073554952356328 Zr
    velocity -0.0035532225108174 0.0301842941529556 0.2711717527026125
atom 6.4172636613681577 5.4353810952775854 1.1073554952356328 Zr
    velocity 0.0603677739607314 -0.0911983411112139 -0.0988895487963221
atom 11.5822636613681560 5.4353810952775854 1.1073554952356328 Zr
    velocity 0.3325619075539925 0.1826679449255263 -0.5259632821050223
atom 16.7472636613681516 5.4353810952775854 1.1073554952356328 Zr
    velocity -0.1739331643675052 -0.5071794613740405 0.0217278635933554
atom 21.9122636613681507 5.4353810952775854 1.1073554952356328 Zr
    velocity -0.5975206693954265 0.0618243103081881 -0.2336904201300988
atom 27.0772636613681534 5.4353810952775854 1.1073554952356328 Zr
    velocity -0.2496177620212626 -0.3904502714580365 0.1029368161901121
atom 1.2522636613681566 10.6483810952775855 1.1073554952356328 Zr
    velocity 0.5725110891482567 -0.3174571955490143 0.3489683818194977
atom 6.4172636613681577 10.6483810952775855 1.1073554952356328 Zr
    velocity -0.2641860998298641 0.2571805476676668 -0.2897368825664071
atom 11.5822636613681560 10.6483810952775855 1.1073554952356328 Zr
    velocity -0.1808211508653465 -0.0438266158986060 -0.0300964874409231
atom 16.7472636613681516 10.6483810952775855 1.1073554952356328 Zr
    velocity 0.9323789465049512 -0.0426977525651733 0.7017158879423333
atom 21.9122636613681507 10.6483810952775855 1.1073554952356328 Zr
    velocity -0.0308855538065598 -0.4966891755454524 -0.2903988356611583
atom 27.0772636613681534 10.6483810952775855 1.1073554952356328 Zr
    velocity -0.2979288239668216 0.1723215552933688 0.0997372755982352
atom 1.2522636613681566 15.8613810952775864 1.1073554952356328 Zr
    velocity -0.1486557762974380 0.0290856801329605 -0.0759262587364681
atom 6.4172636613681577 15.8613810952775864 1.1073554952356328 Zr
    velocity 0.2451588639196348 0.3294828985168682 0.0270824358818054
atom 11.5822636613681560 15.8613810952775864 1.1073554952356328 Zr
    velocity -0.1041121460606712 0.4611019589098240 0.3593804949237849
atom 16.7472636613681516 15.8613810952775864 1.1073554952356328 Zr
    velocity -0.0080739959515048 -0.3632835596570627 -0.1554051848857020
atom 21.9122636613681507 15.8613810952775864 1.1073554952356328 Zr
    velocity -0.3172022405346607 0.9601587593726982 -0.2935690364936088
atom 27.0772636613681534 15.8613810952775864 1.1073554952356328 Zr
    velocity 0.1675105447674614 0.0102248003463215 -0.2470472955151365
atom 1.2522636613681566 21.0743810952775874 1.1073554952356328 Zr
    velocity 0.2661592648072489 -0.6177654620244080 -0.1869594046494916
atom 6.4172636613681577 21.0743810952775874 1.1073554952356328 Zr
    velocity 0.0808786357499492 -0.0469785407009519 0.1582347059468781
atom 11.5822636613681560 21.0743810952775874 1.1073554952356328 Zr
    velocity -0.1156934108257291 0.1842213591431827 -0.1427723711586788
atom 16.7472636613681516 21.0743810952775874 1.1073554952356328 Zr
    velocity 0.0875367279205148 0.4840345940467834 -0.4786153520843266
atom 21.9122636613681507 21.0743810952775874 1.1073554952356328 Zr
    velocity -0.1407927849443377 0.1772765646603890 -0.3383886488283269
atom 27.0772636613681534 21.0743810952775874 1.1073554952356328 Zr
    velocity 0.0328550154039773 0.3622456489870355 -0.4439185902001161
atom 1.2522636613681566 26.2873810952775919 1.1073554952356328 Zr
    velocity -0.1508814338355399 -0.4011141837362377 -0.1238349415791977
atom 6.4172636613681577 26.2873810952775919 1.1073554952356328 Zr
    velocity -0.3909944725519743 -0.1574535227488491 -0.3365280534050534
atom 11.5822636613681560 26.2873810952775919 1.1073554952356328 Zr
    velocity -0.4503505577416526 -0.6244587037534591 -0.4308502459614928
atom 16.7472636613681516 26.2873810952775919 1.1073554952356328 Zr
    velocity -0.3357013026134947 0.1947587769702523 -0.3644146073145049
atom 21.9122636613681507 26.2873810952775919 1.1073554952356328 Zr
    velocity -0.2524422195708180 -0.4016459528600334 0.3683234240673176
atom 27.0772636613681534 26.2873810952775919 1.1073554952356328 Zr
    velocity 0.2366466366693695 -0.7358148586359352 -0.6127908445229256
atom 0.4101844195328105 0.2223810952775880 6.3805426292628322 Zr
    velocity 0.0364446011723992 -0.2382059873184985 -0.3284350368267889
atom 5.5751844195328122 0.2223810952775880 6.3805426292628322 Zr
    velocity -0.3534526451147380 -0.0923928012106621 -0.0735083965131333
atom 10.7401844195328096 0.2223810952775880 6.3805426292628322 Zr
    velocity 0.1204283311886843 0.3070323448079167 0.1444755784811043
atom 15.9051844195328052 0.2223810952775880 6.3805426292628322 Zr
    velocity 0.4217195671269184 0.0714452506207185 -0.1876925024189728
atom 21.0701844195328043 0.2223810952775880 6.3805426292628322 Zr
    velocity 0.2296918730287207 -0.1553852255997249 0.0544050397858277
atom 26.2351844195328070 0.2223810952775880 6.3805426292628322 Zr
    velocity 0.5785254346236958 0.2270697384462408 -0.0477225122270078
atom 0.4101844195328105 5.4353810952775854 6.3805426292628322 Zr
    velocity -0.5824637524976015 0.2053575317443556 -0.2165099868871697
atom 5.5751844195328122 5.4353810952775854 6.3805426292628322 Zr
    velocity 0.0449342496783437 -0.2430610207622866 0.5054597712722717
atom 10.7401844195328096 5.4353810952775854 6.3805426292628322 Zr
    velocity 0.0616495505717681 0.2992928352409769 -0.5998378794141477
atom 15.9051844195328052 5.4353810952775854 6.3805426292628322 Zr
    velocity 0.2054649197480718 0.4478608574673627 -0.0390192847902798
atom 21.0701844195328043 5.4353810952775854 6.3805426292628322 Zr
    velocity 0.3384082119484653 0.0547776592847933 0.8825729502848856
atom 26.2351844195328070 5.4353810952775854 6.3805426292628322 Zr
    velocity 0.0167520498821721 0.0080465819166864 -0.4791515770579759
atom 0.4101844195328105 10.6483810952775855 6.3805426292628322 Zr
    velocity -0.2620148075492575 -0.5851784715765399 0.6450650820557557
atom 5.5751844195328122 10.6483810952775855 6.3805426292628322 Zr
    velocity 0.0299027291658096 -0.1370802302889680 -0.4677866739398780
atom 10.7401844195328096 10.6483810952775855 6.3805426292628322 Zr
    velocity 0.5150561137876678 -0.2166944676208588 0.2676148920083513
atom 15.9051844195328052 10.6483810952775855 6.3805426292628322 Zr
    velocity -0.1273365031372655 -0.2058473607468465 -0.2022150602292996
atom 21.0701844195328043 10.6483810952775855 6.3805426292628322 Zr
    velocity 0.2218896018094964 0.1569381599685570 0.4965676715986129
atom 26.2351844195328070 10.6483810952775855 6.3805426292628322 Zr
    velocity 0.3083534319789575 0.0289096073884204 0.2804298129806669
atom 0.4101844195328105 15.8613810952775864 6.3805426292628322 Zr
    velocity 0.8472013229849916 0.1338711915340525 0.1854413387579477
atom 5.5751844195328122 15.8613810952775864 6.3805426292628322 Zr
    velocity 0.0516459258902608 0.1984961582529968 0.4827361778705661
atom 10.7401844195328096 15.8613810952775864 6.3805426292628322 Zr
    velocity 0.3083598999452800 0.1421730549891643 0.0768966770873774
atom 15.9051844195328052 15.8613810952775864 6.3805426292628322 Zr
    velocity 0.0437386378173256 0.2735660006150589 -0.0715419501648018
atom 21.0701844195328043 15.8613810952775864 6.3805426292628322 Zr
    velocity -0.2532360452135293 -0.1871732188442100 -0.0486007465782223
atom 26.2351844195328070 15.8613810952775864 6.3805426292628322 Zr
    velocity 0.0294195042830243 -0.6795502013222425 -0.1631396309225316
atom 0.4101844195328105 21.0743810952775874 6.3805426292628322 Zr
    velocity -0.1048117892734701 -0.1992081964142798 0.6047778947566862
atom 5.5751844195328122 21.0743810952775874 6.3805426292628322 Zr
    velocity 0.3040196310931838 0.2526492590589283 0.6411692565821132
atom 10.7401844195328096 21.0743810952775874 6.3805426292628322 Zr
    velocity 0.0748027697991900 0.1400214205056401 -0.1503123546894270
atom 15.9051844195328052 21.0743810952775874 6.3805426292628322 Zr
    velocity -0.1007793538389704 -0.3440691548143209 -0.4506589837097951
atom 21.0701844195328043 21.0743810952775874 6.3805426292628322 Zr
    velocity 0.0551632541700318 0.3424365900133736 -0.5749146001464612
atom 26.2351844195328070 21.0743810952775874 6.3805426292628322 Zr
    velocity -0.3409425989650067 0.0918688800825498 -0.3611609017973184
atom 0.4101844195328105 26.2873810952775919 6.3805426292628322 Zr
    velocity 0.2919499150372373 -0.1251113620498568 0.1080311220049270
atom 5.5751844195328122 26.2873810952775919 6.3805426292628322 Zr
    velocity -0.5418967700597357 0.1673611996899447 0.2466514724048925
atom 10.7401844195328096 26.2873810952775919 6.3805426292628322 Zr
    velocity 0.4089889276764255 -0.1438134489159647 -0.0100178384305534
atom 15.9051844195328052 26.2873810952775919 6.3805426292628322 Zr
    velocity -0.4066131516123823 -0.2169653184187444 -0.2526127319729085
atom 21.0701844195328043 26.2873810952775919 6.3805426292628322 Zr
    velocity -0.6678286243333561 0.0931439192357754 -0.0282354911835336
atom 26.2351844195328070 26.2873810952775919 6.3805426292628322 Zr
    velocity 0.1862243039025661 0.1194766216039240 -0.1800868732070922
atom -0.4318948223025360 0.2223810952775880 11.6537297632900341 Zr
    velocity -0.5581837514059492 -0.3768107675809565 0.1045168192369821
atom 4.7331051776974657 0.2223810952775880 11.6537297632900341 Zr
    velocity 0.2258241408430940 -0.4904690410585180 0.2655532439523225
atom 9.8981051776974631 0.2223810952775880 11.6537297632900341 Zr
    velocity 0.5756155295737241 -0.1376595109667381 -0.2677889098344642
atom 15.0631051776974587 0.2223810952775880 11.6537297632900341 Zr
    velocity 0.1147866545129684 0.3787401899740185 -0.3397031471579370
atom 20.2281051776974579 0.2223810952775880 11.6537297632900341 Zr
    velocity -0.2974751887553900 0.1334697400904922 0.1080670231189135
atom 25.3931051776974606 0.2223810952775880 11.6537297632900341 Zr
    velocity -0.0733817747349355 -0.1460262616761244 -0.0428375891294252
atom -0.4318948223025360 5.4353810952775854 11.6537297632900341 Zr
    velocity -0.1550062981195484 0.1038750660831822 -0.1179074152256487
atom 4.7331051776974657 5.4353810952775854 11.6537297632900341 Zr
    velocity -0.0554029247237981 -0.0490194243605309 0.2257727837616192
atom 9.8981051776974631 5.4353810952775854 11.6537297632900341 Zr
    velocity -0.1064444433730576 0.0139985610866832 0.0744641685506855
atom 15.0631051776974587 5.4353810952775854 11.6537297632900341 Zr
    velocity -0.1129620945701475 -0.2227226089947517 0.3930324705062871
atom 20.2281051776974579 5.4353810952775854 11.6537297632900341 Zr
    velocity 0.2611760423787090 -0.0270536214702156 0.1555074981716690
atom 25.3931051776974606 5.4353810952775854 11.6537297632900341 Zr
    velocity 0.0178999583442875 -0.0145293634407148 -0.0237541962021883
atom -0.4318948223025360 10.6483810952775855 11.6537297632900341 Zr
    velocity 0.0860433646824687 0.5625389856064082 -0.5249963820618827
atom 4.7331051776974657 10.6483810952775855 11.6537297632900341 Zr
    velocity 0.0590984437062747 -0.0413454465866109 0.1147871032558829
atom 9.8981051776974631 10.6483810952775855 11.6537297632900341 Zr
    velocity -0.3794364742268524 -0.3215056497243662 0.2171845823502067
atom 15.0631051776974587 10.6483810952775855 11.6537297632900341 Zr
    velocity 0.1725539731245735 -0.0408283468224282 0.0559060505104953
atom 20.2281051776974579 10.6483810952775855 11.6537297632900341 Zr
    velocity 0.3954225774650742 0.0198016377859352 0.1993837290213426
atom 25.3931051776974606 10.6483810952775855 11.6537297632900341 Zr
    velocity 0.0572773371055608 -0.3776252775886667 0.2616243647899061
atom -0.4318948223025360 15.8613810952775864 11.6537297632900341 Zr
    velocity -0.0916716310602076 -0.1744372413579303 -0.1135325510111661
atom 4.7331051776974657 15.8613810952775864 11.6537297632900341 Zr
    velocity -0.3390282419954045 0.1438193404106987 -0.2050584783070672
atom 9.8981051776974631 15.8613810952775864 11.6537297632900341 Zr
    velocity 0.4905449799928129 -0.6001506383260059 -0.4489491568575091
atom 15.0631051776974587 15.8613810952775864 11.6537297632900341 Zr
    velocity -0.1150393630841011 -0.0493953673710988 0.3513605025446873
atom 20.2281051776974579 15.8613810952775864 11.6537297632900341 Zr
    velocity -0.2053369287822844 0.4984198272336674 0.8078648223813689
atom 25.3931051776974606 15.8613810952775864 11.6537297632900341 Zr
    velocity 0.4459834130607300 -0.0609074997543105 -0.1351905072034890
atom -0.4318948223025360 21.0743810952775874 11.6537297632900341 Zr
    velocity 0.5015394593411946 -0.6130380334310849 -0.3549412683266584
atom 4.7331051776974657 21.0743810952775874 11.6537297632900341 Zr
    velocity -0.2503333295977990 0.0115867375058844 -0.0472461444139619
atom 9.8981051776974631 21.0743810952775874 11.6537297632900341 Zr
    velocity -0.0884779276282675 -0.0162544920827565 -0.1806413096469791
atom 15.0631051776974587 21.0743810952775874 11.6537297632900341 Zr
    velocity -0.1179405907976699 0.0958216027422039 0.0023328646831424
atom 20.2281051776974579 21.0743810952775874 11.6537297632900341 Zr
    velocity -0.3915798238510667 0.4831909189496991 0.6421045548080745
atom 25.3931051776974606 21.0743810952775874 11.6537297632900341 Zr
    velocity 0.4264394677327885 -0.1295221641413009 0.0703158112471802
atom -0.4318948223025360 26.2873810952775919 11.6537297632900341 Zr
    velocity -0.1618151756863243 0.3036786747462024 0.0908735715557413
atom 4.7331051776974657 26.2873810952775919 11.6537297632900341 Zr
    velocity -0.0091366847247142 0.1226455523087655 -0.1553936216840371
atom 9.8981051776974631 26.2873810952775919 11.6537297632900341 Zr
    velocity -0.3303033611720773 -0.1701167110904014 -0.0373936226600299
atom 15.0631051776974587 26.2873810952775919 11.6537297632900341 Zr
    velocity -0.0164438567615200 0.4294901598697700 -0.0639549543777370
atom 20.2281051776974579 26.2873810952775919 11.6537297632900341 Zr
    velocity 0.1659827239065046 0.1947554823945523 0.0682517501709959
atom 25.3931051776974606 26.2873810952775919 11.6537297632900341 Zr
    velocity 0.0168672632313111 0.0630110218759035 -0.2958928694883297
atom -1.2739740641378832 0.2223810952775880 16.9269168973172413 Zr
    velocity 0.4367379740211578 -0.0913254910232027 -0.1521016167657955
atom 3.8910259358621184 0.2223810952775880 16.9269168973172413 Zr
    velocity 0.1062485864659619 0.0845021164678053 0.2844880093456912
atom 9.0560259358621167 0.2223810952775880 16.9269168973172413 Zr
    velocity 0.5797923738912026 -0.2765676292041544 -0.1182913337638720
atom 14.2210259358621123 0.2223810952775880 16.9269168973172413 Zr
    velocity 0.2377245772060509 0.2411320424859092 0.1120940186251647
atom 19.3860259358621114 0.2223810952775880 16.9269168973172413 Zr
    velocity 0.2422711172041941 -0.1729928311683581 0.0204805146673857
atom 24.5510259358621141 0.2223810952775880 16.9269168973172413 Zr
    velocity -0.0048014738489122 -0.0895761959197962 0.4923297835768886
atom -1.2739740641378832 5.4353810952775854 16.9269168973172413 Zr
    velocity -0.2815271929304224 0.1536382386397245 0.0565357550297613
atom 3.8910259358621184 5.4353810952775854 16.9269168973172413 Zr
    velocity 0.0414663484004569 0.5270470071795077 -0.3169865648605273
atom 9.0560259358621167 5.4353810952775854 16.9269168973172413 Zr
    velocity -0.0833056366953346 -0.0514451990486373 0.2371159824641578
atom 14.2210259358621123 5.4353810952775854 16.9269168973172413 Zr
    velocity 0.0403509049600253 -0.2859889043246499 0.2972272559657309
atom 19.3860259358621114 5.4353810952775854 16.9269168973172413 Zr
    velocity -0.5710493142841264 -0.0432249976395217 0.0155050802735936
atom 24.5510259358621141 5.4353810952775854 16.9269168973172413 Zr
    velocity -0.4372414049723998 -0.1007790794848286 -0.2680879026222650
atom -1.2739740641378832 10.6483810952775855 16.9269168973172413 Zr
    velocity 0.1886716236338212 0.0909486645509955 0.1643205698999411
atom 3.8910259358621184 10.6483810952775855 16.9269168973172413 Zr
    velocity 0.0483846852376502 -0.0610139209735619 0.4831740030950223
atom 9.0560259358621167 10.6483810952775855 16.9269168973172413 Zr
    velocity 0.1303765840124503 0.1299012924649234 -0.0490307881154514
atom 14.2210259358621123 10.6483810952775855 16.9269168973172413 Zr
    velocity 0.0680605366017917 0.0611259543427841 0.5085279031914913
atom 19.3860259358621114 10.6483810952775855 16.9269168973172413 Zr
    velocity -0.4132003740591800 0.2113427817379136 0.0965384046426325
atom 24.5510259358621141 10.6483810952775855 16.9269168973172413 Zr
    velocity -0.4707789769467666 0.3272542344140764 -0.3728826971951923
atom -1.2739740641378832 15.8613810952775864 16.9269168973172413 Zr
    velocity 0.0803575769128600 0.0692870416316795 0.2416091897431615
atom 3.8910259358621184 15.8613810952775864 16.9269168973172413 Zr
    velocity 0.0024277725407962 -0.0182766799953807 -0.2178138744707930
atom 9.0560259358621167 15.8613810952775864 16.9269168973172413 Zr
    velocity 0.5007729524491507 -0.4811714929296143 0.1997708253870311
atom 14.2210259358621123 15.8613810952775864 16.9269168973172413 Zr
    velocity 0.3572730671114355 -0.0841645091762851 -0.2555498246142743
atom 19.3860259358621114 15.8613810952775864 16.9269168973172413 Zr
    velocity 0.2808672724158739 0.1110822902457788 -0.1893859961099426
atom 24.5510259358621141 15.8613810952775864 16.9269168973172413 Zr
    velocity 0.1200238412881022 0.7735996102195417 -0.0075607125255495
atom -1.2739740641378832 21.0743810952775874 16.9269168973172413 Zr
    velocity 0.1712327884739049 -0.0386870923381168 -0.3539641001192597
atom 3.8910259358621184 21.0743810952775874 16.9269168973172413 Zr
    velocity -0.0976931270874692 0.2179612764875216 0.0713672883563985
atom 9.0560259358621167 21.0743810952775874 16.9269168973172413 Zr
    velocity -0.4437375606720818 0.4755977916461241 0.6380789304380182
atom 14.2210259358621123 21.0743810952775874 16.9269168973172413 Zr
    velocity -0.3101952772739920 -0.1999712354280111 0.2898578016646683
atom 19.3860259358621114 21.0743810952775874 16.9269168973172413 Zr
    velocity 0.3808937197113161 -0.0502951962280869 0.5693535833075266
atom 24.5510259358621141 21.0743810952775874 16.9269168973172413 Zr
    velocity -0.0672553802191935 0.0918808546469610 0.1768194138022791
atom -1.2739740641378832 26.2873810952775919 16.9269168973172413 Zr
    velocity -0.0491921894069271 0.0928737975842514 0.3484169562420658
atom 3.8910259358621184 26.2873810952775919 16.9269168973172413 Zr
    velocity 0.2429779393738063 -0.0477192967243774 0.4176634700926111
atom 9.0560259358621167 26.2873810952775919 16.9269168973172413 Zr
    velocity -0.2947171441407664 -0.4325786343130903 0.8561090735420099
atom 14.2210259358621123 26.2873810952775919 16.9269168973172413 Zr
    velocity 0.2953539526948902 0.0818231305145418 0.3947744159524997
atom 19.3860259358621114 26.2873810952775919 16.9269168973172413 Zr
    velocity -0.1887355080572508 0.0990925017874825 0.1596900738830914
atom 24.5510259358621141 26.2873810952775919 16.9269168973172413 Zr
    velocity 0.0662530048263100 0.4520548843951038 0.0791738241514745
atom -2.1160533059732289 0.2223810952775880 22.2001040313444378 Zr
    velocity -0.0242454213756343 -0.0064845682455447 -0.3331706931837938
atom 3.0489466940267724 0.2223810952775880 22.2001040313444378 Zr
    velocity 0.1652571555459575 -0.1394267641959036 -0.0115440867950366
atom 8.2139466940267738 0.2223810952775880 22.2001040313444378 Zr
    velocity -0.0543383713401239 0.2431757080172589 -0.2711471926998625
atom 13.3789466940267658 0.2223810952775880 22.2001040313444378 Zr
    velocity 0.3178269290080672 -0.1003808340256489 0.1332687696925447
atom 18.5439466940267650 0.2223810952775880 22.2001040313444378 Zr
    velocity -0.1255884456607643 -0.0242101972904340 0.1604678616939038
atom 23.7089466940267677 0.2223810952775880 22.2001040313444378 Zr
    velocity -0.5257382949684841 -0.2113832600534665 0.3806181915320140
atom -2.1160533059732289 5.4353810952775854 22.2001040313444378 Zr
    velocity -0.3681138757100617 0.0006726733271534 0.0148779992059875
atom 3.0489466940267724 5.4353810952775854 22.2001040313444378 Zr
    velocity 0.1384718525474580 -0.4126040673242386 0.1431052440125779
atom 8.2139466940267738 5.4353810952775854 22.2001040313444378 Zr
    velocity 0.3324981677322590 0.4209402083632424 -0.1931940217065679
atom 13.3789466940267658 5.4353810952775854 22.2001040313444378 Zr
    velocity 0.2028894484542100 0.1665029908218001 0.2560916654573021
atom 18.5439466940267650 5.4353810952775854 22.2001040313444378 Zr
    velocity 0.6763563027504365 -0.5006430817751555 -0.4292525486592784
atom 23.7089466940267677 5.4353810952775854 22.2001040313444378 Zr
    velocity -0.1928173086660064 0.3884761722484276 0.4409065179176738
atom -2.1160533059732289 10.6483810952775855 22.2001040313444378 Zr
    velocity -0.2517800877384602 -0.2938997162142299 0.1588177838174990
atom 3.0489466940267724 10.6483810952775855 22.2001040313444378 Zr
    velocity -0.4128982209701700 -0.2055667966151244 0.2052986881876651
atom 8.2139466940267738 10.6483810952775855 22.2001040313444378 Zr
    velocity 0.0532029135397136 -0.0098020610449434 0.6316595702652178
atom 13.3789466940267658 10.6483810952775855 22.2001040313444378 Zr
    velocity -0.6948010537651208 -0.0772190590610777 -0.0623102788178893
atom 18.5439466940267650 10.6483810952775855 22.2001040313444378 Zr
    velocity 0.1001796451341505 -0.3702973716693833 -0.3045945786324293
atom 23.7089466940267677 10.6483810952775855 22.2001040313444378 Zr
    velocity -0.0541343803913106 -0.1051165224555274 -0.0383735121404825
atom -2.1160533059732289 15.8613810952775864 22.2001040313444378 Zr
    velocity 0.4138846727461725 -0.3148710891195571 0.1320799468829847
atom 3.0489466940267724 15.8613810952775864 22.2001040313444378 Zr
    velocity 0.1732169959827259 -0.1330579450907628 -0.5626639632867549
atom 8.2139466940267738 15.8613810952775864 22.2001040313444378 Zr
    velocity 0.1858586934861737 0.0638608742092655 -0.2123772828210359
atom 13.3789466940267658 15.8613810952775864 22.2001040313444378 Zr
    velocity -0.5119096863955849 0.0191704952143898 -0.3526455926634166
atom 18.5439466940267650 15.8613810952775864 22.2001040313444378 Zr
    velocity -0.1008763267620321 0.4428049251833526 -0.0130818410974442
atom 23.7089466940267677 15.8613810952775864 22.2001040313444378 Zr
    velocity -0.0083810000866060 0.4804067982429142 0.2201818007489134
atom -2.1160533059732289 21.0743810952775874 22.2001040313444378 Zr
    velocity -0.1479815165816337 0.1882942875413773 0.0456747782145754
atom 3.0489466940267724 21.0743810952775874 22.2001040313444378 Zr
    velocity 0.0610048197642057 0.4721603814345405 -0.1387024080310267
atom 8.2139466940267738 21.0743810952775874 22.2001040313444378 Zr
    velocity -0.2009961451886450 0.1399546793710743 -0.0531429728777568
atom 13.3789466940267658 21.0743810952775874 22.2001040313444378 Zr
    velocity -0.0477865330379183 0.0739807785297027 -0.3158276914887760
atom 18.5439466940267650 21.0743810952775874 22.2001040313444378 Zr
    velocity 0.0370105427821348 0.1610033233295864 -0.0523873821960872
atom 23.7089466940267677 21.0743810952775874 22.2001040313444378 Zr
    velocity 0.2889140447143134 -0.1021184137435995 -0.4426324263062721
atom -2.1160533059732289 26.2873810952775919 22.2001040313444378 Zr
    velocity 0.0258064415836160 -0.0366630860695706 -0.0190197400546601
atom 3.0489466940267724 26.2873810952775919 22.2001040313444378 Zr
    velocity -0.1023239834727077 0.1772848101274402 0.3076256949502504
atom 8.2139466940267738 26.2873810952775919 22.2001040313444378 Zr
    velocity -0.3352486204136686 -0.2737929792475519 -0.3097263755387257
atom 13.3789466940267658 26.2873810952775919 22.2001040313444378 Zr
    velocity 0.3154519207452781 0.2534298042197167 0.0193877600073859
atom 18.5439466940267650 26.2873810952775919 22.2001040313444378 Zr
    velocity -0.7298538354540133 -0.7249640295056278 0.2613091805800840
atom 23.7089466940267677 26.2873810952775919 22.2001040313444378 Zr
    velocity -0.6790190988284341 0.3628344771955977 -0.0464255290600808
atom -2.9581325478085758 0.2223810952775880 27.4732911653716414 Zr
    velocity 0.0414465532488037 0.0658688293230041 0.1155108315047831
atom 2.2068674521914255 0.2223810952775880 27.4732911653716414 Zr
    velocity -0.0897737762495288 -0.4230141657723755 -0.1154377240526999
atom 7.3718674521914274 0.2223810952775880 27.4732911653716414 Zr
    velocity 0.1641812565031117 -0.4604180160435789 0.1571832782826916
atom 12.5368674521914194 0.2223810952775880 27.4732911653716414 Zr
    velocity 0.5232385771073240 0.4984464554866341 -0.2675272132347076
atom 17.7018674521914186 0.2223810952775880 27.4732911653716414 Zr
    velocity 0.2739297265877025 0.6222986890268324 0.3370082448436602
atom 22.8668674521914213 0.2223810952775880 27.4732911653716414 Zr
    velocity -0.0838701708571624 -0.1799975121902257 0.5306599284380218
atom -2.9581325478085758 5.4353810952775854 27.4732911653716414 Zr
    velocity 0.0500041463575425 -0.2709367350142055 0.0641907941794875
atom 2.2068674521914255 5.4353810952775854 27.4732911653716414 Zr
    velocity -0.3581989626287601 0.0987397133978272 0.1427873933718673
atom 7.3718674521914274 5.4353810952775854 27.4732911653716414 Zr
    velocity 0.2616556654202722 0.0386555506598267 -0.3658596879243506
atom 12.5368674521914194 5.4353810952775854 27.4732911653716414 Zr
    velocity 0.1989159077830326 0.1037043289125422 -0.0640152726026437
atom 17.7018674521914186 5.4353810952775854 27.4732911653716414 Zr
    velocity 0.1261184927455061 0.0769135778157862 0.0617991077853843
atom 22.8668674521914213 5.4353810952775854 27.4732911653716414 Zr
    velocity 0.3313289217946930 -0.0297675877939357 0.4826699148110504
atom -2.9581325478085758 10.6483810952775855 27.4732911653716414 Zr
    velocity 0.1556081321019677 0.1200625703951562 0.2515177444735412
atom 2.2068674521914255 10.6483810952775855 27.4732911653716414 Zr
    velocity -0.1344061204150616 0.3911149663858680 -0.1049487942232244
atom 7.3718674521914274 10.6483810952775855 27.4732911653716414 Zr
    velocity 0.0952797899566873 0.1767978041425450 -0.0420039920342274
atom 12.5368674521914194 10.6483810952775855 27.4732911653716414 Zr
    velocity 0.1301847705681888 -0.5171181458425537 -0.2286006465148313
atom 17.7018674521914186 10.6483810952775855 27.4732911653716414 Zr
    velocity -0.2331094552817454 -0.5241142220732642 0.0907021083799011
atom 22.8668674521914213 10.6483810952775855 27.4732911653716414 Zr
    velocity 0.0840196278663426 0.1736376100610835 -0.2820802005747050
atom -2.9581325478085758 15.8613810952775864 27.4732911653716414 Zr
    velocity 0.3941703315482414 -0.0808490425007452 0.4256801897490212
atom 2.2068674521914255 15.8613810952775864 27.4732911653716414 Zr
    velocity 0.1163266891180343 -0.5165600486524664 -0.0818260851412141
atom 7.3718674521914274 15.8613810952775864 27.4732911653716414 Zr
    velocity 0.2690734939543353 -0.0286671590173703 0.1741969763535521
atom 12.5368674521914194 15.8613810952775864 27.4732911653716414 Zr
    velocity 0.5023115532137068 -0.3219507629082812 0.1540927483693680
atom 17.7018674521914186 15.8613810952775864 27.4732911653716414 Zr
    velocity 0.6038025948472389 0.2249376106064495 0.1050366477004750
atom 22.8668674521914213 15.8613810952775864 27.4732911653716414 Zr
    velocity 0.0517416053157584 -0.2113907257185681 -0.5055127142734828
atom -2.9581325478085758 21.0743810952775874 27.4732911653716414 Zr
    velocity 0.3015131483892928 -0.5049344764774171 0.0757117742411499
atom 2.2068674521914255 21.0743810952775874 27.4732911653716414 Zr
    velocity 0.1448661582303903 0.2503462156507280 -0.4141288635630442
atom 7.3718674521914274 21.0743810952775874 27.4732911653716414 Zr
    velocity -0.3579587430720391 0.3305267031346636 0.5849297820661882
atom 12.5368674521914194 21.0743810952775874 27.4732911653716414 Zr
    velocity -0.0942716829313659 -0.6594490224171812 -0.2419170933629697
atom 17.7018674521914186 21.0743810952775874 27.4732911653716414 Zr
    velocity -0.0875957237375215 -0.4991685442297170 -0.0505650185097036
atom 22.8668674521914213 21.0743810952775874 27.4732911653716414 Zr
    velocity -0.9401818873449095 -0.0712538555248470 0.3883413068739674
atom -2.9581325478085758 26.2873810952775919 27.4732911653716414 Zr
    velocity -0.0844936059339522 -0.3339445675568875 -0.0492751155192068