#=======================================================
# FHI-aims file: 900_geometry.in.primitive.supercell_1500.0010K
# Created using the Atomic Simulation Environment (ASE)
# Tue Aug 16 11:33:35 2022

# Additional information:
#  created from MB distrubtion
#  T = 10.0 K
#  quantum:             False
#  deterministic:       False
#  plus_minus:          False
#  gauge_eigenvectors:  False
#  Random seed:         851146600
#  Sample number:       1
#=======================================================
lattice_vector 25.8599999999999994 0.0000000000000000 0.0000000000000000 
lattice_vector 0.0000000000000000 26.0749999999999993 0.0000000000000000 
lattice_vector -4.1792292901030699 0.0000000000000000 26.4164544846719487 
atom 1.2555094778573583 0.2224664131733400 1.1094772589988851 Zr
    velocity 0.2093618855403453 0.2978437141083622 0.5806724216929635
atom 6.4275094778573587 0.2224664131733400 1.1094772589988851 Zr
    velocity 0.2589564456906572 -0.1583909498644622 0.0896548376990152
atom 11.5995094778573584 0.2224664131733400 1.1094772589988851 Zr
    velocity -0.4475613500595041 0.3578482796496535 0.4319317582213846
atom 16.7715094778573572 0.2224664131733400 1.1094772589988851 Zr
    velocity -0.6713678057326103 -0.0658822829813836 0.3258648801584497
atom 21.9435094778573578 0.2224664131733400 1.1094772589988851 Zr
    velocity -0.0576767468044752 0.1699359998640399 -0.1918688661913977
atom 1.2555094778573583 5.4374664131733397 1.1094772589988851 Zr
    velocity 0.1516234491161573 0.1550578159383694 -0.1554197071939514
atom 6.4275094778573587 5.4374664131733397 1.1094772589988851 Zr
    velocity 0.2435470425006283 -0.0080521877470382 0.6698628414597138
atom 11.5995094778573584 5.4374664131733397 1.1094772589988851 Zr
    velocity -0.5969261506265477 0.3612290539047543 -0.7418832860595472
atom 16.7715094778573572 5.4374664131733397 1.1094772589988851 Zr
    velocity 0.0032351059991906 0.2443085196713928 0.2408159987276576
atom 21.9435094778573578 5.4374664131733397 1.1094772589988851 Zr
    velocity 0.2444568513010003 -0.1766682489532078 -0.1377630238509260
atom 1.2555094778573583 10.6524664131733413 1.1094772589988851 Zr
    velocity 0.0470067338550543 0.5338404502908806 0.3839092334403433
atom 6.4275094778573587 10.6524664131733413 1.1094772589988851 Zr
    velocity 0.0835163724205360 -0.2190978361250198 -0.4312747702401760
atom 11.5995094778573584 10.6524664131733413 1.1094772589988851 Zr
    velocity -0.2810591581318967 -0.2916115791467335 -0.1307807925737852
atom 16.7715094778573572 10.6524664131733413 1.1094772589988851 Zr
    velocity 0.0369479447054517 -0.3089144906949036 0.0030272503248297
atom 21.9435094778573578 10.6524664131733413 1.1094772589988851 Zr
    velocity 0.0873855071976966 0.0981711302047586 0.3959966853979857
atom 1.2555094778573583 15.8674664131733412 1.1094772589988851 Zr
    velocity 0.3750368668065512 -0.3057945450231268 0.1703796827091361
atom 6.4275094778573587 15.8674664131733412 1.1094772589988851 Zr
    velocity -0.4724675693844938 0.1393162728627992 0.3320595446829471
atom 11.5995094778573584 15.8674664131733412 1.1094772589988851 Zr
    velocity 0.0311064436647647 0.0394024432181695 0.1612594155234653
atom 16.7715094778573572 15.8674664131733412 1.1094772589988851 Zr
    velocity 0.3818769453635051 0.1227288643366349 0.0731950712661758
atom 21.9435094778573578 15.8674664131733412 1.1094772589988851 Zr
    velocity 0.2137996809644840 -0.0933368882571741 -0.1649270005602372
atom 1.2555094778573583 21.0824664131733464 1.1094772589988851 Zr
    velocity -0.1965221534348975 0.2293983972965555 0.1895380954219753
atom 6.4275094778573587 21.0824664131733464 1.1094772589988851 Zr
    velocity 0.5332085366275251 -0.7148990581373669 -0.3930783768767845
atom 11.5995094778573584 21.0824664131733464 1.1094772589988851 Zr
    velocity -0.0322768128450601 -0.0178912813039103 0.2039776336083080
atom 16.7715094778573572 21.0824664131733464 1.1094772589988851 Zr
    velocity -0.0263683475918497 0.1333517429977674 -0.3192209268153940
atom 21.9435094778573578 21.0824664131733464 1.1094772589988851 Zr
    velocity -0.5484147128080473 0.1696290160509511 -0.5210372747819896
atom 0.4196636198367444 0.2224664131733400 6.3927681559332745 Zr
    velocity 0.3423997943054630 0.5393306055866114 -0.4693926077979105
atom 5.5916636198367442 0.2224664131733400 6.3927681559332745 Zr
    velocity 0.8485201916231341 -0.2097996667037321 0.1642805032645266
atom 10.7636636198367448 0.2224664131733400 6.3927681559332745 Zr
    velocity -0.2149129478074855 -0.1092369766078395 -0.0150840512427896
atom 15.9356636198367454 0.2224664131733400 6.3927681559332745 Zr
    velocity 0.4311919724873360 -0.1457852391026520 -0.8939044083697293
atom 21.1076636198367460 0.2224664131733400 6.3927681559332745 Zr
    velocity -0.0347987062285198 0.2833823987381032 -0.3158328835768630
atom 0.4196636198367444 5.4374664131733397 6.3927681559332745 Zr
    velocity 0.1465816976193507 0.7785378968735855 -0.8018569395889764
atom 5.5916636198367442 5.4374664131733397 6.3927681559332745 Zr
    velocity -0.5353493516676439 -0.3958700946501752 0.7387930148548864
atom 10.7636636198367448 5.4374664131733397 6.3927681559332745 Zr
    velocity 0.1067508904925411 -0.0562582542769903 0.2087213653709790
atom 15.9356636198367454 5.4374664131733397 6.3927681559332745 Zr
    velocity -0.0095764752886117 -0.1205222401810280 0.1720540563137858
atom 21.1076636198367460 5.4374664131733397 6.3927681559332745 Zr
    velocity -0.1402384979093353 -0.2291842937595743 -0.0649337811463820
atom 0.4196636198367444 10.6524664131733413 6.3927681559332745 Zr
    velocity 0.1655080246358872 0.1336333991646242 0.5125909116721589
atom 5.5916636198367442 10.6524664131733413 6.3927681559332745 Zr
    velocity 0.0271195081583367 0.0070683307330032 0.0919057734185669
atom 10.7636636198367448 10.6524664131733413 6.3927681559332745 Zr
    velocity 0.1020591927705984 -0.4664026827523672 0.1278301529765043
atom 15.9356636198367454 10.6524664131733413 6.3927681559332745 Zr
    velocity -0.4117992941156294 -0.1692298782480152 0.6044142073332098
atom 21.1076636198367460 10.6524664131733413 6.3927681559332745 Zr
    velocity -0.1329779576593975 -0.3515662791380382 0.3293030584821124
atom 0.4196636198367444 15.8674664131733412 6.3927681559332745 Zr
    velocity 0.0484028589525719 -0.0999623801607677 0.3755441078177635
atom 5.5916636198367442 15.8674664131733412 6.3927681559332745 Zr
    velocity -0.4554644961692225 0.0719659390754079 0.0741728496025471
atom 10.7636636198367448 15.8674664131733412 6.3927681559332745 Zr
    velocity -0.0780200980731201 -0.0126998673032667 -0.2936639317322020
atom 15.9356636198367454 15.8674664131733412 6.3927681559332745 Zr
    velocity -0.0038777524345523 -0.5526619536108099 -0.3493347223191046
atom 21.1076636198367460 15.8674664131733412 6.3927681559332745 Zr
    velocity -0.2078627341790989 0.1450293145229671 0.3791449237128265
atom 0.4196636198367444 21.0824664131733464 6.3927681559332745 Zr
    velocity 0.5864144110875481 -0.0721767863001271 -0.3558652585349392
atom 5.5916636198367442 21.0824664131733464 6.3927681559332745 Zr
    velocity 0.7303165051085554 0.2880828421598802 -0.1839272910857586
atom 10.7636636198367448 21.0824664131733464 6.3927681559332745 Zr
    velocity 0.2111279754149070 0.2834529274618564 0.0484480182490478
atom 15.9356636198367454 21.0824664131733464 6.3927681559332745 Zr
    velocity -0.1323652036287351 0.2772327235972732 -0.0835246812958747
atom 21.1076636198367460 21.0824664131733464 6.3927681559332745 Zr
    velocity 0.4249761032221973 -0.0631548355865771 -0.4483140460425331
atom -0.4161822381838701 0.2224664131733400 11.6760590528676680 Zr
    velocity -0.2882650579380471 -0.1741974016775249 -0.0356024677029039
atom 4.7558177618161297 0.2224664131733400 11.6760590528676680 Zr
    velocity -0.0193171176264886 -0.3008321480143461 -0.6700677501108137
atom 9.9278177618161294 0.2224664131733400 11.6760590528676680 Zr
    velocity -0.3881532055233772 -0.3457991172969691 0.0583634232923869
atom 15.0998177618161300 0.2224664131733400 11.6760590528676680 Zr
    velocity -0.0564747191160659 -0.1782695224409354 0.0458995026719259
atom 20.2718177618161306 0.2224664131733400 11.6760590528676680 Zr
    velocity 0.1814775442529866 -0.3079656128365274 -0.5132635741398442
atom -0.4161822381838701 5.4374664131733397 11.6760590528676680 Zr
    velocity -0.0135380072756077 -0.3200633242567132 0.1464782474896976
atom 4.7558177618161297 5.4374664131733397 11.6760590528676680 Zr
    velocity -0.2387975290463170 0.1080074451203855 0.1185453322267359
atom 9.9278177618161294 5.4374664131733397 11.6760590528676680 Zr
    velocity -0.2900185318386405 -0.0946066715439644 0.2954238369612826
atom 15.0998177618161300 5.4374664131733397 11.6760590528676680 Zr
    velocity -0.6249438771622324 -0.1147562938515971 -0.1666907766641285
atom 20.2718177618161306 5.4374664131733397 11.6760590528676680 Zr
    velocity -0.5182643223540252 0.7586128748227480 0.2010874487352700
atom -0.4161822381838701 10.6524664131733413 11.6760590528676680 Zr
    velocity -0.1288834990567350 0.0326913563032518 -0.1987238749511158
atom 4.7558177618161297 10.6524664131733413 11.6760590528676680 Zr
    velocity -0.0503908225470948 0.3172257508979084 -0.0782163115437046
atom 9.9278177618161294 10.6524664131733413 11.6760590528676680 Zr
    velocity -0.2972586249672006 0.1611018979648877 0.1474474146546372
atom 15.0998177618161300 10.6524664131733413 11.6760590528676680 Zr
    velocity -0.4779467644501039 -0.5242878854490706 -0.2928983627465657
atom 20.2718177618161306 10.6524664131733413 11.6760590528676680 Zr
    velocity 0.2496599322224699 0.1647969626767299 -0.1250455789857582
atom -0.4161822381838701 15.8674664131733412 11.6760590528676680 Zr
    velocity 0.3310097821802412 -0.2295604277932129 -0.0517547989828957
atom 4.7558177618161297 15.8674664131733412 11.6760590528676680 Zr
    velocity -0.1152337555313828 -0.1680095329873232 -0.5024839976563474
atom 9.9278177618161294 15.8674664131733412 11.6760590528676680 Zr
    velocity -0.1822782652752295 0.4050064310094899 -0.0665235082828139
atom 15.0998177618161300 15.8674664131733412 11.6760590528676680 Zr
    velocity -0.3500634523334525 -0.3006986700621661 -0.2619570167582254
atom 20.2718177618161306 15.8674664131733412 11.6760590528676680 Zr
    velocity 0.7590353388933649 -0.0080253535258315 -0.1132088279883936
atom -0.4161822381838701 21.0824664131733464 11.6760590528676680 Zr
    velocity 0.0962241643645580 -0.0138563921759981 -0.0843246501897690
atom 4.7558177618161297 21.0824664131733464 11.6760590528676680 Zr
    velocity 0.7200288900061931 -0.2104587932486526 0.0760240706939761
atom 9.9278177618161294 21.0824664131733464 11.6760590528676680 Zr
    velocity -0.2724327371377168 0.1444700015106588 0.0153511655711569
atom 15.0998177618161300 21.0824664131733464 11.6760590528676680 Zr
    velocity 0.3142123930964205 -0.0449198148132811 0.1633708410820429
atom 20.2718177618161306 21.0824664131733464 11.6760590528676680 Zr
    velocity 0.2063385686095801 0.0837150190081663 0.0037765409152306
atom -1.2520280962044839 0.2224664131733400 16.9593499498020570 Zr
    velocity 0.0851277582329484 0.0530457799843409 0.1313005349606574
atom 3.9199719037955161 0.2224664131733400 16.9593499498020570 Zr
    velocity 0.3763404964746914 0.3950165336698191 0.2586946630703639
atom 9.0919719037955158 0.2224664131733400 16.9593499498020570 Zr
    velocity -0.5929695475396436 0.2299622186386105 -0.0593535397736399
atom 14.2639719037955164 0.2224664131733400 16.9593499498020570 Zr
    velocity 0.2288913884640200 -0.1264088607043766 0.5789572713724228
atom 19.4359719037955223 0.2224664131733400 16.9593499498020570 Zr
    velocity -0.0646766936804187 -0.4275247911983812 0.5088284603316349
atom -1.2520280962044839 5.4374664131733397 16.9593499498020570 Zr
    velocity -0.0819555377666265 -0.5289549450506670 0.3372292943205641
atom 3.9199719037955161 5.4374664131733397 16.9593499498020570 Zr
    velocity 0.1115074336584738 -0.5418141567955505 0.3335377824972400
atom 9.0919719037955158 5.4374664131733397 16.9593499498020570 Zr
    velocity 0.0550092424749004 0.2734154359722659 -0.0018516160672641
atom 14.2639719037955164 5.4374664131733397 16.9593499498020570 Zr
    velocity -0.1195821925293926 0.0531823981247072 0.0038467635690693
atom 19.4359719037955223 5.4374664131733397 16.9593499498020570 Zr
    velocity 0.6502334361624919 -0.3068405926170865 -0.1942470225433280
atom -1.2520280962044839 10.6524664131733413 16.9593499498020570 Zr
    velocity -0.4139403102259745 -0.3087991688016131 0.1363114805252363
atom 3.9199719037955161 10.6524664131733413 16.9593499498020570 Zr
    velocity -0.4256460759087025 -0.1543541899219138 0.3434281076321039
atom 9.0919719037955158 10.6524664131733413 16.9593499498020570 Zr
    velocity -0.0649912616887447 0.0021941087273168 -0.0375587262523628
atom 14.2639719037955164 10.6524664131733413 16.9593499498020570 Zr
    velocity 0.0293482571799143 -0.3391384676615515 -0.0038611008813286
atom 19.4359719037955223 10.6524664131733413 16.9593499498020570 Zr
    velocity 0.1025847603037183 0.2397343087258301 -0.1344304513393852
atom -1.2520280962044839 15.8674664131733412 16.9593499498020570 Zr
    velocity -0.3145040959888808 0.5219642078083955 0.2461018427682634
atom 3.9199719037955161 15.8674664131733412 16.9593499498020570 Zr
    velocity -0.3953342510821757 0.5046141888922355 0.3737799734677898
atom 9.0919719037955158 15.8674664131733412 16.9593499498020570 Zr
    velocity -0.4418072983209465 0.0353435271165038 -0.3361001145737745
atom 14.2639719037955164 15.8674664131733412 16.9593499498020570 Zr
    velocity 0.1740644833194521 0.0064093681814042 0.2344240843980991
atom 19.4359719037955223 15.8674664131733412 16.9593499498020570 Zr
    velocity -0.3430711154970785 -0.1336369947192985 -0.1920659840333861
atom -1.2520280962044839 21.0824664131733464 16.9593499498020570 Zr
    velocity 0.1924912348264282 -0.5868671272600871 -0.2496959213021733
atom 3.9199719037955161 21.0824664131733464 16.9593499498020570 Zr
    velocity 0.3890046853235209 0.2879383403118825 0.0938354969378805
atom 9.0919719037955158 21.0824664131733464 16.9593499498020570 Zr
    velocity -0.1111971625894386 -0.2848249506006526 0.2461071677766605
atom 14.2639719037955164 21.0824664131733464 16.9593499498020570 Zr
    velocity 0.3456185580232040 -0.1872479349959280 0.1647685969080539
atom 19.4359719037955223 21.0824664131733464 16.9593499498020570 Zr
    velocity -0.0214950909014433 -0.1934059531701193 0.0385886773986116
atom -2.0878739542250981 0.2224664131733400 22.2426408467364460 Zr
    velocity -0.1444216734110789 0.0775603454169941 0.0949632798051107
atom 3.0841260457749047 0.2224664131733400 22.2426408467364460 Zr
    velocity 0.2756007949181247 0.1900757760490281 0.5481286255805533
atom 8.2561260457749022 0.2224664131733400 22.2426408467364460 Zr
    velocity 0.2207696256378882 0.1293550028725043 0.0056165345222575
atom 13.4281260457749028 0.2224664131733400 22.2426408467364460 Zr
    velocity 0.1335831731095420 0.5328780399180880 -0.2035842774237849
atom 18.6001260457749034 0.2224664131733400 22.2426408467364460 Zr
    velocity 0.3843602205107045 -0.2042609804614550 -0.1266018044233572
atom -2.0878739542250981 5.4374664131733397 22.2426408467364460 Zr
    velocity 0.0516880152436723 0.0014209055526932 -0.3276438662453073
atom 3.0841260457749047 5.4374664131733397 22.2426408467364460 Zr
    velocity 0.2858894946879457 -0.1390463550038987 0.4412587699116966
atom 8.2561260457749022 5.4374664131733397 22.2426408467364460 Zr
    velocity 0.3418060964845380 -0.1432562884270535 -0.1075526123251284
atom 13.4281260457749028 5.4374664131733397 22.2426408467364460 Zr
    velocity -0.1433894935026709 0.0452922394845324 0.0373110499159194
atom 18.6001260457749034 5.4374664131733397 22.2426408467364460 Zr
    velocity -0.1148338308494533 -0.2062508693695508 0.6265397028256452
atom -2.0878739542250981 10.6524664131733413 22.2426408467364460 Zr
    velocity -0.1672264931272694 -0.1317220548145524 0.0152187481619304
atom 3.0841260457749047 10.6524664131733413 22.2426408467364460 Zr
    velocity 0.2453649712617225 -0.3958649806474168 -0.1206069797571947
atom 8.2561260457749022 10.6524664131733413 22.2426408467364460 Zr
    velocity -0.1245561792579989 0.1891007038869014 0.2559197452439770
atom 13.4281260457749028 10.6524664131733413 22.2426408467364460 Zr
    velocity 0.4586683298949601 -0.5171318675097911 0.1631262550719017
atom 18.6001260457749034 10.6524664131733413 22.2426408467364460 Zr
    velocity -0.1310710975618859 -0.1683919951079898 -0.5955482248103787
atom -2.0878739542250981 15.8674664131733412 22.2426408467364460 Zr
    velocity 0.0029237380616436 0.0395113340508708 0.2270763113842844
atom 3.0841260457749047 15.8674664131733412 22.2426408467364460 Zr
    velocity -0.1780961797590745 -0.1373701897655613 -0.0707387867485137
atom 8.2561260457749022 15.8674664131733412 22.2426408467364460 Zr
    velocity -0.1382253817951232 -0.1647806348447053 -0.0527898270042984
atom 13.4281260457749028 15.8674664131733412 22.2426408467364460 Zr
    velocity -0.1620899397778186 -0.0257629999126977 0.4100928777316117
atom 18.6001260457749034 15.8674664131733412 22.2426408467364460 Zr
    velocity 0.1886122095778993 0.1764623146466753 -0.1918790111633051
atom -2.0878739542250981 21.0824664131733464 22.2426408467364460 Zr
    velocity -0.4602434538050663 0.2270758961662513 -0.4611536133602888
atom 3.0841260457749047 21.0824664131733464 22.2426408467364460 Zr
    velocity -0.3906808256368578 0.2610187036192468 -0.3325612503376857
atom 8.2561260457749022 21.0824664131733464 22.2426408467364460 Zr
    velocity 0.5594885543214448 -0.0574865443276066 -0.1999391739431030
atom 13.4281260457749028 21.0824664131733464 22.2426408467364460 Zr
    velocity 0.0003614827138517 -0.0021828420254428 -0.3002982113003062
atom 18.6001260457749034 21.0824664131733464 22.2426408467364460 Zr
    velocity 0.1331419194007646 -0.6524848594784632 -0.0045849573299162
atom 3.0806443576161859 4.9925335868266600 4.1738137119015768 Zr
    velocity 0.3043246055830429 -0.3698413266582432 0.2449043628055592
atom 8.2526443576161874 4.9925335868266600 4.1738137119015768 Zr
    velocity 0.1036098262511111 -0.4524734062670003 -0.2437414893241530
atom 13.4246443576161862 4.9925335868266600 4.1738137119015768 Zr
    velocity 0.7583850733342578 0.4057586761179678 0.4785547946861572
atom 18.5966443576161851 4.9925335868266600 4.1738137119015768 Zr
    velocity -0.4615095342891377 0.1875328414158394 -0.1212499263627715
atom 23.7686443576161857 4.9925335868266600 4.1738137119015768 Zr
    velocity -0.0673486874719789 0.5975296321859148 0.2360295612916511
atom 3.0806443576161859 10.2075335868266599 4.1738137119015768 Zr
    velocity -0.0438329198491493 -0.0508302213886983 -0.0724830455332073
atom 8.2526443576161874 10.2075335868266599 4.1738137119015768 Zr
    velocity 0.2424632755601468 -0.1126833237797441 0.4729489056750707
atom 13.4246443576161862 10.2075335868266599 4.1738137119015768 Zr
    velocity 0.2609273218818140 0.4162870107861443 -0.0082368684148777
atom 18.5966443576161851 10.2075335868266599 4.1738137119015768 Zr
    velocity -0.1806210767262354 -0.0466346807362232 0.0215359075768604
atom 23.7686443576161857 10.2075335868266599 4.1738137119015768 Zr
    velocity -0.1575143328268774 0.0359912592316931 0.0840110038698776
atom 3.0806443576161859 15.4225335868266598 4.1738137119015768 Zr
    velocity -0.1998681097835482 0.0850827421109040 0.5798995416886656
atom 8.2526443576161874 15.4225335868266598 4.1738137119015768 Zr
    velocity -0.3221778762398387 -0.4070680975379113 -0.1810831457058269
atom 13.4246443576161862 15.4225335868266598 4.1738137119015768 Zr
    velocity 0.4057966157682631 -0.1413689706341589 -0.1975202411058014
atom 18.5966443576161851 15.4225335868266598 4.1738137119015768 Zr
    velocity 0.1165871964352227 -0.2382012386338906 0.4733816194900057
atom 23.7686443576161857 15.4225335868266598 4.1738137119015768 Zr
    velocity 0.2963828565189525 0.3267750079965588 -0.4023973851910406
atom 3.0806443576161859 20.6375335868266632 4.1738137119015768 Zr
    velocity 0.1300264361369092 -0.4629440274822216 0.0489957673327964
atom 8.2526443576161874 20.6375335868266632 4.1738137119015768 Zr
    velocity 0.1905769047552131 0.1797111456253043 -0.2744941693931146
atom 13.4246443576161862 20.6375335868266632 4.1738137119015768 Zr
    velocity 0.0575685432669636 0.1774279553762158 -0.5491603107786537
atom 18.5966443576161851 20.6375335868266632 4.1738137119015768 Zr
    velocity 0.1484131067812919 0.5934363478396745 0.0583419904030158
atom 23.7686443576161857 20.6375335868266632 4.1738137119015768 Zr
    velocity 0.1322082524663763 0.2963237424122338 -0.0417051076067553
atom 3.0806443576161859 25.8525335868266595 4.1738137119015768 Zr
    velocity 0.1883110226113267 -0.2462668329092795 0.3510198447324707
atom 8.2526443576161874 25.8525335868266595 4.1738137119015768 Zr
    velocity -0.2555450807142746 0.0439482264078094 0.2807205521761063
atom 13.4246443576161862 25.8525335868266595 4.1738137119015768 Zr
    velocity -0.5267666945825934 0.0168946436420647 -0.0030354554591779
atom 18.5966443576161851 25.8525335868266595 4.1738137119015768 Zr
    velocity 0.3086764563100721 0.0656258340570268 -0.6191339230965411
atom 23.7686443576161857 25.8525335868266595 4.1738137119015768 Zr
    velocity -0.2871660817137083 -0.1464115513622526 0.4575017786167992
atom 2.2447984995955714 4.9925335868266600 9.4571046088359694 Zr
    velocity -0.7207369718245281 0.2908690870694087 -0.0470040291520018
atom 7.4167984995955720 4.9925335868266600 9.4571046088359694 Zr
    velocity 0.1042745839075727 0.6542521728391381 -0.1596906247799462
atom 12.5887984995955708 4.9925335868266600 9.4571046088359694 Zr
    velocity -0.7761867638472361 -0.1982937136945563 -0.4184732666020350
atom 17.7607984995955732 4.9925335868266600 9.4571046088359694 Zr
    velocity 0.1164394882341904 0.1104705940471352 -0.1689107590692785
atom 22.9327984995955738 4.9925335868266600 9.4571046088359694 Zr
    velocity 0.1119063204126773 0.5233335310102377 0.2336298593373036
atom 2.2447984995955714 10.2075335868266599 9.4571046088359694 Zr
    velocity 0.2971309483521494 0.1088091589693959 0.0347586807075142
atom 7.4167984995955720 10.2075335868266599 9.4571046088359694 Zr
    velocity -0.0859290722361365 -0.3200745982303509 0.0899706037660795
atom 12.5887984995955708 10.2075335868266599 9.4571046088359694 Zr
    velocity 0.1789044224644330 -0.1653915695803706 0.0147478939214708
atom 17.7607984995955732 10.2075335868266599 9.4571046088359694 Zr
    velocity -0.4247996234940021 -0.3511983364471915 0.3153274769002802
atom 22.9327984995955738 10.2075335868266599 9.4571046088359694 Zr
    velocity -0.3603432806000021 -0.0127023187599468 0.2251874549708751
atom 2.2447984995955714 15.4225335868266598 9.4571046088359694 Zr
    velocity -0.1468065579294159 0.0640182583830407 -0.0066163978984732
atom 7.4167984995955720 15.4225335868266598 9.4571046088359694 Zr
    velocity 0.2799176526992496 0.1103508560737294 -0.1396558456475857
atom 12.5887984995955708 15.4225335868266598 9.4571046088359694 Zr
    velocity 0.0278215099352255 0.0509116538928829 -0.2875932483326540
atom 17.7607984995955732 15.4225335868266598 9.4571046088359694 Zr
    velocity 0.2726951772619448 0.4256940707889859 -0.5852008452863865
atom 22.9327984995955738 15.4225335868266598 9.4571046088359694 Zr
    velocity 0.0860839753262559 -0.3658756127995728 -0.0583461252821901
atom 2.2447984995955714 20.6375335868266632 9.4571046088359694 Zr
    velocity -0.0962998528617140 0.3743626763548356 -0.0824023429371767
atom 7.4167984995955720 20.6375335868266632 9.4571046088359694 Zr
    velocity 0.1472976461169732 0.1030417002583316 0.1898602272588396
atom 12.5887984995955708 20.6375335868266632 9.4571046088359694 Zr
    velocity -0.2233607638545191 0.0929769729491313 -0.3568682050100268
atom 17.7607984995955732 20.6375335868266632 9.4571046088359694 Zr
    velocity 0.1880670457553520 -0.5383145126595211 0.4167605600866800
atom 22.9327984995955738 20.6375335868266632 9.4571046088359694 Zr
    velocity -0.6553479002825879 -0.5018882318737777 0.3284279944571665
atom 2.2447984995955714 25.8525335868266595 9.4571046088359694 Zr
    velocity 0.3318473456193716 -0.4890492402308451 -0.2970044497807607
atom 7.4167984995955720 25.8525335868266595 9.4571046088359694 Zr
    velocity -0.3186291406700178 -0.4389883325063328 -0.0589737468723800
atom 12.5887984995955708 25.8525335868266595 9.4571046088359694 Zr
    velocity -0.1442576925215200 0.3604717790185283 0.3282010532339322
atom 17.7607984995955732 25.8525335868266595 9.4571046088359694 Zr
    velocity -0.2200165957173757 -0.1402846682891936 -0.2086990312096018
atom 22.9327984995955738 25.8525335868266595 9.4571046088359694 Zr
    velocity 0.4392823795395557 0.0650186762221014 -0.1310308041998309
atom 1.4089526415749580 4.9925335868266600 14.7403955057703566 Zr
    velocity 0.0120692568823130 -0.0021654723418292 -0.0294101021386412
atom 6.5809526415749584 4.9925335868266600 14.7403955057703566 Zr
    velocity 0.0991733708833948 0.1084426352009292 -0.1208961744402928
atom 11.7529526415749572 4.9925335868266600 14.7403955057703566 Zr
    velocity -0.2794799662658258 -0.2170216402795886 -0.4192158796147080
atom 16.9249526415749578 4.9925335868266600 14.7403955057703566 Zr
    velocity -0.0631071136966896 0.4048510716237920 0.3342540777798855
atom 22.0969526415749584 4.9925335868266600 14.7403955057703566 Zr
    velocity -0.1545408290095807 0.0796370711219433 0.1199961583137316
atom 1.4089526415749580 10.2075335868266599 14.7403955057703566 Zr
    velocity 0.0303976131322803 0.3504588847379922 0.4746281378631589
atom 6.5809526415749584 10.2075335868266599 14.7403955057703566 Zr
    velocity 0.1702074855703995 -0.1747379813929619 0.1916097827039975
atom 11.7529526415749572 10.2075335868266599 14.7403955057703566 Zr
    velocity -0.1296050631665749 -0.4453032680646016 -0.0105039806808114
atom 16.9249526415749578 10.2075335868266599 14.7403955057703566 Zr
    velocity -0.0431760801086208 0.4372068481114739 -0.0777408564636280
atom 22.0969526415749584 10.2075335868266599 14.7403955057703566 Zr
    velocity 0.2842356818160560 -0.3361742575501192 -0.1250878809108869
atom 1.4089526415749580 15.4225335868266598 14.7403955057703566 Zr
    velocity -0.6434266955455220 -0.0512866597115105 0.2311787430356061
atom 6.5809526415749584 15.4225335868266598 14.7403955057703566 Zr
    velocity -0.1669696574385798 -0.1946821594479322 -0.1730159390237920
atom 11.7529526415749572 15.4225335868266598 14.7403955057703566 Zr
    velocity -0.1073421735978633 -0.0843504952055217 0.2238099702923703
atom 16.9249526415749578 15.4225335868266598 14.7403955057703566 Zr
    velocity -0.2620106022072432 0.2877566229738987 0.1513290157308289
atom 22.0969526415749584 15.4225335868266598 14.7403955057703566 Zr
    velocity 0.0926737152424212 -0.2084489048571746 0.0330600817423121
atom 1.4089526415749580 20.6375335868266632 14.7403955057703566 Zr
    velocity 0.3404949429359808 0.2981680384234829 0.2640585189210546
atom 6.5809526415749584 20.6375335868266632 14.7403955057703566 Zr
    velocity -0.1825265262265169 0.0798125703792978 -0.5086063252971540
atom 11.7529526415749572 20.6375335868266632 14.7403955057703566 Zr
    velocity 0.2280331187527647 -0.0089958763034900 0.1284816203361617
atom 16.9249526415749578 20.6375335868266632 14.7403955057703566 Zr
    velocity 0.1066048447591300 -0.3244328591490845 0.4385836355159582
atom 22.0969526415749584 20.6375335868266632 14.7403955057703566 Zr
    velocity -0.0069433068138859 0.4252579766623340 -0.2262008369658447
atom 1.4089526415749580 25.8525335868266595 14.7403955057703566 Zr
    velocity -0.6231843014388844 -0.2171443401290105 -0.2653108224981689
atom 6.5809526415749584 25.8525335868266595 14.7403955057703566 Zr
    velocity 0.3194274577309630 -0.3607113482275007 0.0525883423310344
atom 11.7529526415749572 25.8525335868266595 14.7403955057703566 Zr
    velocity -0.0159576697974911 0.0557128305865850 0.1094544389200185
atom 16.9249526415749578 25.8525335868266595 14.7403955057703566 Zr
    velocity -0.2559950148826529 -0.3159454936656518 0.3200741486387487
atom 22.0969526415749584 25.8525335868266595 14.7403955057703566 Zr
    velocity -0.3034194973557627 -0.6774456085735850 0.3236058826086612
atom 0.5731067835543437 4.9925335868266600 20.0236864027047474 Zr
    velocity 0.1237756053892762 0.1709444172605590 0.4218035603711432
atom 5.7451067835543439 4.9925335868266600 20.0236864027047474 Zr
    velocity -0.2639823934727266 0.6880528581885240 -0.0454093138315186
atom 10.9171067835543436 4.9925335868266600 20.0236864027047474 Zr
    velocity 0.3633378246121390 -0.6349277827133354 -0.1475235418515140
atom 16.0891067835543424 4.9925335868266600 20.0236864027047474 Zr
    velocity 0.0987728445559532 -0.6290290379072312 0.5572525811196214
atom 21.2611067835543430 4.9925335868266600 20.0236864027047474 Zr
    velocity -0.2111030921273278 0.5328542126179840 0.1421619253418079
atom 0.5731067835543437 10.2075335868266599 20.0236864027047474 Zr
    velocity -0.2429700320025182 -0.1820129314427926 -0.3376424981545546
atom 5.7451067835543439 10.2075335868266599 20.0236864027047474 Zr
    velocity -0.1431691764161413 0.2115945570794471 0.4360820625931185
atom 10.9171067835543436 10.2075335868266599 20.0236864027047474 Zr
    velocity -0.2244461369760919 -0.3510151769320693 0.0531883178168609
atom 16.0891067835543424 10.2075335868266599 20.0236864027047474 Zr
    velocity -0.0391655650386622 0.0040678894414200 -0.0653652889297404
atom 21.2611067835543430 10.2075335868266599 20.0236864027047474 Zr
    velocity 0.0573340637658305 -0.6208374169617809 0.0074770979320760
atom 0.5731067835543437 15.4225335868266598 20.0236864027047474 Zr
    velocity -0.0742420482708302 -0.1958872236709596 0.4758757400446285
atom 5.7451067835543439 15.4225335868266598 20.0236864027047474 Zr