#=======================================================
# FHI-aims file: /raven/u/mlang/gknet-aims/new_verdi_monoclinic/relaxation/k24_rho1e-7_light/relaxation/geometry.in.next_step
# Created using the Atomic Simulation Environment (ASE)
# Sat Jan 14 15:32:46 2023

# Additional information:
#  Relaxed with BFGS, fmax=1.000 meV/AA
#  nsteps = 16
#  residual force  = 0.549131 meV/AA
#  residual stress = 0.503487 meV/AA
#=======================================================
lattice_vector 5.1375782750220003 -0.0000000000000000 0.0094871302670000 
lattice_vector -0.0000000000000000 5.2204747900040003 -0.0000000000000000 
lattice_vector -0.8753185603630000 -0.0000000000000000 5.2274522242119996 
atom_frac 0.2767864195079999 0.0425123378450000 0.2099644355100000 Zr
atom_frac 0.7232135234920000 0.9574876621550001 0.7900355784900001 Zr
atom_frac 0.7232135234919999 0.5425123378450000 0.2900355784900001 Zr
atom_frac 0.2767864195079999 0.4574876621549999 0.7099644355100001 Zr
atom_frac 0.0706860807010000 0.3369269966660000 0.3416204564120000 O
atom_frac 0.9293138622990000 0.6630730033350000 0.6583795575880002 O
atom_frac 0.9293138622990000 0.8369269966660000 0.1583795575880000 O
atom_frac 0.0706860807010000 0.1630730033350000 0.8416204564120000 O
atom_frac 0.4495499739679999 0.7576176504180000 0.4798962369560001 O
atom_frac 0.5504499690320001 0.2423823495820000 0.5201037770440001 O
atom_frac 0.5504499690320001 0.2576176504180000 0.0201037770440000 O
atom_frac 0.4495499739679999 0.7423823495820000 0.9798962369560001 O
