#=======================================================
# FHI-aims file: geometry.in.supercell.0010K
# Created using the Atomic Simulation Environment (ASE)
# Mon Dec 28 22:31:26 2020

# Additional information:
#  created from MB distrubtion
#  T = 10.0 K
#  quantum:             False
#  deterministic:       False
#  plus_minus:          False
#  gauge_eigenvectors:  False
#  Random seed:         1564454515
#  Sample number:       1
#=======================================================
lattice_vector 10.1952194790879993 0.0000002312840000 0.0000001149100000 
lattice_vector 0.0000002312840000 10.1952585700719993 -0.0000000817060000 
lattice_vector 0.0000001174240000 -0.0000000834940000 10.4472499926080005 
atom 10.1952195705575175 0.0000001715475008 10.4472500947462343 Zr
    velocity 0.1850042011936139 -0.0987478849649151 0.2550037688031855
atom 2.5488050190625202 2.5488146406025010 10.4472499881372372 Zr
    velocity 0.7098254373135665 -0.3812379805638864 -0.2696184639853865
atom 5.0976099466555187 5.0976293409415012 10.4472499964382344 Zr
    velocity 0.2462978802378509 0.2376363489445085 -0.1448164769849442
atom 7.6464148742485190 7.6464440412804997 10.4472500047392334 Zr
    velocity -0.0870785409541143 0.1944768100624906 -0.0452654449616704
atom 7.6464147586065190 2.5488147562445009 10.4472500455922344 Zr
    velocity -0.2434369763380459 -0.1903848608934664 0.2134194002091344
atom 10.1952196861995183 5.0976294565835012 10.4472500538932334 Zr
    velocity 0.0976154835100546 0.0758197697397625 0.5034018852224722
atom 2.5488051347045202 7.6464439256384997 10.4472499472842326 Zr
    velocity -0.0575048639214723 -0.5357946963370999 0.1130345220681230
atom 5.0976098310135187 0.0000000559055008 10.4472500372912371 Zr
    velocity -0.5366457864569829 0.4934875999681691 -0.0249078503154161
atom 10.1952195118455187 0.0000002132945008 5.2236250984422359 Zr
    velocity -0.2500232399581271 -0.0973665740113462 0.4009281328324201
atom 2.5488049603505201 2.5488146823495006 5.2236249918332351 Zr
    velocity -0.5133922015756491 -0.0063553607682612 0.3145889907237733
atom 5.0976098879435190 5.0976293826885017 5.2236250001342359 Zr
    velocity 0.5345310904216020 0.6333170714663703 0.0277810248385781
atom 7.6464148155365192 7.6464440830275002 5.2236250084352358 Zr
    velocity 0.5181835107048312 0.0894809230076973 -0.2375583813012836
atom 7.6464146998945193 2.5488147979915006 5.2236250492882359 Zr
    velocity -0.1911710647913498 0.0967364550823121 -0.2724854810574036
atom 10.1952196274875195 5.0976294983305017 5.2236250575892358 Zr
    velocity 0.4904692126740018 0.1123664186196667 0.3945328947307514
atom 2.5488050759925200 7.6464439673855003 5.2236249509802359 Zr
    velocity -0.7736111656617850 -0.0338379546618406 -0.4420068335224780
atom 5.0976097723015190 0.0000000976525008 5.2236250409872360 Zr
    velocity -0.3187447389992246 0.1958953914998108 -0.3636033329043347
atom 0.0000001020416280 2.5488145286739359 2.6118124866735699 Zr
    velocity -0.0884907513220456 -0.2660729475833690 -0.2906075004101619
atom 2.5488050296346279 5.0976292290129361 2.6118124949745689 Zr
    velocity -0.0989764612186378 0.2185781602822624 0.4680030326154723
atom 5.0976099572276272 7.6464439293519364 2.6118125032755688 Zr
    velocity 0.0455403705596816 0.1089560793016153 -0.3936080110400693
atom 7.6464148848206275 10.1952586296909367 2.6118125115765700 Zr
    velocity -0.0166722178446115 0.2922828743084427 -0.1146501770841565
atom 7.6464147691786275 5.0976293446549361 2.6118125524295688 Zr
    velocity 0.1121840524512511 -0.0020220701353497 -0.4322617555370848
atom 0.0000002176836280 7.6464438137099364 2.6118124458205698 Zr
    velocity -0.1910530535751175 -0.2241526337439678 0.3454724647445266
atom 2.5488051452766278 10.1952585140489358 2.6118124541215688 Zr
    velocity 0.1231062160744327 0.1664208754472421 0.0922918099007308
atom 5.0976098415856272 2.5488146443159372 2.6118125441285689 Zr
    velocity 0.3033495591341667 -0.0564028581964039 0.0605423675034268
atom 0.0000001607536280 2.5488144869269376 7.8354374829775697 Zr
    velocity -0.2005806049971472 -0.4974896183422867 0.2194673121609661
atom 2.5488050883466276 5.0976291872659365 7.8354374912785696 Zr
    velocity -0.2908491537142213 -0.3872289566588178 -0.0996170060476995
atom 5.0976100159396269 7.6464438876049368 7.8354374995795686 Zr
    velocity 0.1204566215848813 -0.4345544352928911 -0.2148537872453170
atom 7.6464149435326272 10.1952585879439361 7.8354375078805685 Zr
    velocity 0.2010284263706835 0.5029037798529510 -0.3396764399134679
atom 7.6464148278906272 5.0976293029079365 7.8354375487335686 Zr
    velocity 0.0900040545397252 0.2664929221666196 -0.3717091032138499
atom 0.0000002763956280 7.6464437719629368 7.8354374421245696 Zr
    velocity -0.2523719882065087 -0.2533339303747575 -0.1300502015029435
atom 2.5488052039886275 10.1952584723019353 7.8354374504255695 Zr
    velocity -0.0626898365930312 -0.5483347722874676 0.5812490480668544
atom 5.0976099002976270 2.5488146025689384 7.8354375404325696 Zr
    velocity 0.1814293652496768 0.2596180521939230 -0.1293268904848809
atom 1.2744024515736083 1.2744073718773856 1.0024190245136309 O
    velocity 0.0084729755489443 0.6220627636109609 0.0103841451391518
atom 3.8232073791666079 3.8232220722163857 1.0024190328146307 O
    velocity 0.4517320548569618 0.8807637714805703 0.0654914172120964
atom 6.3720123067596077 6.3720367725553846 1.0024190411156308 O
    velocity -0.7322771115335038 0.2086105536996153 -0.1964009715348758
atom 8.9208172343526080 8.9208514728943840 1.0024190494166307 O
    velocity -2.0933288793890794 0.6053462544408585 -0.7505780235655499
atom 8.9208171187106071 3.8232221878583856 1.0024190902696308 O
    velocity -0.5778533836438373 -0.5403228997889470 0.1850935808443005
atom 1.2744025672156083 6.3720366569133855 1.0024189836606308 O
    velocity -0.1163226029952065 0.0456192071122177 0.5885291592538232
atom 3.8232074948086079 8.9208513572523866 1.0024189919616309 O
    velocity -0.0697826872095296 0.1907906267560680 0.0889806137603361
atom 6.3720121911176069 1.2744074875193858 1.0024190819686307 O
    velocity 1.8031518611880604 -1.8127320337873167 -0.2504128340011813
atom 1.2744025102856082 1.2744073301303855 6.2260440208176311 O
    velocity 0.3693906539838145 -0.5444221200639285 0.4472149606743860
atom 3.8232074378786081 3.8232220304693865 6.2260440291186310 O
    velocity 0.0336746528099706 -0.5324158461100960 0.2845487962457383
atom 6.3720123654716074 6.3720367308083841 6.2260440374196282 O
    velocity 0.6087779601779808 0.1827300503232426 0.1872092642610618
atom 8.9208172930646086 8.9208514311473852 6.2260440457206290 O
    velocity -0.1138996958040646 -0.0311537982230120 0.2189709535887679
atom 8.9208171774226077 3.8232221461113864 6.2260440865736282 O
    velocity 0.2046782838006570 1.1342787528426561 -0.2527925974976492
atom 1.2744026259276082 6.3720366151663841 6.2260439799646310 O
    velocity -1.6705711838265678 -0.8404462066016175 0.6363193274031579
atom 3.8232075535206080 8.9208513155053879 6.2260439882656282 O
    velocity -0.3026606056883484 0.7449866016636827 0.2156032015607065
atom 6.3720122498296066 1.2744074457723857 6.2260440782726310 O
    velocity 0.8582301443312961 0.1582462709865979 0.4462052003584293
atom 1.2744025328003397 1.2744073262829310 3.6142318818368619 O
    velocity 0.1259840220709329 -0.4560979304085718 0.6557502257895166
atom 3.8232074603933399 3.8232220266219321 3.6142318901378605 O
    velocity 0.0526163992167974 -0.6182555073959036 -0.8642884292707035
atom 6.3720123879863388 6.3720367269609302 3.6142318984388608 O
    velocity 0.5918735847418912 -0.0450452236636415 -0.7968005784107195
atom 8.9208173155793382 8.9208514272999295 3.6142319067398607 O
    velocity -0.3490068809664426 0.5673330996523510 -0.2022072895850714
atom 8.9208171999373391 3.8232221422639321 3.6142319475928608 O
    velocity 0.1146376938971239 0.3023196988998305 -0.5194062385033804
atom 1.2744026484423396 6.3720366113189302 3.6142318409838605 O
    velocity 0.0183365693455330 1.2725775680884350 -0.5928968661690996
atom 3.8232075760353399 8.9208513116579340 3.6142318492848604 O
    velocity 0.2079771784696632 1.0063702987297327 -1.0339490343588515
atom 6.3720122723443389 1.2744074419249318 3.6142319392918605 O
    velocity -0.3414299550406595 -1.2773913615043053 1.0288927170320117
atom 1.2744025915123398 1.2744072845359309 8.8378568781408617 O
    velocity -0.1233610045765135 0.1561545027869297 -0.2208319631837738
atom 3.8232075191053396 3.8232219848749307 8.8378568864418625 O
    velocity -0.2028004948322348 0.5662388913862293 -1.2297713136936366
atom 6.3720124466983394 6.3720366852139296 8.8378568947428615 O
    velocity 0.1544990207561611 0.0187089332301676 0.3863740390324886
atom 8.9208173742913388 8.9208513855529290 8.8378569030438587 O
    velocity 1.0333198558109074 -0.7930744084072068 -0.0265849439754797
atom 8.9208172586493397 3.8232221005169307 8.8378569438968615 O
    velocity 1.6081750480225421 0.4090799925556310 0.2569972328587907
atom 1.2744027071543398 6.3720365695719297 8.8378568372878625 O
    velocity -0.8846587384182397 0.6633137237250879 0.4178236679096274
atom 3.8232076347473396 8.9208512699109299 8.8378568455888615 O
    velocity 0.1698785091472629 -0.0377383136634003 -0.4888667074824724
atom 6.3720123310563395 1.2744074001779317 8.8378569355958625 O
    velocity 0.2738267634965890 0.1028446281682231 -0.4491866612880367
atom 8.9208170733548702 1.2744075145374438 1.6093931900202196 O
    velocity 0.1875612588641501 0.3684897140662149 0.9115486647525458
atom 1.2744025218598707 3.8232219835924428 1.6093930834112196 O
    velocity -1.5262294207938414 -0.1823985412204710 0.7121456386807123
atom 3.8232074494528705 6.3720366839314426 1.6093930917122194 O
    velocity -1.7358619550657939 -0.9899784152102141 -0.2735545679194344
atom 6.3720123770458708 8.9208513842704420 1.6093931000132196 O
    velocity -1.0116956773858647 -0.1348615597737480 -1.1984322055023127
atom 6.3720122614038708 3.8232220992344428 1.6093931408662194 O
    velocity -0.1516063156379241 0.2108271156760256 0.0114024037139706
atom 8.9208171889968693 6.3720367995734426 1.6093931491672195 O
    velocity 1.2171627102307141 -0.5986039587720725 1.0166127615003342
atom 1.2744026375018709 8.9208512686284411 1.6093930425582195 O
    velocity -0.6990274906517677 -1.6719290021357978 0.8728460360640676
atom 3.8232073338108705 1.2744073988954427 1.6093931325652195 O
    velocity -0.7562556922802548 0.1733024677592380 1.1065672613423454
atom 8.9208171320668708 1.2744074727904438 6.8330181863242210 O
    velocity -1.1234138162931269 0.7621369539307878 1.0717366308159040
atom 1.2744025805718706 3.8232219418454427 6.8330180797152194 O
    velocity -0.0543530992081163 -0.7707773893565766 -0.3910951028425129
atom 3.8232075081648702 6.3720366421844430 6.8330180880162210 O
    velocity -1.2118224353552018 -0.1082143432577477 -1.3879516948069304
atom 6.3720124357578705 8.9208513425234468 6.8330180963172182 O
    velocity -0.0574219798122392 -0.2615419989876495 -0.6513113989913678
atom 6.3720123201158705 3.8232220574874427 6.8330181371702210 O
    velocity 0.9697878585510757 -0.2653207048424956 0.1690722505754753
atom 8.9208172477088699 6.3720367578264430 6.8330181454712182 O
    velocity 1.2942775945958134 0.7809184704343977 -0.1484708507178231
atom 1.2744026962138708 8.9208512268814424 6.8330180388622210 O
    velocity 0.0340644271840628 -0.2531984129114733 1.1327443971773863
atom 3.8232073925228702 1.2744073571484427 6.8330181288692193 O
    velocity -0.2281719871125419 -0.2415133352069945 0.6705959646362532
atom 8.9208171446055804 1.2744075206278507 4.2212060890279774 O
    velocity 0.1041764031037760 0.2663457574470904 -1.1498363311487259
atom 1.2744025931105816 3.8232219896828505 4.2212059824189776 O
    velocity -0.6073063925424996 -1.1486194207526725 -1.0938655129517976
atom 3.8232075207035812 6.3720366900218535 4.2212059907199775 O
    velocity 0.1144697618062410 -0.2086811544455329 -0.6149367052744229
atom 6.3720124482965810 8.9208513903608520 4.2212059990209783 O
    velocity 0.4720199557235520 0.3026175564006190 1.4456797118110514
atom 6.3720123326545810 3.8232221053248505 4.2212060398739775 O
    velocity -0.1456963488895830 0.4301721922758620 -0.1886904321552990
atom 8.9208172602475813 6.3720368056638534 4.2212060481749782 O
    velocity 1.8339642449017013 0.1213858154311048 0.2435959584402869
atom 1.2744027087525815 8.9208512747188546 4.2212059415659775 O
    velocity -1.1798996507118080 1.3349958343395825 0.3291814201088569
atom 3.8232074050615812 1.2744074049858529 4.2212060315729776 O
    velocity 1.2080622430181844 1.0243604067801169 0.4016120737406709
atom 8.9208172033175792 1.2744074788808506 9.4448310853319768 O
    velocity 0.7558139154887028 0.6437780114116382 -0.3131388246121028
atom 1.2744026518225815 3.8232219479358522 9.4448309787229743 O
    velocity -0.1621399858756085 -0.2551543840662445 -0.2497900142639436
atom 3.8232075794155813 6.3720366482748512 9.4448309870239768 O
    velocity -0.0255863227153369 -0.4386042087291280 0.3349647235411017
atom 6.3720125070085816 8.9208513486138514 9.4448309953249758 O
    velocity 0.2355584303260340 -0.8205427950831240 1.1418247519917146
atom 6.3720123913665816 3.8232220635778522 9.4448310361779768 O
    velocity 0.7449840967202964 0.0735898197908185 0.1968056689970432
atom 8.9208173189595801 6.3720367639168511 9.4448310444789758 O
    velocity 0.6630581498446818 -0.6640139616694968 0.0190540189781503
atom 1.2744027674645815 8.9208512329718488 9.4448309378699769 O
    velocity 0.3835104578333934 -0.0748041633377845 -0.5909559357731788
atom 3.8232074637735813 1.2744073632388528 9.4448310278769743 O
    velocity 0.5684576480894342 0.6791185169598737 0.0825990014011046
