#=======================================================
# FHI-aims file: 300_new_geometry.in.primitive.supercell_2592.0010K
# Created using the Atomic Simulation Environment (ASE)
# Mon Nov 21 17:58:20 2022

# Additional information:
#  created from MB distrubtion
#  T = 10.0 K
#  quantum:             False
#  deterministic:       False
#  plus_minus:          False
#  gauge_eigenvectors:  False
#  Random seed:         1301848871
#  Sample number:       1
#=======================================================
lattice_vector 30.8820000000000014 0.0000000000000000 0.0000000000000000 
lattice_vector 0.0000000000000000 31.2539999999999978 0.0000000000000000 
lattice_vector -5.1496673632797005 0.0000000000000000 31.4471442590193213 
atom 1.2438815868856585 0.2222104594860840 1.1006363299083168 Zr
    velocity -0.0037690406000545 -0.0051686415180556 -0.1273242694769589
atom 6.3908815868856603 0.2222104594860840 1.1006363299083168 Zr
    velocity 0.7015590804023054 -0.0191827059666520 -0.2128543547292928
atom 11.5378815868856588 0.2222104594860840 1.1006363299083168 Zr
    velocity 0.0463355421174746 0.0733306616793135 -0.1709658766014969
atom 16.6848815868856590 0.2222104594860840 1.1006363299083168 Zr
    velocity 0.0931156249081332 -0.2768566783614676 -0.3525437745085928
atom 21.8318815868856575 0.2222104594860840 1.1006363299083168 Zr
    velocity 0.3423950649184101 0.3132917478817222 0.0050869276895977
atom 26.9788815868856595 0.2222104594860840 1.1006363299083168 Zr
    velocity -0.1478999650480281 -0.0860498361046169 -0.1119770482611863
atom 1.2438815868856585 5.4312104594860813 1.1006363299083168 Zr
    velocity -0.4278083510354910 -0.1158629486631276 0.0326342741556144
atom 6.3908815868856603 5.4312104594860813 1.1006363299083168 Zr
    velocity 0.1074039035465242 0.6098477382596106 -0.3004304141867788
atom 11.5378815868856588 5.4312104594860813 1.1006363299083168 Zr
    velocity -0.1732795166751876 0.5196510800043026 0.0569194586228869
atom 16.6848815868856590 5.4312104594860813 1.1006363299083168 Zr
    velocity 0.4736106199368098 -0.3341298731698072 0.7357478320241709
atom 21.8318815868856575 5.4312104594860813 1.1006363299083168 Zr
    velocity 0.0178324221078039 -0.2885008847986897 0.1906585119810600
atom 26.9788815868856595 5.4312104594860813 1.1006363299083168 Zr
    velocity -0.0371835926303256 0.2760563356366331 0.2025588058111447
atom 1.2438815868856585 10.6402104594860809 1.1006363299083168 Zr
    velocity -0.3043244031959952 -0.1342137659744430 0.1226722025703505
atom 6.3908815868856603 10.6402104594860809 1.1006363299083168 Zr
    velocity -0.1488389030862906 0.0326934259393257 0.0715737486812644
atom 11.5378815868856588 10.6402104594860809 1.1006363299083168 Zr
    velocity -0.0061514247538814 0.2032189537702839 0.1901023880520985
atom 16.6848815868856590 10.6402104594860809 1.1006363299083168 Zr
    velocity 0.4007251290236207 -0.7254860248875004 0.0187445008170030
atom 21.8318815868856575 10.6402104594860809 1.1006363299083168 Zr
    velocity 0.1783565372566399 0.1022918086905169 0.2005542607982552
atom 26.9788815868856595 10.6402104594860809 1.1006363299083168 Zr
    velocity 0.3310019511571859 -0.0663316389058255 -0.0304628703015859
atom 1.2438815868856585 15.8492104594860823 1.1006363299083168 Zr
    velocity -0.3777637541261761 -0.0027225673516891 0.5241319892367785
atom 6.3908815868856603 15.8492104594860823 1.1006363299083168 Zr
    velocity -0.2685203395620343 0.0209355397522498 0.3179291964036942
atom 11.5378815868856588 15.8492104594860823 1.1006363299083168 Zr
    velocity 0.3185436694850712 -0.0079488436062145 0.0464356585013920
atom 16.6848815868856590 15.8492104594860823 1.1006363299083168 Zr
    velocity -0.2944569451643735 -0.0635413894118912 0.2205672287931950
atom 21.8318815868856575 15.8492104594860823 1.1006363299083168 Zr
    velocity -0.3529818391485660 -0.5703705906148880 0.4372166148203864
atom 26.9788815868856595 15.8492104594860823 1.1006363299083168 Zr
    velocity 0.0770436725919840 0.0297365817240686 -0.2072113503862892
atom 1.2438815868856585 21.0582104594860837 1.1006363299083168 Zr
    velocity -0.5654691308265649 0.1693177273408298 0.1162111741729198
atom 6.3908815868856603 21.0582104594860837 1.1006363299083168 Zr
    velocity 0.2849279990617044 0.4887571950236961 0.1374198840551491
atom 11.5378815868856588 21.0582104594860837 1.1006363299083168 Zr
    velocity 0.3411649013464665 -0.2534948193186397 -0.2811223753249509
atom 16.6848815868856590 21.0582104594860837 1.1006363299083168 Zr
    velocity 0.1451431851643658 0.4632725257539329 0.1321517338583406
atom 21.8318815868856575 21.0582104594860837 1.1006363299083168 Zr
    velocity 0.2370376727074343 0.1311861123688983 -0.0810342969765149
atom 26.9788815868856595 21.0582104594860837 1.1006363299083168 Zr
    velocity 0.5047789532273532 0.3360065442998350 0.5046646675648657
atom 1.2438815868856585 26.2672104594860834 1.1006363299083168 Zr
    velocity -0.3589886238767243 0.0702721657591297 -0.0295169319432780
atom 6.3908815868856603 26.2672104594860834 1.1006363299083168 Zr
    velocity -0.3705780730553901 -0.1113901569573116 0.2339527061343668
atom 11.5378815868856588 26.2672104594860834 1.1006363299083168 Zr
    velocity 0.1552592970998803 0.1874555727128134 -0.2930754550232362
atom 16.6848815868856590 26.2672104594860834 1.1006363299083168 Zr
    velocity 0.1018672084078891 0.0291585068801179 0.1704640828723090
atom 21.8318815868856575 26.2672104594860834 1.1006363299083168 Zr
    velocity 0.2610742379511222 0.1714934374809580 0.1164876865529473
atom 26.9788815868856595 26.2672104594860834 1.1006363299083168 Zr
    velocity 0.1656905776093586 -0.0155670657279631 -0.2210475174178976
atom 0.3856036930057087 0.2222104594860840 6.3418270397448691 Zr
    velocity 0.0069451446268308 -0.2796854542768996 0.3475490620928411
atom 5.5326036930057105 0.2222104594860840 6.3418270397448691 Zr
    velocity 0.0190538136116217 0.2684901816274962 0.0091338571911129
atom 10.6796036930057081 0.2222104594860840 6.3418270397448691 Zr
    velocity -0.1547833141307497 0.3413687755308533 0.3560931747460763
atom 15.8266036930057084 0.2222104594860840 6.3418270397448691 Zr
    velocity 0.3546996611424373 0.3232390274088214 -0.2528707479308423
atom 20.9736036930057068 0.2222104594860840 6.3418270397448691 Zr
    velocity 0.6222713895503774 0.3930262089590580 -0.2182988097018630
atom 26.1206036930057088 0.2222104594860840 6.3418270397448691 Zr
    velocity -0.5275336270623147 -0.3297458017648073 0.1457370245501318
atom 0.3856036930057087 5.4312104594860813 6.3418270397448691 Zr
    velocity -0.3385480966111851 -0.1565272012024105 0.5518359647418865
atom 5.5326036930057105 5.4312104594860813 6.3418270397448691 Zr
    velocity 0.4572193563486168 0.2475158628304266 -0.2874109484357205
atom 10.6796036930057081 5.4312104594860813 6.3418270397448691 Zr
    velocity -0.1518410385215216 -0.0357398622660381 -0.1421763224122751
atom 15.8266036930057084 5.4312104594860813 6.3418270397448691 Zr
    velocity -0.1016015841245935 0.2910270812079078 0.0840385165998625
atom 20.9736036930057068 5.4312104594860813 6.3418270397448691 Zr
    velocity -0.0733129017433265 0.4342880270899169 0.0498689148205082
atom 26.1206036930057088 5.4312104594860813 6.3418270397448691 Zr
    velocity -0.2228241779165716 0.1118094310951892 0.1801973365369949
atom 0.3856036930057087 10.6402104594860809 6.3418270397448691 Zr
    velocity -0.3381039226514407 0.1251291884627736 0.1492385008208861
atom 5.5326036930057105 10.6402104594860809 6.3418270397448691 Zr
    velocity 0.1638083876282652 -0.1894715763314559 0.0250612523199138
atom 10.6796036930057081 10.6402104594860809 6.3418270397448691 Zr
    velocity -0.3439389951789121 0.3244488485986278 -0.5099895897946691
atom 15.8266036930057084 10.6402104594860809 6.3418270397448691 Zr
    velocity 0.0281321317398255 0.1128347655862303 -0.2196321798044910
atom 20.9736036930057068 10.6402104594860809 6.3418270397448691 Zr
    velocity -0.1761819514688565 -0.1416125159024804 -0.2257372821290384
atom 26.1206036930057088 10.6402104594860809 6.3418270397448691 Zr
    velocity 0.1577274898404856 0.0991595434108123 -0.1961132215871660
atom 0.3856036930057087 15.8492104594860823 6.3418270397448691 Zr
    velocity 0.1328499469112248 -0.0966947888258375 -0.0444039905552853
atom 5.5326036930057105 15.8492104594860823 6.3418270397448691 Zr
    velocity -0.2149119294371991 -0.2784220511526331 0.0281837499881172
atom 10.6796036930057081 15.8492104594860823 6.3418270397448691 Zr
    velocity -0.1096179429851378 -0.0832081526833627 -0.1582138886769631
atom 15.8266036930057084 15.8492104594860823 6.3418270397448691 Zr
    velocity -0.2861843344711353 -0.2151720710249725 0.1424968509094237
atom 20.9736036930057068 15.8492104594860823 6.3418270397448691 Zr
    velocity -0.3184488805143929 -0.0833490453160119 -0.1033697391599232
atom 26.1206036930057088 15.8492104594860823 6.3418270397448691 Zr
    velocity -0.3164655166992235 0.4478326604678510 -0.1735419301875897
atom 0.3856036930057087 21.0582104594860837 6.3418270397448691 Zr
    velocity 0.1599872320225084 -0.1108268116947922 -0.2032977345101916
atom 5.5326036930057105 21.0582104594860837 6.3418270397448691 Zr
    velocity 0.3851323177734796 0.2507734292109524 0.4005429902485957
atom 10.6796036930057081 21.0582104594860837 6.3418270397448691 Zr
    velocity -0.2520790900553241 0.4397252132602936 0.2417570604291294
atom 15.8266036930057084 21.0582104594860837 6.3418270397448691 Zr
    velocity 0.0585536546182321 -0.3716180117137001 -0.0180790277533971
atom 20.9736036930057068 21.0582104594860837 6.3418270397448691 Zr
    velocity -0.0856927968976659 -0.1010596187983979 0.4382674435672031
atom 26.1206036930057088 21.0582104594860837 6.3418270397448691 Zr
    velocity 0.0349882307001132 -0.0240117311062944 0.3153911334971910
atom 0.3856036930057087 26.2672104594860834 6.3418270397448691 Zr
    velocity 0.2981353474171765 -0.5400205185260518 0.2169843152776248
atom 5.5326036930057105 26.2672104594860834 6.3418270397448691 Zr
    velocity -0.1436831309278190 -0.2286135546813586 -0.0055467413139613
atom 10.6796036930057081 26.2672104594860834 6.3418270397448691 Zr
    velocity -0.3668367813716019 -0.2242425058497569 -0.2049964505041731
atom 15.8266036930057084 26.2672104594860834 6.3418270397448691 Zr
    velocity 0.0139784736633097 -0.3656303209285459 0.5706601472959673
atom 20.9736036930057068 26.2672104594860834 6.3418270397448691 Zr
    velocity -0.0386702055347205 0.1980931438778714 -0.0761531606182262
atom 26.1206036930057088 26.2672104594860834 6.3418270397448691 Zr
    velocity -0.6971170091776238 -0.1191693912864750 -0.1324618130699026
atom -0.4726742008742409 0.2222104594860840 11.5830177495814191 Zr
    velocity 0.2753087834728379 0.2431337756003330 0.0706116595780695
atom 4.6743257991257607 0.2222104594860840 11.5830177495814191 Zr
    velocity 0.2425754352687345 0.1409963767225355 -0.0239748746808447
atom 9.8213257991257592 0.2222104594860840 11.5830177495814191 Zr
    velocity 0.5641290167906977 0.1451188900892814 0.0187143030474955
atom 14.9683257991257594 0.2222104594860840 11.5830177495814191 Zr
    velocity 0.2949547635943575 0.2514341721316694 0.0324608385483328
atom 20.1153257991257561 0.2222104594860840 11.5830177495814191 Zr
    velocity 0.0157027655088121 -0.4365750417705963 0.2490327957894281
atom 25.2623257991257582 0.2222104594860840 11.5830177495814191 Zr
    velocity 0.0855372330871645 0.0789502467341091 0.3045668617667227
atom -0.4726742008742409 5.4312104594860813 11.5830177495814191 Zr
    velocity -0.5057571049694177 0.4730578953649738 0.3293137389341978
atom 4.6743257991257607 5.4312104594860813 11.5830177495814191 Zr
    velocity -0.0276133038193593 0.1502817784631738 0.1216755917390546
atom 9.8213257991257592 5.4312104594860813 11.5830177495814191 Zr
    velocity -0.1765403129836386 0.3635110127063627 0.0046734047877751
atom 14.9683257991257594 5.4312104594860813 11.5830177495814191 Zr
    velocity 0.4238108492814825 0.1626980430435939 -0.1602578404527544
atom 20.1153257991257561 5.4312104594860813 11.5830177495814191 Zr
    velocity -0.2261888008119033 -0.1103133183614318 0.1755725520772152
atom 25.2623257991257582 5.4312104594860813 11.5830177495814191 Zr
    velocity 0.6383544972119704 0.2456342177626935 0.1220119466200038
atom -0.4726742008742409 10.6402104594860809 11.5830177495814191 Zr
    velocity -0.1350184370999545 -0.1626255855330030 -0.1973208664977738
atom 4.6743257991257607 10.6402104594860809 11.5830177495814191 Zr
    velocity 0.2495622834729792 0.2245162377354998 0.2240549960027768
atom 9.8213257991257592 10.6402104594860809 11.5830177495814191 Zr
    velocity -0.7989885526765785 -0.1673119275593522 0.5018626408607219
atom 14.9683257991257594 10.6402104594860809 11.5830177495814191 Zr
    velocity 0.2017444535688796 0.2587214683623253 0.0014630041878737
atom 20.1153257991257561 10.6402104594860809 11.5830177495814191 Zr
    velocity -0.5595872597165095 -0.1479220845113294 -0.0728755849658532
atom 25.2623257991257582 10.6402104594860809 11.5830177495814191 Zr
    velocity 0.0092190884530285 -0.0397777867702407 -0.1315250562189857
atom -0.4726742008742409 15.8492104594860823 11.5830177495814191 Zr
    velocity 0.2741576243942548 0.0854208320779210 0.2246765519504464
atom 4.6743257991257607 15.8492104594860823 11.5830177495814191 Zr
    velocity 0.2187627805802828 -0.0163379007936128 0.4018619315088430
atom 9.8213257991257592 15.8492104594860823 11.5830177495814191 Zr
    velocity 0.2565132944273197 -0.1227479768169057 0.1980954700446680
atom 14.9683257991257594 15.8492104594860823 11.5830177495814191 Zr
    velocity 0.3174393235797166 0.1017575279816684 -0.2132023398810775
atom 20.1153257991257561 15.8492104594860823 11.5830177495814191 Zr
    velocity -0.1547916212209776 0.5697738617348179 -0.4018934316732119
atom 25.2623257991257582 15.8492104594860823 11.5830177495814191 Zr
    velocity -0.0841939879242262 0.0558674612866299 -0.0093589982306066
atom -0.4726742008742409 21.0582104594860837 11.5830177495814191 Zr
    velocity 0.0244550153396190 -0.2678755854500501 0.1146263531526814
atom 4.6743257991257607 21.0582104594860837 11.5830177495814191 Zr
    velocity 0.1277248408099516 0.1918360091912771 -0.0140637456187768
atom 9.8213257991257592 21.0582104594860837 11.5830177495814191 Zr
    velocity -0.3257674709977605 -0.1169219828328959 -0.0135347269413944
atom 14.9683257991257594 21.0582104594860837 11.5830177495814191 Zr
    velocity -0.3306475912582472 -0.4658612625589409 0.2226716292882633
atom 20.1153257991257561 21.0582104594860837 11.5830177495814191 Zr
    velocity 0.1143775150647758 0.3487020897411540 -0.4665781481103666
atom 25.2623257991257582 21.0582104594860837 11.5830177495814191 Zr
    velocity 0.1326426026603605 0.5864442597135615 0.2311418241829784
atom -0.4726742008742409 26.2672104594860834 11.5830177495814191 Zr
    velocity 0.1614409952920262 -0.4434188148109797 0.3387061307559243
atom 4.6743257991257607 26.2672104594860834 11.5830177495814191 Zr
    velocity 0.2209486523186359 -0.0669510667122256 0.2920762416072842
atom 9.8213257991257592 26.2672104594860834 11.5830177495814191 Zr
    velocity 0.1911735810182784 0.1710286154044074 0.1397169824587475
atom 14.9683257991257594 26.2672104594860834 11.5830177495814191 Zr
    velocity -0.3475140393222758 0.6091647108178787 -0.0741184066736297
atom 20.1153257991257561 26.2672104594860834 11.5830177495814191 Zr
    velocity -0.1147929123747446 0.4029292681320120 0.0089061502163748
atom 25.2623257991257582 26.2672104594860834 11.5830177495814191 Zr
    velocity 0.5750265249037868 0.0667675745276261 -0.4063063193897858
atom -1.3309520947541917 0.2222104594860840 16.8242084594179779 Zr
    velocity 0.4905634846221905 -0.0680722442118014 -0.1712683144271327
atom 3.8160479052458101 0.2222104594860840 16.8242084594179779 Zr
    velocity -0.4604319915424502 -0.1565572958372988 0.1573649006087280
atom 8.9630479052458085 0.2222104594860840 16.8242084594179779 Zr
    velocity 0.1869310789576984 -0.7677483100369026 0.0794152764931473
atom 14.1100479052458088 0.2222104594860840 16.8242084594179779 Zr
    velocity 0.7649359641509794 0.4026893290584348 0.0795535635890185
atom 19.2570479052458055 0.2222104594860840 16.8242084594179779 Zr
    velocity -0.3476293977140827 0.3233182203663479 0.2232277146266130
atom 24.4040479052458075 0.2222104594860840 16.8242084594179779 Zr
    velocity -0.2021626384318775 -0.0799183093556209 -0.1089372233514337
atom -1.3309520947541917 5.4312104594860813 16.8242084594179779 Zr
    velocity -0.7240932929060158 -0.4259945614917074 -0.5161290430115195
atom 3.8160479052458101 5.4312104594860813 16.8242084594179779 Zr
    velocity -0.1226191249809212 -0.3822240791887327 0.1881181661455492
atom 8.9630479052458085 5.4312104594860813 16.8242084594179779 Zr
    velocity 0.3749663115072818 -0.3234914303281214 -0.2568929561572828
atom 14.1100479052458088 5.4312104594860813 16.8242084594179779 Zr
    velocity -0.4459229318604768 -0.1430686053530263 -0.1241782580476091
atom 19.2570479052458055 5.4312104594860813 16.8242084594179779 Zr
    velocity 0.1102177207447435 -0.3933822920579000 0.4815681639274660
atom 24.4040479052458075 5.4312104594860813 16.8242084594179779 Zr
    velocity 0.4324505131904965 -0.0136445084719205 0.4007688794756399
atom -1.3309520947541917 10.6402104594860809 16.8242084594179779 Zr
    velocity 0.2725629708101517 -0.1334464158090315 0.1536940895049964
atom 3.8160479052458101 10.6402104594860809 16.8242084594179779 Zr
    velocity 0.6188133056596525 0.0022046772767881 -0.1609055258269312
atom 8.9630479052458085 10.6402104594860809 16.8242084594179779 Zr
    velocity -0.4256982078607283 0.2801321212209073 0.1383296303457134
atom 14.1100479052458088 10.6402104594860809 16.8242084594179779 Zr
    velocity -0.4556656625597845 0.1654107412983616 -0.2233992526475942
atom 19.2570479052458055 10.6402104594860809 16.8242084594179779 Zr
    velocity -0.0771090787825934 -0.3936422044183387 0.2674100634191314
atom 24.4040479052458075 10.6402104594860809 16.8242084594179779 Zr
    velocity 0.2787789738621022 0.1910279305597607 -0.0901586534854301
atom -1.3309520947541917 15.8492104594860823 16.8242084594179779 Zr
    velocity 0.5171845412070560 -0.2856128110587998 -0.0888277845946857
atom 3.8160479052458101 15.8492104594860823 16.8242084594179779 Zr
    velocity 0.1566801087167934 0.3266221859687630 0.0292778524750855
atom 8.9630479052458085 15.8492104594860823 16.8242084594179779 Zr
    velocity -0.5625504960338058 0.0088468003216283 0.0492909666236279
atom 14.1100479052458088 15.8492104594860823 16.8242084594179779 Zr
    velocity -0.0071587110142275 -0.1153309109201260 0.2328056496641755
atom 19.2570479052458055 15.8492104594860823 16.8242084594179779 Zr
    velocity 0.4364151780918433 0.4274458283738765 -0.2355364685612886
atom 24.4040479052458075 15.8492104594860823 16.8242084594179779 Zr
    velocity -0.6332563345346214 0.1255492952237141 0.1462564588169735
atom -1.3309520947541917 21.0582104594860837 16.8242084594179779 Zr
    velocity -0.0648058629478776 0.1298846852471224 0.1409479712900725
atom 3.8160479052458101 21.0582104594860837 16.8242084594179779 Zr
    velocity 0.2461565465277748 -0.0832912515570091 0.1660441408290397
atom 8.9630479052458085 21.0582104594860837 16.8242084594179779 Zr
    velocity 0.1842378498292973 0.3055062968020756 0.1250708095483484
atom 14.1100479052458088 21.0582104594860837 16.8242084594179779 Zr
    velocity -0.4185389375942664 0.2860093044014951 0.1931724205554924
atom 19.2570479052458055 21.0582104594860837 16.8242084594179779 Zr
    velocity -0.2366982878307820 -0.1383980979706689 0.2889641199835489
atom 24.4040479052458075 21.0582104594860837 16.8242084594179779 Zr
    velocity 0.2947614921625863 -0.1272504483447475 -0.0467151568672302
atom -1.3309520947541917 26.2672104594860834 16.8242084594179779 Zr
    velocity 0.2591732827266465 -0.2082014468772660 0.2448986658673173
atom 3.8160479052458101 26.2672104594860834 16.8242084594179779 Zr
    velocity 0.3364706647850660 -0.0017559291689066 0.0671703549949833
atom 8.9630479052458085 26.2672104594860834 16.8242084594179779 Zr
    velocity 0.4793273723722992 0.4966689154099996 -0.3953934567519335
atom 14.1100479052458088 26.2672104594860834 16.8242084594179779 Zr
    velocity 0.5372364055495572 -0.1912589063576482 -0.0515321827862205
atom 19.2570479052458055 26.2672104594860834 16.8242084594179779 Zr
    velocity 0.4776443177683302 -0.0627612240675285 -0.1935975411770939
atom 24.4040479052458075 26.2672104594860834 16.8242084594179779 Zr
    velocity 0.7865676356817565 0.4976059796433552 -0.1793488375652390
atom -2.1892299886341422 0.2222104594860840 22.0653991692545333 Zr
    velocity -0.2866560874609829 -0.0234231631616022 -0.6556406105266019
atom 2.9577700113658598 0.2222104594860840 22.0653991692545333 Zr
    velocity -0.5538625418806884 -0.3643535718866512 0.2928485306334793
atom 8.1047700113658578 0.2222104594860840 22.0653991692545333 Zr
    velocity -0.0232548288969540 -0.1403329804659970 -0.3109907142697892
atom 13.2517700113658581 0.2222104594860840 22.0653991692545333 Zr
    velocity -0.3452160283402997 0.4349923403398516 -0.3664919308031052
atom 18.3987700113658548 0.2222104594860840 22.0653991692545333 Zr
    velocity -0.2969059384781569 0.1259486329986550 -0.5336032135068088
atom 23.5457700113658568 0.2222104594860840 22.0653991692545333 Zr
    velocity 0.2133377924678928 -0.0342463575007036 -0.2430293552598323
atom -2.1892299886341422 5.4312104594860813 22.0653991692545333 Zr
    velocity -0.2458535542732196 0.7843200690734263 -0.2330521767170435
atom 2.9577700113658598 5.4312104594860813 22.0653991692545333 Zr
    velocity 1.0849846718870473 0.3805462932946105 -0.1995712106426524
atom 8.1047700113658578 5.4312104594860813 22.0653991692545333 Zr
    velocity -0.2428040338402015 0.5995892949435914 0.3811320199632469
atom 13.2517700113658581 5.4312104594860813 22.0653991692545333 Zr
    velocity -0.0201009400578591 -0.5547547123433887 -0.3516428965669393
atom 18.3987700113658548 5.4312104594860813 22.0653991692545333 Zr
    velocity -0.1945490405311325 -0.3962171164237974 0.1294044784765458
atom 23.5457700113658568 5.4312104594860813 22.0653991692545333 Zr
    velocity 0.0878893835140482 -0.1091705835187477 0.3249029804698571
atom -2.1892299886341422 10.6402104594860809 22.0653991692545333 Zr
    velocity 0.0203641702151180 0.0773889908584606 -0.4477160145095266
atom 2.9577700113658598 10.6402104594860809 22.0653991692545333 Zr
    velocity -0.5291171249889048 0.2075727583701364 -0.0746295873359801
atom 8.1047700113658578 10.6402104594860809 22.0653991692545333 Zr
    velocity -0.2573322117970923 0.1516241584269231 0.1117232187505360
atom 13.2517700113658581 10.6402104594860809 22.0653991692545333 Zr
    velocity 0.0427832672833653 -0.0957602292700502 -0.1528384246440918
atom 18.3987700113658548 10.6402104594860809 22.0653991692545333 Zr
    velocity -0.3910422218668035 -0.1777603706682661 0.2364877000824185
atom 23.5457700113658568 10.6402104594860809 22.0653991692545333 Zr
    velocity 0.5667274844749951 0.2058557223546388 0.1591533717275533
atom -2.1892299886341422 15.8492104594860823 22.0653991692545333 Zr
    velocity 0.1387035625295758 0.1923583106517368 0.2911425568979673
atom 2.9577700113658598 15.8492104594860823 22.0653991692545333 Zr
    velocity 0.3236882905388487 0.6705328212606514 -0.0613098472123667
atom 8.1047700113658578 15.8492104594860823 22.0653991692545333 Zr
    velocity 0.5011495107242412 -0.3427380000242828 -0.0189505973411185
atom 13.2517700113658581 15.8492104594860823 22.0653991692545333 Zr
    velocity -0.5502197420010980 0.1052944385764278 -0.2540898816059161
atom 18.3987700113658548 15.8492104594860823 22.0653991692545333 Zr
    velocity 0.2301736472010742 0.1783923646499299 -0.5132334968359507
atom 23.5457700113658568 15.8492104594860823 22.0653991692545333 Zr
    velocity -0.3781168874899812 0.1047344501056153 -0.2970728742887601
atom -2.1892299886341422 21.0582104594860837 22.0653991692545333 Zr
    velocity 0.0421519635308258 0.1819516875569168 -0.3272903304832880
atom 2.9577700113658598 21.0582104594860837 22.0653991692545333 Zr
    velocity -0.0977451746009849 -0.4229602274387635 -0.1370813999356751
atom 8.1047700113658578 21.0582104594860837 22.0653991692545333 Zr
    velocity -0.0146675992683977 0.1541405085109528 -0.2449729733213241
atom 13.2517700113658581 21.0582104594860837 22.0653991692545333 Zr
    velocity -0.1895575923209356 0.1722463880225115 0.3008174911910354
atom 18.3987700113658548 21.0582104594860837 22.0653991692545333 Zr
    velocity -0.1250612937175618 0.2422287012566092 0.1086092041081781
atom 23.5457700113658568 21.0582104594860837 22.0653991692545333 Zr
    velocity 0.3352936656636598 -0.1835208731387734 -0.0712419581911690
atom -2.1892299886341422 26.2672104594860834 22.0653991692545333 Zr
    velocity 0.2284972147161556 0.1000305797661756 0.1794501355164098
atom 2.9577700113658598 26.2672104594860834 22.0653991692545333 Zr
    velocity -0.1658046930876212 -0.1660670261323892 -0.6070718456474249
atom 8.1047700113658578 26.2672104594860834 22.0653991692545333 Zr
    velocity 0.1896598007998913 0.2907743475360219 -0.3966376574655231
atom 13.2517700113658581 26.2672104594860834 22.0653991692545333 Zr
    velocity -0.4583817703393361 -0.1474966626669023 0.2043469929061085
atom 18.3987700113658548 26.2672104594860834 22.0653991692545333 Zr
    velocity -0.0151479041196715 0.5025534757092941 0.2570595552842838
atom 23.5457700113658568 26.2672104594860834 22.0653991692545333 Zr
    velocity -0.0125067500036048 -0.0070336193024556 0.0907821209876538
atom -3.0475078825140915 0.2222104594860840 27.3065898790910815 Zr
    velocity 0.1232768153158224 -0.3016033978292118 0.1960136627115359
atom 2.0994921174859105 0.2222104594860840 27.3065898790910815 Zr
    velocity -0.1278785063368317 0.0166101350469771 0.3181851000214118
atom 7.2464921174859080 0.2222104594860840 27.3065898790910815 Zr
    velocity 0.2724396631291384 -0.3223276911083516 -0.0263475903195638
atom 12.3934921174859074 0.2222104594860840 27.3065898790910815 Zr
    velocity -0.2217404041147510 -0.0788305970191284 0.0027052589153940
atom 17.5404921174859076 0.2222104594860840 27.3065898790910815 Zr
    velocity -0.0814031849902838 0.0791849919570316 -0.3284118143143876
atom 22.6874921174859097 0.2222104594860840 27.3065898790910815 Zr
    velocity -0.4284204735687018 -0.1981916131681024 -0.1564886548146202
atom -3.0475078825140915 5.4312104594860813 27.3065898790910815 Zr
    velocity -0.0894157104065698 -0.4891552755979979 0.2162557635034233
atom 2.0994921174859105 5.4312104594860813 27.3065898790910815 Zr
    velocity -0.3729019880978309 -0.2211461606222087 -0.1393075175388667
atom 7.2464921174859080 5.4312104594860813 27.3065898790910815 Zr
    velocity -0.4777642558131336 -0.1799930749326535 -0.2223382256052488
atom 12.3934921174859074 5.4312104594860813 27.3065898790910815 Zr
    velocity -0.2744292054303285 0.3791954059191756 -0.2112440871082449
atom 17.5404921174859076 5.4312104594860813 27.3065898790910815 Zr
    velocity 0.1006221921748851 -0.6169804345025730 0.3487088812123432
atom 22.6874921174859097 5.4312104594860813 27.3065898790910815 Zr
    velocity -0.5056884060173449 0.0821599016108004 -0.2552219300797501
atom -3.0475078825140915 10.6402104594860809 27.3065898790910815 Zr
    velocity 0.5203044602188001 0.1948450554560954 0.1596839402539275
atom 2.0994921174859105 10.6402104594860809 27.3065898790910815 Zr
    velocity 0.3484398731221539 -0.1893633072661587 0.2334686334651590
atom 7.2464921174859080 10.6402104594860809 27.3065898790910815 Zr
    velocity 0.4765164048709147 -0.2441526483808439 -0.4933714295551492
atom 12.3934921174859074 10.6402104594860809 27.3065898790910815 Zr
    velocity 0.2924150590305084 0.0807433601336094 0.1506054985089704
atom 17.5404921174859076 10.6402104594860809 27.3065898790910815 Zr
    velocity -0.0229623126527732 -0.0469977459151742 0.4479323912426269
atom 22.6874921174859097 10.6402104594860809 27.3065898790910815 Zr
    velocity 0.3250934264897727 -0.1936057103143060 0.1733471959105508
atom -3.0475078825140915 15.8492104594860823 27.3065898790910815 Zr
    velocity -0.1295306032860457 -0.0092590740984412 0.1955184708922505
atom 2.0994921174859105 15.8492104594860823 27.3065898790910815 Zr
    velocity 0.3663144071337935 0.0183696110493450 -0.0658383192412233
atom 7.2464921174859080 15.8492104594860823 27.3065898790910815 Zr
    velocity -0.5831052900457592 -0.0794191908610271 -0.2056973564926182
atom 12.3934921174859074 15.8492104594860823 27.3065898790910815 Zr
    velocity -0.2199855772531278 0.0482817517785493 -0.6107192584871611
atom 17.5404921174859076 15.8492104594860823 27.3065898790910815 Zr
    velocity 0.1027866361877408 -0.0625421787575677 0.1195492781876530
atom 22.6874921174859097 15.8492104594860823 27.3065898790910815 Zr
    velocity -0.1151884313829988 -0.2753418282878839 -0.3790921361320692
atom -3.0475078825140915 21.0582104594860837 27.3065898790910815 Zr
    velocity 0.0852405475512826 -0.3175309699834651 0.1771469365900445
atom 2.0994921174859105 21.0582104594860837 27.3065898790910815 Zr
    velocity -0.0519664270009948 0.0518399254382348 0.4117261373917267
atom 7.2464921174859080 21.0582104594860837 27.3065898790910815 Zr
    velocity 0.9100674591206255 -0.0243672574181675 0.1183504886212573
atom 12.3934921174859074 21.0582104594860837 27.3065898790910815 Zr
    velocity -0.4549087429911605 -0.1432125533794701 0.0831779557611037
atom 17.5404921174859076 21.0582104594860837 27.3065898790910815 Zr
    velocity -0.8447280120818845 0.1751533355972280 0.0837501322682460
atom 22.6874921174859097 21.0582104594860837 27.3065898790910815 Zr
    velocity -0.4942349133587629 -0.0257490819244720 -0.1400274445039177
atom -3.0475078825140915 26.2672104594860834 27.3065898790910815 Zr
    velocity -0.2092244775588498 -0.1319013922783235 -0.4798478218642377