#=======================================================
# FHI-aims file: 300_new_geometry.in.primitive.supercell_768.0010K
# Created using the Atomic Simulation Environment (ASE)
# Sat Nov 26 17:17:29 2022

# Additional information:
#  created from MB distrubtion
#  T = 10.0 K
#  quantum:             False
#  deterministic:       False
#  plus_minus:          False
#  gauge_eigenvectors:  False
#  Random seed:         1268588649
#  Sample number:       1
#=======================================================
lattice_vector 20.5880000000000010 0.0000000000000000 0.0000000000000000 
lattice_vector 0.0000000000000000 20.8359999999999985 0.0000000000000000 
lattice_vector -3.4331115755198005 0.0000000000000000 20.9647628393462142 
atom 1.2438815868856599 0.2222104594860840 1.1006363299083157 Zr
    velocity 0.3764027430480493 0.1985997277794537 0.3871871399262584
atom 6.3908815868856603 0.2222104594860840 1.1006363299083157 Zr
    velocity 0.2811017137323083 -0.2498899947611272 0.1798153894407239
atom 11.5378815868856606 0.2222104594860840 1.1006363299083157 Zr
    velocity -0.0962092965559760 0.0390967197519891 0.2649067369793717
atom 16.6848815868856590 0.2222104594860840 1.1006363299083157 Zr
    velocity 0.2545373661594956 0.3882273263715576 -0.0486279041030555
atom 1.2438815868856599 5.4312104594860857 1.1006363299083157 Zr
    velocity -0.1842329049757862 -0.8478450285214110 0.3158162507896556
atom 6.3908815868856603 5.4312104594860857 1.1006363299083157 Zr
    velocity 0.2096221568367937 0.1105288692089453 -0.0490714964409715
atom 11.5378815868856606 5.4312104594860857 1.1006363299083157 Zr
    velocity 0.2524140105124094 0.1287255254178811 0.2051705519808626
atom 16.6848815868856590 5.4312104594860857 1.1006363299083157 Zr
    velocity 0.4293706757626234 0.2009089988163258 0.0456279789371888
atom 1.2438815868856599 10.6402104594860845 1.1006363299083157 Zr
    velocity 0.5896407679655459 0.3464803101369580 0.3050596015710890
atom 6.3908815868856603 10.6402104594860845 1.1006363299083157 Zr
    velocity -0.2191675725969802 -0.1509741949185077 -0.9253032496081752
atom 11.5378815868856606 10.6402104594860845 1.1006363299083157 Zr
    velocity -0.2963122809282599 0.2221175162409973 0.6135316906633060
atom 16.6848815868856590 10.6402104594860845 1.1006363299083157 Zr
    velocity 0.2147305873651715 0.4247407422883266 -0.0136788807525092
atom 1.2438815868856599 15.8492104594860841 1.1006363299083157 Zr
    velocity -0.0298971780802091 0.4542818901709604 0.3873882360533769
atom 6.3908815868856603 15.8492104594860841 1.1006363299083157 Zr
    velocity -0.1402001252498095 -0.2302270830243119 0.3268106758254003
atom 11.5378815868856606 15.8492104594860841 1.1006363299083157 Zr
    velocity 0.1337435634467563 -0.0271670961742471 0.0859654839478220
atom 16.6848815868856590 15.8492104594860841 1.1006363299083157 Zr
    velocity 0.1632417797294081 -0.1271882382006215 -0.1285324637043941
atom 0.3856036930057096 0.2222104594860840 6.3418270397448699 Zr
    velocity 0.0570877065534331 0.6296917579341663 -0.6630392980541545
atom 5.5326036930057105 0.2222104594860840 6.3418270397448699 Zr
    velocity -0.1942016357369533 0.0689730316524391 0.2502981699852300
atom 10.6796036930057099 0.2222104594860840 6.3418270397448699 Zr
    velocity 0.1645572348087571 0.1294786913439087 0.0228362177216087
atom 15.8266036930057084 0.2222104594860840 6.3418270397448699 Zr
    velocity 0.2758566786504997 0.2818289391066595 -0.0009160685564472
atom 0.3856036930057096 5.4312104594860857 6.3418270397448699 Zr
    velocity -0.5470381253049451 0.1689831213909194 0.0841182318788970
atom 5.5326036930057105 5.4312104594860857 6.3418270397448699 Zr
    velocity 0.0236800579521366 0.1569769448711958 -0.2393150322712257
atom 10.6796036930057099 5.4312104594860857 6.3418270397448699 Zr
    velocity -0.3639940794658524 0.3527779402611592 0.1518025680279972
atom 15.8266036930057084 5.4312104594860857 6.3418270397448699 Zr
    velocity 0.0269459601032818 0.0613232241454993 -0.1066528852741164
atom 0.3856036930057096 10.6402104594860845 6.3418270397448699 Zr
    velocity -0.3939555272637482 0.2543052784240774 -0.0730702609956760
atom 5.5326036930057105 10.6402104594860845 6.3418270397448699 Zr
    velocity -0.2594122244679087 0.0122850204462094 -0.0899449478387410
atom 10.6796036930057099 10.6402104594860845 6.3418270397448699 Zr
    velocity -0.2127265099620002 0.5672374971881833 -0.3621642370018504
atom 15.8266036930057084 10.6402104594860845 6.3418270397448699 Zr
    velocity 0.2751102726448948 -0.1540671430820694 -0.5019232923751932
atom 0.3856036930057096 15.8492104594860841 6.3418270397448699 Zr
    velocity -0.1745933574914896 -0.3191027457523586 0.1672722558568760
atom 5.5326036930057105 15.8492104594860841 6.3418270397448699 Zr
    velocity -0.6229604322153318 -0.3110018908685630 -0.3219676371297001
atom 10.6796036930057099 15.8492104594860841 6.3418270397448699 Zr
    velocity 0.0720922270712428 0.2542794555430377 -0.5878950823837481
atom 15.8266036930057084 15.8492104594860841 6.3418270397448699 Zr
    velocity -0.3916624059209137 0.2947321206998315 -0.0473800470567517
atom -0.4726742008742405 0.2222104594860840 11.5830177495814226 Zr
    velocity 0.4732472018677860 0.3110601957628604 -0.2247649813743351
atom 4.6743257991257599 0.2222104594860840 11.5830177495814226 Zr
    velocity 0.4783475831096123 -0.2762722962173744 -0.4406109214617704
atom 9.8213257991257592 0.2222104594860840 11.5830177495814226 Zr
    velocity 0.1631308011936822 0.0626793010613671 0.2730415606998150
atom 14.9683257991257577 0.2222104594860840 11.5830177495814226 Zr
    velocity -0.4163883973690876 0.1087455718751170 -0.0353660266206721
atom -0.4726742008742405 5.4312104594860857 11.5830177495814226 Zr
    velocity 0.0294390410702285 -0.1883302923374189 -0.0960371940767817
atom 4.6743257991257599 5.4312104594860857 11.5830177495814226 Zr
    velocity -0.7633778564906887 0.1756878113603996 0.2134002736249413
atom 9.8213257991257592 5.4312104594860857 11.5830177495814226 Zr
    velocity -0.0376865619554343 0.1419045342004779 0.2898871001807366
atom 14.9683257991257577 5.4312104594860857 11.5830177495814226 Zr
    velocity -0.3434214603705902 -0.2840277902274485 0.1194772606492564
atom -0.4726742008742405 10.6402104594860845 11.5830177495814226 Zr
    velocity -0.2299738699794763 0.0257324360284226 -0.0911490192169011
atom 4.6743257991257599 10.6402104594860845 11.5830177495814226 Zr
    velocity -0.0906966543003301 0.0153904693164205 0.0167030953926793
atom 9.8213257991257592 10.6402104594860845 11.5830177495814226 Zr
    velocity 0.0535501475820071 -0.1220131340310971 0.0337901269311842
atom 14.9683257991257577 10.6402104594860845 11.5830177495814226 Zr
    velocity -0.4792081583913992 0.1518834142508503 0.3673658386116977
atom -0.4726742008742405 15.8492104594860841 11.5830177495814226 Zr
    velocity 0.1507424983785569 -0.2723892397302110 -0.0965212660943408
atom 4.6743257991257599 15.8492104594860841 11.5830177495814226 Zr
    velocity 0.0814516977165574 0.1783259836818505 -0.0407407727580583
atom 9.8213257991257592 15.8492104594860841 11.5830177495814226 Zr
    velocity 0.5491421669593526 -0.7371517018310565 0.1665547401238376
atom 14.9683257991257577 15.8492104594860841 11.5830177495814226 Zr
    velocity -0.5438267342200951 0.1480791097539907 -0.6111258902975677
atom -1.3309520947541906 0.2222104594860840 16.8242084594179779 Zr
    velocity 0.0620005065562779 0.2697025017527798 -0.0280112998515541
atom 3.8160479052458101 0.2222104594860840 16.8242084594179779 Zr
    velocity 0.1611152338304124 0.1641761273994536 -0.5662825766662269
atom 8.9630479052458085 0.2222104594860840 16.8242084594179779 Zr
    velocity -0.5105096313533406 -0.2360764412650442 -0.2565368931284623
atom 14.1100479052458070 0.2222104594860840 16.8242084594179779 Zr
    velocity 0.2025335846653636 -0.1490136683788676 0.1484818153782196
atom -1.3309520947541906 5.4312104594860857 16.8242084594179779 Zr
    velocity 0.5067154697970103 -0.1929843073777440 -0.0397386498809102
atom 3.8160479052458101 5.4312104594860857 16.8242084594179779 Zr
    velocity -0.1826776502747180 -0.6061690509115530 0.0184807804239070
atom 8.9630479052458085 5.4312104594860857 16.8242084594179779 Zr
    velocity -0.4460425471890420 0.2626848492347126 0.3344051732443715
atom 14.1100479052458070 5.4312104594860857 16.8242084594179779 Zr
    velocity 0.4526015216577953 0.2649300035862910 0.0658998730691060
atom -1.3309520947541906 10.6402104594860845 16.8242084594179779 Zr
    velocity -0.0199835350702274 -0.4250831003936439 -0.1631078279317717
atom 3.8160479052458101 10.6402104594860845 16.8242084594179779 Zr
    velocity 0.0872427491223899 -0.0849082629442539 0.4877766380192607
atom 8.9630479052458085 10.6402104594860845 16.8242084594179779 Zr
    velocity 0.4303539444075900 0.2026373895567491 -0.1424222001804220
atom 14.1100479052458070 10.6402104594860845 16.8242084594179779 Zr
    velocity 0.5243699108989333 -0.5221704344776441 -0.0493216951834124
atom -1.3309520947541906 15.8492104594860841 16.8242084594179779 Zr
    velocity -0.0301009878611580 -0.4700585011699605 0.3026591690847205
atom 3.8160479052458101 15.8492104594860841 16.8242084594179779 Zr
    velocity -0.1146671414319252 0.2427364028099355 -0.3904283779553446
atom 8.9630479052458085 15.8492104594860841 16.8242084594179779 Zr
    velocity -0.0917413336597426 -0.4848678517526895 0.1870413627978592
atom 14.1100479052458070 15.8492104594860841 16.8242084594179779 Zr
    velocity -0.5877632332196613 -0.0310540520372342 -0.3769270715105904
atom 3.0448402138394997 4.9867895405139153 4.1405544533049072 Zr
    velocity 0.2438018768651449 0.2586229898065320 -0.2005856712992931
atom 8.1918402138395017 4.9867895405139153 4.1405544533049072 Zr
    velocity -0.2358183445279090 0.2730860123064523 -0.0217571687680422
atom 13.3388402138395001 4.9867895405139153 4.1405544533049072 Zr
    velocity 0.0861845985325964 -0.0755746664767851 0.1674181028616602
atom 18.4858402138395022 4.9867895405139153 4.1405544533049072 Zr
    velocity 0.0842009471416307 0.0838061513010122 -0.2942560004770464
atom 3.0448402138394997 10.1957895405139176 4.1405544533049072 Zr
    velocity -0.2238054077256317 0.4115841737179736 0.0614051010003351
atom 8.1918402138395017 10.1957895405139176 4.1405544533049072 Zr
    velocity 0.3450525897572600 0.3354883510093952 0.1116538103817138
atom 13.3388402138395001 10.1957895405139176 4.1405544533049072 Zr
    velocity 0.2153027808997511 -0.2901174685694856 -0.3657343909906865
atom 18.4858402138395022 10.1957895405139176 4.1405544533049072 Zr
    velocity -0.3388055876547820 0.3809864994017279 0.3598161994221083
atom 3.0448402138394997 15.4047895405139155 4.1405544533049072 Zr
    velocity 0.0200161940700215 -0.3127245065323786 -0.1444624114486160
atom 8.1918402138395017 15.4047895405139155 4.1405544533049072 Zr
    velocity 0.1360360898539740 -0.2083373504422366 -0.3732310259341723
atom 13.3388402138395001 15.4047895405139155 4.1405544533049072 Zr
    velocity 0.0895035891127763 -0.2076459253642234 -0.1854842945946029
atom 18.4858402138395022 15.4047895405139155 4.1405544533049072 Zr
    velocity 0.2144161180988529 -0.0419452124760955 0.5921642597905667
atom 3.0448402138394997 20.6137895405139169 4.1405544533049072 Zr
    velocity 0.1871564412820561 0.0265928895115364 -0.2377364175882413
atom 8.1918402138395017 20.6137895405139169 4.1405544533049072 Zr
    velocity 0.1515343687138727 -0.1238710943071432 0.1868776915340661
atom 13.3388402138395001 20.6137895405139169 4.1405544533049072 Zr
    velocity 0.2543342621017128 0.1049411511941392 0.5370408260876236
atom 18.4858402138395022 20.6137895405139169 4.1405544533049072 Zr
    velocity 0.1213960290228535 0.1439004207962825 -0.0967359182598249
atom 2.1865623199595494 4.9867895405139153 9.3817451631414617 Zr
    velocity 0.3326643811949231 -0.6291338917756318 0.0778322609828625
atom 7.3335623199595510 4.9867895405139153 9.3817451631414617 Zr
    velocity -0.1035181771871791 -0.0087914069119783 -0.2225011529477599
atom 12.4805623199595495 4.9867895405139153 9.3817451631414617 Zr
    velocity -0.1487823479674528 0.0204549256566696 0.0491405364057011
atom 17.6275623199595515 4.9867895405139153 9.3817451631414617 Zr
    velocity 0.0567465054380709 -0.5467024506519127 0.5259238752381423
atom 2.1865623199595494 10.1957895405139176 9.3817451631414617 Zr
    velocity -0.0382800192476676 0.0052250862483150 0.0071132488675206
atom 7.3335623199595510 10.1957895405139176 9.3817451631414617 Zr
    velocity 0.0239244600155549 0.3524771846991430 -0.0972791140574231
atom 12.4805623199595495 10.1957895405139176 9.3817451631414617 Zr
    velocity 0.2486060035497598 -0.2955916425927028 0.3512451438459617
atom 17.6275623199595515 10.1957895405139176 9.3817451631414617 Zr
    velocity -0.2052104145376325 -0.0623394102317335 0.2291672787284657
atom 2.1865623199595494 15.4047895405139155 9.3817451631414617 Zr
    velocity -0.5093275270262843 -0.2150827138034009 0.0343463570375178
atom 7.3335623199595510 15.4047895405139155 9.3817451631414617 Zr
    velocity 0.4233883238192627 0.6854455845982729 0.4046760824519180
atom 12.4805623199595495 15.4047895405139155 9.3817451631414617 Zr
    velocity 0.2352583359045470 -0.0192065299228969 -0.0713916806362842
atom 17.6275623199595515 15.4047895405139155 9.3817451631414617 Zr
    velocity -0.2725161244813592 0.1555127557940170 -0.4043695168256365
atom 2.1865623199595494 20.6137895405139169 9.3817451631414617 Zr
    velocity 0.1584072035471667 0.0181168209367172 0.5100467736769873
atom 7.3335623199595510 20.6137895405139169 9.3817451631414617 Zr
    velocity -0.2745640906296306 0.1191839144638428 -0.3201149268450728
atom 12.4805623199595495 20.6137895405139169 9.3817451631414617 Zr
    velocity 0.2240519469173900 -0.5475700925146709 0.1830169218186940
atom 17.6275623199595515 20.6137895405139169 9.3817451631414617 Zr
    velocity 0.3767782114844466 -0.2580497511081994 0.1144290657640093
atom 1.3282844260795992 4.9867895405139153 14.6229358729780152 Zr
    velocity -0.0151558065911706 -0.0758992043915787 -0.3591807970554416
atom 6.4752844260796003 4.9867895405139153 14.6229358729780152 Zr
    velocity -0.0807491472409087 -0.1810410146923639 -0.1998978948694973
atom 11.6222844260795988 4.9867895405139153 14.6229358729780152 Zr
    velocity -0.0982431903392588 0.3737880113467864 0.2407057109886520
atom 16.7692844260796008 4.9867895405139153 14.6229358729780152 Zr
    velocity -0.0776725804887045 0.0513004292639768 -0.1392836605521099
atom 1.3282844260795992 10.1957895405139176 14.6229358729780152 Zr
    velocity -0.3466734402932773 -0.0573204155958990 -0.1369550631769822
atom 6.4752844260796003 10.1957895405139176 14.6229358729780152 Zr
    velocity 0.5571436441866705 -0.0752609312723602 -0.6954570879964151
atom 11.6222844260795988 10.1957895405139176 14.6229358729780152 Zr
    velocity -0.2540115367163727 0.2909571435876753 0.2645020863692930
atom 16.7692844260796008 10.1957895405139176 14.6229358729780152 Zr
    velocity 0.1974246510535565 -0.1549779621162227 0.5252774036738697
atom 1.3282844260795992 15.4047895405139155 14.6229358729780152 Zr
    velocity 0.5045744781421344 -0.0832111086403538 -0.0064487320461719
atom 6.4752844260796003 15.4047895405139155 14.6229358729780152 Zr
    velocity -0.4668089484497440 0.3739641862108229 0.1313331202618880
atom 11.6222844260795988 15.4047895405139155 14.6229358729780152 Zr
    velocity -0.1474243109151862 0.1261982403778801 0.1593411883567079
atom 16.7692844260796008 15.4047895405139155 14.6229358729780152 Zr
    velocity -0.0471696880260709 -0.4687816521686792 0.0175444568194225
atom 1.3282844260795992 20.6137895405139169 14.6229358729780152 Zr
    velocity -0.4382972812757336 0.3547590737078716 0.2671495901012537
atom 6.4752844260796003 20.6137895405139169 14.6229358729780152 Zr
    velocity 0.0976964026800477 0.0737579274600944 -0.0183719864146733
atom 11.6222844260795988 20.6137895405139169 14.6229358729780152 Zr
    velocity 0.0705246545194061 0.4642142590591249 0.1930548795155630
atom 16.7692844260796008 20.6137895405139169 14.6229358729780152 Zr
    velocity -0.0937345787648069 0.6448311748651429 0.2656102807459363
atom 0.4700065321996487 4.9867895405139153 19.8641265828145706 Zr
    velocity 0.0359249043386460 -0.4278979240554863 0.3712784937048237
atom 5.6170065321996505 4.9867895405139153 19.8641265828145706 Zr
    velocity -0.1528468651130149 0.1908332849139350 -0.2722824715697564
atom 10.7640065321996499 4.9867895405139153 19.8641265828145706 Zr
    velocity -0.1982085009463478 -0.1911491248884366 -0.5035178334858309
atom 15.9110065321996501 4.9867895405139153 19.8641265828145706 Zr
    velocity 0.0077182860678169 0.4846106630828387 -0.3464758110333706
atom 0.4700065321996487 10.1957895405139176 19.8641265828145706 Zr
    velocity -0.2023390488565929 -0.2496347204248023 0.1779903538468872
atom 5.6170065321996505 10.1957895405139176 19.8641265828145706 Zr
    velocity 0.3650969401876754 -0.1269710902380019 0.3327095614446790
atom 10.7640065321996499 10.1957895405139176 19.8641265828145706 Zr
    velocity -0.1596520934502225 -0.3039228341579804 -0.2333724162916544
atom 15.9110065321996501 10.1957895405139176 19.8641265828145706 Zr
    velocity -0.1310135853243755 0.3979662122777057 -0.4386487150862025
atom 0.4700065321996487 15.4047895405139155 19.8641265828145706 Zr
    velocity 0.2883863075506260 -0.2257839286868608 0.0708395012880442
atom 5.6170065321996505 15.4047895405139155 19.8641265828145706 Zr
    velocity 0.0367451757406813 0.3662100720874569 -0.2294373390473176
atom 10.7640065321996499 15.4047895405139155 19.8641265828145706 Zr
    velocity -0.0763107412710010 -0.4228168339246194 0.6069650281900402
atom 15.9110065321996501 15.4047895405139155 19.8641265828145706 Zr
    velocity -0.1975019202842581 0.5171946181880603 0.6389373392378297
atom 0.4700065321996487 20.6137895405139169 19.8641265828145706 Zr
    velocity 0.1107478467154209 0.0687366278685104 0.1047126576135974
atom 5.6170065321996505 20.6137895405139169 19.8641265828145706 Zr
    velocity 0.2789873618904564 0.1745212156732125 -0.2000812210412135
atom 10.7640065321996499 20.6137895405139169 19.8641265828145706 Zr
    velocity 0.0778322934706347 0.1374059233358905 -0.0697983370248367
atom 15.9110065321996501 20.6137895405139169 19.8641265828145706 Zr
    velocity 0.2838276402823742 -0.1163249653072908 -0.0672504770842961
atom 3.4739791607794746 2.8267104594860859 1.5199590983866309 Zr
    velocity 0.0562224186746621 -0.2968988863819399 -0.3716656753208797
atom 8.6209791607794770 2.8267104594860859 1.5199590983866309 Zr
    velocity -0.2228636819104006 -0.2584128731191373 -0.1967625460307768
atom 13.7679791607794755 2.8267104594860859 1.5199590983866309 Zr
    velocity -0.2525047193536425 0.1624008565148567 0.2091635216718788
atom 18.9149791607794775 2.8267104594860859 1.5199590983866309 Zr
    velocity -0.0526380189430485 0.0807908019106428 -0.1454249997037994
atom 3.4739791607794746 8.0357104594860864 1.5199590983866309 Zr
    velocity -0.3260323399982369 0.0404966074269868 -0.2148912031206330
atom 8.6209791607794770 8.0357104594860864 1.5199590983866309 Zr
    velocity -0.3824537004902800 0.2522319708412256 -0.0157262073350154
atom 13.7679791607794755 8.0357104594860864 1.5199590983866309 Zr
    velocity -0.4792074942087022 0.1832736725054728 -0.0430651917239990
atom 18.9149791607794775 8.0357104594860864 1.5199590983866309 Zr
    velocity 0.1495029660083677 0.3123253333262848 0.0438361053985813
atom 3.4739791607794746 13.2447104594860843 1.5199590983866309 Zr
    velocity 0.0464732400781755 0.1796850331892413 0.0859531626219371
atom 8.6209791607794770 13.2447104594860843 1.5199590983866309 Zr
    velocity 0.0500751185209534 -0.2180596795279802 -0.1217780373008538
atom 13.7679791607794755 13.2447104594860843 1.5199590983866309 Zr
    velocity 0.0709382984146566 0.4338040816152928 0.3572321530064320
atom 18.9149791607794775 13.2447104594860843 1.5199590983866309 Zr
    velocity 0.2420974218347747 0.0146150043699237 0.2880642160591970
atom 3.4739791607794746 18.4537104594860821 1.5199590983866309 Zr
    velocity 0.0506495733752072 -0.1094477395891904 -0.3986770679402266
atom 8.6209791607794770 18.4537104594860821 1.5199590983866309 Zr
    velocity -0.0124800518738472 -0.0538510389259799 0.3160985040755582
atom 13.7679791607794755 18.4537104594860821 1.5199590983866309 Zr
    velocity -0.1210639291535295 -0.3891263382278483 -0.1508189566283606
atom 18.9149791607794775 18.4537104594860821 1.5199590983866309 Zr
    velocity -0.1811738669369748 -0.0625022650099476 0.0039132031382524
atom 2.6157012668995248 2.8267104594860859 6.7611498082231840 Zr
    velocity 0.2781212528548928 0.0057676499425460 -0.2367642496631519
atom 7.7627012668995263 2.8267104594860859 6.7611498082231840 Zr
    velocity 0.4138050925917591 0.3090076625226797 0.2146098523027921
atom 12.9097012668995248 2.8267104594860859 6.7611498082231840 Zr
    velocity -0.3705295432177960 -0.0586967071752862 0.2021486122050302
atom 18.0567012668995268 2.8267104594860859 6.7611498082231840 Zr
    velocity -0.5052482664294393 0.3366721875734805 -0.5972732879893804
atom 2.6157012668995248 8.0357104594860864 6.7611498082231840 Zr
    velocity -0.1497689958436927 0.2705256342914802 0.0231213375488402
atom 7.7627012668995263 8.0357104594860864 6.7611498082231840 Zr
    velocity -0.1234989094688281 -0.1244567286235416 0.0641594186135100
atom 12.9097012668995248 8.0357104594860864 6.7611498082231840 Zr
    velocity 0.2227179403954703 0.2230068998255147 0.4356032201525634
atom 18.0567012668995268 8.0357104594860864 6.7611498082231840 Zr
    velocity -0.3152455822267817 0.0839928164682918 0.3847370004422870
atom 2.6157012668995248 13.2447104594860843 6.7611498082231840 Zr
    velocity 0.0880158092361469 0.3546844316387903 -0.1210769989732776
atom 7.7627012668995263 13.2447104594860843 6.7611498082231840 Zr
    velocity 0.0353809263930890 0.1647006696414116 0.5712983034533158
atom 12.9097012668995248 13.2447104594860843 6.7611498082231840 Zr
    velocity -0.1036965782307302 0.1698318966100815 0.3836164607235837
atom 18.0567012668995268 13.2447104594860843 6.7611498082231840 Zr
    velocity -0.1733406451848541 0.0051345288723832 0.4174828823724430
atom 2.6157012668995248 18.4537104594860821 6.7611498082231840 Zr
    velocity 0.2640079448640230 -0.1890639811593348 -0.0932886177351871
atom 7.7627012668995263 18.4537104594860821 6.7611498082231840 Zr
    velocity -0.2768597446292806 0.0021856212464828 0.0787251323418773
atom 12.9097012668995248 18.4537104594860821 6.7611498082231840 Zr
    velocity 0.0427625786549046 -0.0599005338497135 0.4385484037378052
atom 18.0567012668995268 18.4537104594860821 6.7611498082231840 Zr
    velocity 0.0177542122966231 -0.4859603467829887 -0.2013327505326429
atom 1.7574233730195743 2.8267104594860859 12.0023405180597393 Zr
    velocity -0.3925966855648928 0.0519906703036228 0.0804965638072851
atom 6.9044233730195756 2.8267104594860859 12.0023405180597393 Zr
    velocity -0.0857557087361657 0.0041751534333300 0.3369112612160980
atom 12.0514233730195741 2.8267104594860859 12.0023405180597393 Zr
    velocity -0.2316695261862688 0.0538101899349122 -0.2560863558823263
atom 17.1984233730195761 2.8267104594860859 12.0023405180597393 Zr
    velocity 0.6284788968882641 0.2372885803539646 0.2303184035866273
atom 1.7574233730195743 8.0357104594860864 12.0023405180597393 Zr
    velocity 0.2346786710821134 -0.3850307418179983 0.0248405237837253
atom 6.9044233730195756 8.0357104594860864 12.0023405180597393 Zr
    velocity 0.1063749960173485 -0.0714381897498325 -0.5677869921975284
atom 12.0514233730195741 8.0357104594860864 12.0023405180597393 Zr
    velocity -0.0065493037392457 -0.1730373667862039 -0.6407494567719551
atom 17.1984233730195761 8.0357104594860864 12.0023405180597393 Zr
    velocity -0.1603135926420482 -0.2223518346435034 -0.3099408557071165
atom 1.7574233730195743 13.2447104594860843 12.0023405180597393 Zr
    velocity 0.0803575823647537 -0.0536694408695359 0.4248395447538126
atom 6.9044233730195756 13.2447104594860843 12.0023405180597393 Zr
    velocity 0.8135670157215599 -0.0026540920116637 -0.0758264854353491
atom 12.0514233730195741 13.2447104594860843 12.0023405180597393 Zr
    velocity -0.0187259476479686 0.1290320692869030 -0.2748537935628368
atom 17.1984233730195761 13.2447104594860843 12.0023405180597393 Zr
    velocity -0.0435849350365759 0.2821448604175330 0.0654704460384746
atom 1.7574233730195743 18.4537104594860821 12.0023405180597393 Zr
    velocity -0.5424309897995647 -0.5594013378138534 -0.3218277512433974
atom 6.9044233730195756 18.4537104594860821 12.0023405180597393 Zr
    velocity 0.2813308797988694 -0.4166899952749984 0.1633451900315028
atom 12.0514233730195741 18.4537104594860821 12.0023405180597393 Zr
    velocity 0.0134915186792989 0.1203669386947036 0.3765123004037110
atom 17.1984233730195761 18.4537104594860821 12.0023405180597393 Zr
    velocity -0.5075580966353573 0.4301874501239478 -0.0099848136847397
atom 0.8991454791396245 2.8267104594860859 17.2435312278962911 Zr
    velocity -0.3449335057926824 -0.3377666156148943 0.2304791888605019
atom 6.0461454791396259 2.8267104594860859 17.2435312278962911 Zr
    velocity -0.0772914807694903 -0.5049663444134923 0.0530723366209931
atom 11.1931454791396252 2.8267104594860859 17.2435312278962911 Zr
    velocity 0.0105293974634963 0.6203796302190795 0.0977997328599882
atom 16.3401454791396255 2.8267104594860859 17.2435312278962911 Zr
    velocity 0.1788490986970608 -0.2998505711583118 0.5907981689335853
atom 0.8991454791396245 8.0357104594860864 17.2435312278962911 Zr
    velocity 0.0191646217203913 -0.1136798829917722 -0.4624380073054027
atom 6.0461454791396259 8.0357104594860864 17.2435312278962911 Zr
    velocity -0.5615814296514207 -0.0967827392147960 0.0438750890140544
atom 11.1931454791396252 8.0357104594860864 17.2435312278962911 Zr
    velocity -0.0791229776159573 -0.2235070280370616 -0.0135801690404642
atom 16.3401454791396255 8.0357104594860864 17.2435312278962911 Zr
    velocity 0.2869275448580286 0.2255885936400185 0.0696760480542398
atom 0.8991454791396245 13.2447104594860843 17.2435312278962911 Zr
    velocity -0.1817234166356501 -0.0317235469062367 -0.4175901816849005
atom 6.0461454791396259 13.2447104594860843 17.2435312278962911 Zr
    velocity -0.3366586277376674 0.0695287141392243 0.1838067498755703
atom 11.1931454791396252 13.2447104594860843 17.2435312278962911 Zr
    velocity 0.0828045204680821 -0.2819566720744989 -0.0552826370239894
atom 16.3401454791396255 13.2447104594860843 17.2435312278962911 Zr
    velocity 0.2762817025570120 -0.3600453332153267 0.8530149632381179
atom 0.8991454791396245 18.4537104594860821 17.2435312278962911 Zr
    velocity -0.3235412406771889 -0.1632956814017128 -0.0854238661339668
atom 6.0461454791396259 18.4537104594860821 17.2435312278962911 Zr
    velocity -0.2962962544157421 0.5805557506619538 0.0249489454243312
atom 11.1931454791396252 18.4537104594860821 17.2435312278962911 Zr
    velocity -0.1821295959819737 0.4414369906003958 -0.2895440221119965
atom 16.3401454791396255 18.4537104594860821 17.2435312278962911 Zr
    velocity 0.3375887799722305 -0.7156455796954564 -0.1767199789004497
atom 0.8147426399456847 2.3822895405139159 3.7212316848265927 Zr
    velocity 0.4835079997472050 0.4728445796174653 -0.2735343559680792
atom 5.9617426399456859 2.3822895405139159 3.7212316848265927 Zr
    velocity -0.1962912464579561 -0.0988544394085679 -0.4408994730673756
atom 11.1087426399456870 2.3822895405139159 3.7212316848265927 Zr
    velocity 0.2088796625277591 0.6212343446946512 -0.0007091000843702
atom 16.2557426399456872 2.3822895405139159 3.7212316848265927 Zr
    velocity 0.3664909609587954 0.1627279095748845 -0.3844582116830180
atom 0.8147426399456847 7.5912895405139134 3.7212316848265927 Zr
    velocity 0.3203935818984594 -0.2207172676174438 -0.0105818587834608
atom 5.9617426399456859 7.5912895405139134 3.7212316848265927 Zr
    velocity -0.0616192662518210 0.3261107984124374 0.2058225239472386
atom 11.1087426399456870 7.5912895405139134 3.7212316848265927 Zr
    velocity 0.1114268080559234 -0.2126553278125148 -0.7262689960631232
atom 16.2557426399456872 7.5912895405139134 3.7212316848265927 Zr
    velocity -0.0568542998732563 -0.6209821116032389 0.0099968453422042
atom 0.8147426399456847 12.8002895405139139 3.7212316848265927 Zr
    velocity -0.1757313885644868 -0.0084672597184782 -0.0057129923220017
atom 5.9617426399456859 12.8002895405139139 3.7212316848265927 Zr
    velocity -0.4133702419893337 0.2408825512788891 0.1473262167347275
atom 11.1087426399456870 12.8002895405139139 3.7212316848265927 Zr
    velocity -0.5639092433566787 0.3894033131921322 0.4245015607082975
atom 16.2557426399456872 12.8002895405139139 3.7212316848265927 Zr
    velocity -0.2595103679094342 -0.3625120741689238 0.2903306607440543
atom 0.8147426399456847 18.0092895405139153 3.7212316848265927 Zr
    velocity -0.0390030846384965 0.3140554741384039 0.1505555184242973
atom 5.9617426399456859 18.0092895405139153 3.7212316848265927 Zr
    velocity 0.2389133850887168 -0.0404875887763907 -0.1404823362031612
atom 11.1087426399456870 18.0092895405139153 3.7212316848265927 Zr
    velocity -0.4263321745091148 -0.2624755352941686 0.2541492306395547
atom 16.2557426399456872 18.0092895405139153 3.7212316848265927 Zr
    velocity -0.3608130715011107 0.2284169629106610 -0.0193376932565543
atom -0.0435352539342655 2.3822895405139159 8.9624223946631467 Zr
    velocity -0.2059383628174651 -0.2380114026415599 -0.1494304824249277
atom 5.1034647460657352 2.3822895405139159 8.9624223946631467 Zr
    velocity 0.2708364962388554 0.1071409623322286 -0.6184277907006424
atom 10.2504647460657363 2.3822895405139159 8.9624223946631467 Zr
    velocity 0.0781479846193630 -0.0656750217733536 0.1067159656895335
atom 15.3974647460657366 2.3822895405139159 8.9624223946631467 Zr
    velocity -0.1520800920490610 -0.2043712790287100 -0.3816425127163861