#=======================================================
# FHI-aims file: geometry.in.supercell.0010K
# Created using the Atomic Simulation Environment (ASE)
# Thu Jun 24 11:34:08 2021

# Additional information:
#  created from MB distrubtion
#  T = 10.0 K
#  quantum:             False
#  deterministic:       False
#  plus_minus:          False
#  gauge_eigenvectors:  False
#  Random seed:         2116493274
#  Sample number:       1
#=======================================================
lattice_vector 10.1952194790879993 0.0000002312840000 0.0000001149100000 
lattice_vector 0.0000002312840000 10.1952585700719993 -0.0000000817060000 
lattice_vector 0.0000001174240000 -0.0000000834940000 10.4472499926080005 
atom 10.1952195705575175 0.0000001715475008 10.4472500947462379 Zr
    velocity 0.1174855911015286 0.1839500543745925 -0.4187822542166476
atom 2.5488050190625202 2.5488146406025010 10.4472499881372372 Zr
    velocity 0.1440447332835782 -0.2520972094945905 -0.0962494470002044
atom 5.0976099466555187 5.0976293409414994 10.4472499964382379 Zr
    velocity 0.0713998838228990 -0.2886039319261698 -0.2220318395065036
atom 7.6464148742485190 7.6464440412804997 10.4472500047392298 Zr
    velocity 0.0463640789748048 -0.3512787707314396 0.2667102641244341
atom 7.6464147586065190 2.5488147562445009 10.4472500455922379 Zr
    velocity 0.0135428380017055 0.2206859066956839 -0.4351526737160363
atom 10.1952196861995183 5.0976294565834994 10.4472500538932298 Zr
    velocity 0.5391149553690976 -0.2600595717926711 -0.0962094103577324
atom 2.5488051347045202 7.6464439256384997 10.4472499472842379 Zr
    velocity -0.8282532940022704 -0.3720422773989631 -0.1365094274171637
atom 5.0976098310135187 0.0000000559055008 10.4472500372912371 Zr
    velocity -0.0688834625025185 0.3557007785384974 -0.5217548067426483
atom 10.1952195118455187 0.0000002132945008 5.2236250984422368 Zr
    velocity 0.6170188551660779 -0.5903240392505538 0.1520262392664997
atom 2.5488049603505201 2.5488146823495006 5.2236249918332369 Zr
    velocity -0.4296742750993249 0.2359833966012179 -0.0974484914029804
atom 5.0976098879435190 5.0976293826885000 5.2236250001342368 Zr
    velocity -0.1656836211530359 0.0078174165273407 -0.1612003425647059
atom 7.6464148155365192 7.6464440830275002 5.2236250084352367 Zr
    velocity 0.0362313908516591 -0.1902795491478924 0.0808399583435175
atom 7.6464146998945193 2.5488147979915006 5.2236250492882368 Zr
    velocity -0.1262427835374889 -0.4962012385289847 -0.2877424954560827
atom 10.1952196274875195 5.0976294983304999 5.2236250575892367 Zr
    velocity -0.1168856077273223 -0.4261395787305217 0.2174831486034595
atom 2.5488050759925200 7.6464439673855003 5.2236249509802368 Zr
    velocity 0.3117199312625616 -0.1267426886635954 0.2490171125166059
atom 5.0976097723015190 0.0000000976525008 5.2236250409872369 Zr
    velocity -0.0424753666200454 -0.0609330277293100 -0.2524753771537079
atom 0.0000001020416280 2.5488145286739372 2.6118124866735704 Zr
    velocity 0.3328164693485345 0.2608517029739412 -0.0262196356534358
atom 2.5488050296346265 5.0976292290129370 2.6118124949745698 Zr
    velocity -0.4915941552248410 -0.1435702496247044 0.4964265482983977
atom 5.0976099572276272 7.6464439293519364 2.6118125032755706 Zr
    velocity 0.1338374989223070 -0.0881058707217362 0.1538903393773186
atom 7.6464148848206275 10.1952586296909367 2.6118125115765705 Zr
    velocity 0.3847414941883733 0.1483687358616606 0.0736744167857205
atom 7.6464147691786275 5.0976293446549370 2.6118125524295706 Zr
    velocity 0.2921416334526347 0.2569256044221965 0.3625914204189445
atom 0.0000002176836270 7.6464438137099364 2.6118124458205703 Zr
    velocity 0.0744118258007411 0.1544582926725510 -0.2789667208738512
atom 2.5488051452766265 10.1952585140489322 2.6118124541215706 Zr
    velocity 0.3513082341400259 -0.1850560712406060 -0.1471248659030399
atom 5.0976098415856272 2.5488146443159372 2.6118125441285698 Zr
    velocity -0.0016911467037160 0.4932836679144004 -0.1172715403607523
atom 0.0000001607536280 2.5488144869269385 7.8354374829775715 Zr
    velocity 0.1227725886772774 -0.0891419772484620 0.3924909462070661
atom 2.5488050883466262 5.0976291872659374 7.8354374912785714 Zr
    velocity 0.3248605336353219 0.3302255131680822 0.1352507679771673
atom 5.0976100159396269 7.6464438876049368 7.8354374995795686 Zr
    velocity 0.1719227193951173 -0.1349773890876418 0.2903938639005429
atom 7.6464149435326272 10.1952585879439361 7.8354375078805685 Zr
    velocity -0.2808971164800028 -0.0584993774083816 -0.0820887033784420
atom 7.6464148278906272 5.0976293029079374 7.8354375487335686 Zr
    velocity -0.0884243362619388 0.3347693586279796 -0.3552340744876794
atom 0.0000002763956270 7.6464437719629368 7.8354374421245714 Zr
    velocity 0.2468634045341869 0.4283317878801664 0.1993755745585425
atom 2.5488052039886262 10.1952584723019317 7.8354374504255713 Zr
    velocity -0.1374547293141608 -0.5698877239806597 -0.0518173256671947
atom 5.0976099002976270 2.5488146025689384 7.8354375404325713 Zr
    velocity -0.1494744642002309 0.3679656315424494 -0.0499947872197059
atom 1.2744024515736083 1.2744073718773858 1.0024190245136309 O
    velocity 1.7333125649541723 -0.3478483783556257 1.1782849459656686
atom 3.8232073791666079 3.8232220722163857 1.0024190328146307 O
    velocity 0.9170298014119479 -0.9137522090282728 -0.2935931866932685
atom 6.3720123067596077 6.3720367725553873 1.0024190411156308 O
    velocity -0.3321795662278401 1.8010853657853176 -0.1806563450790783
atom 8.9208172343526080 8.9208514728943840 1.0024190494166310 O
    velocity 0.6919872052192911 0.4949545839258874 -0.5536390598417261
atom 8.9208171187106071 3.8232221878583856 1.0024190902696308 O
    velocity -0.1729471995741022 -1.7191197970268828 0.4892696152653703
atom 1.2744025672156083 6.3720366569133882 1.0024189836606308 O
    velocity 0.1621119793772057 1.7063185325164576 -0.3681167802320133
atom 3.8232074948086079 8.9208513572523884 1.0024189919616309 O
    velocity 0.6343896567779406 0.4676691235856243 -0.0632981475078315
atom 6.3720121911176069 1.2744074875193858 1.0024190819686309 O
    velocity 0.3684448287636557 -0.2053830865028383 0.2552579245662735
atom 1.2744025102856082 1.2744073301303858 6.2260440208176311 O
    velocity 0.0136816962118200 -0.4696606212258244 0.4981306222931901
atom 3.8232074378786081 3.8232220304693860 6.2260440291186310 O
    velocity 1.0527155102801036 -0.7206057970334876 0.1020903319467876
atom 6.3720123654716074 6.3720367308083850 6.2260440374196282 O
    velocity -0.8591586469972055 -0.4105863742454378 -0.1824337198764989
atom 8.9208172930646086 8.9208514311473852 6.2260440457206281 O
    velocity 0.8342128353057287 1.0233598376016191 1.1136693975722567
atom 8.9208171774226077 3.8232221461113864 6.2260440865736282 O
    velocity -0.6764554353673469 0.0030106903863055 -0.1551901561418153
atom 1.2744026259276082 6.3720366151663859 6.2260439799646310 O
    velocity -2.2166427249810714 -0.6086995587342674 -0.3527375596096973
atom 3.8232075535206080 8.9208513155053897 6.2260439882656282 O
    velocity -1.4550660719034276 -0.2173368958637943 -0.1951656256989732
atom 6.3720122498296066 1.2744074457723857 6.2260440782726310 O
    velocity 0.8754774011881777 -0.2543983195636489 -0.3565238255488123
atom 1.2744025328003397 1.2744073262829310 3.6142318818368628 O
    velocity -0.1570698757904701 0.4212031503512570 -0.4778264168566427
atom 3.8232074603933399 3.8232220266219321 3.6142318901378605 O
    velocity -1.5729109147844120 0.6413696281281008 0.6479480499516748
atom 6.3720123879863388 6.3720367269609302 3.6142318984388604 O
    velocity -0.8995700942867689 0.2662647166809309 0.5057510198844734
atom 8.9208173155793382 8.9208514272999331 3.6142319067398629 O
    velocity -0.2275389448889990 0.1593728356431112 0.0485285378503336
atom 8.9208171999373391 3.8232221422639325 3.6142319475928604 O
    velocity 0.1082876426969911 -0.1173493712389136 -0.0122514659279835
atom 1.2744026484423396 6.3720366113189302 3.6142318409838605 O
    velocity -1.5833856278171223 -0.1432365017315698 0.3824936057010885
atom 3.8232075760353399 8.9208513116579322 3.6142318492848604 O
    velocity 0.4133265257263906 0.7561237977280897 0.6661830742948683
atom 6.3720122723443389 1.2744074419249318 3.6142319392918605 O
    velocity -0.7332426886067362 -0.5547249069985004 1.3332571816702605
atom 1.2744025915123398 1.2744072845359309 8.8378568781408617 O
    velocity -0.2072572763630507 -0.0850040437735837 -0.0255440987176173
atom 3.8232075191053396 3.8232219848749307 8.8378568864418625 O
    velocity -0.2015201086458246 0.9725530828420120 0.0217605284149378
atom 6.3720124466983394 6.3720366852139296 8.8378568947428615 O
    velocity -0.1512650672712637 -0.5158987558580852 0.0934192749048550
atom 8.9208173742913388 8.9208513855529308 8.8378569030438623 O
    velocity -0.1654275004014405 0.0114352262256253 -0.1411598172499495
atom 8.9208172586493397 3.8232221005169307 8.8378569438968615 O
    velocity -0.5562125693938517 0.8121050082474800 -0.1699492013448594
atom 1.2744027071543398 6.3720365695719297 8.8378568372878608 O
    velocity -0.3373197938961469 -0.7148861020126548 -0.7209460763414826
atom 3.8232076347473396 8.9208512699109299 8.8378568455888615 O
    velocity 0.4668907628092112 0.3285529298055737 0.8975224863665043
atom 6.3720123310563395 1.2744074001779317 8.8378569355958625 O
    velocity 0.5798672954239638 -0.0752161042620814 0.4414960307791598
atom 8.9208170733548702 1.2744075145374427 1.6093931900202194 O
    velocity 0.4175068387344519 0.3143870255627882 1.1342975257200525
atom 1.2744025218598707 3.8232219835924428 1.6093930834112193 O
    velocity -0.2916091908796600 0.0135619366358377 -0.0720526021126030
atom 3.8232074494528705 6.3720366839314417 1.6093930917122194 O
    velocity 0.5763113817316449 0.0742166884345918 -0.1835506456906310
atom 6.3720123770458708 8.9208513842704420 1.6093931000132193 O
    velocity -0.8493494159590799 -1.3485627546786598 0.7721923190998212
atom 6.3720122614038708 3.8232220992344428 1.6093931408662194 O
    velocity 0.5233189964447925 -0.8325547623886469 0.1177021707144079
atom 8.9208171889968693 6.3720367995734417 1.6093931491672195 O
    velocity 0.5244496031875637 0.4975163284206963 1.3002062803083791
atom 1.2744026375018709 8.9208512686284411 1.6093930425582195 O
    velocity 0.4707590891451179 0.0609135909053647 0.3287070016482805
atom 3.8232073338108705 1.2744073988954427 1.6093931325652195 O
    velocity -0.2445671285416317 0.5020670353886131 1.0712628544436806
atom 8.9208171320668708 1.2744074727904426 6.8330181863242210 O
    velocity -1.2066465774122062 0.3645480793307868 -0.7021014260832189
atom 1.2744025805718706 3.8232219418454427 6.8330180797152211 O
    velocity 0.4693501302318295 1.2180254745773491 -0.0042806268473335
atom 3.8232075081648702 6.3720366421844421 6.8330180880162210 O
    velocity -0.4878319024444149 0.4091810247216298 -0.3818210824095742
atom 6.3720124357578705 8.9208513425234468 6.8330180963172182 O
    velocity -1.3205997158200198 0.6333051732880733 -1.0229659955061816
atom 6.3720123201158705 3.8232220574874427 6.8330181371702210 O
    velocity 0.7264775933101089 0.3245649793861921 1.4827751418355826
atom 8.9208172477088699 6.3720367578264421 6.8330181454712182 O
    velocity -0.1231377957395685 1.1411681994344931 0.2106591972980731
atom 1.2744026962138708 8.9208512268814424 6.8330180388622210 O
    velocity 0.3039055915034164 -1.0973162127879181 -0.9804662972905616
atom 3.8232073925228702 1.2744073571484427 6.8330181288692211 O
    velocity 0.7343027014527508 1.1832791926368349 -0.9188071407775118
atom 8.9208171446055804 1.2744075206278507 4.2212060890279766 O
    velocity 0.8967664329815438 -1.1437261109836638 0.6798944287995649
atom 1.2744025931105816 3.8232219896828519 4.2212059824189767 O
    velocity -1.0419198600374353 0.2126459850655679 0.8928230439026111
atom 3.8232075207035812 6.3720366900218508 4.2212059907199766 O
    velocity -0.3611080832434008 -0.9391346084288107 -1.3686954357344667
atom 6.3720124482965810 8.9208513903608502 4.2212059990209765 O
    velocity 0.0365473408882704 0.4953803429688370 -0.9606105411627348
atom 6.3720123326545810 3.8232221053248518 4.2212060398739766 O
    velocity -0.2506907644087351 -0.3956535831218700 1.0344276276045523
atom 8.9208172602475813 6.3720368056638508 4.2212060481749765 O
    velocity -1.5498610725306012 0.5999558584125840 -0.7944457466987569
atom 1.2744027087525815 8.9208512747188546 4.2212059415659766 O
    velocity -0.0908249118369181 -0.6552574574039400 -0.1634905166503186
atom 3.8232074050615812 1.2744074049858531 4.2212060315729767 O
    velocity 0.4411975744465876 0.0297670895662947 0.8846933036772417
atom 8.9208172033175792 1.2744074788808506 9.4448310853319768 O
    velocity -0.5930777385189027 0.0296421243564388 -0.2484588171679249
atom 1.2744026518225815 3.8232219479358527 9.4448309787229778 O
    velocity -0.2742452506643452 -0.0640945694588787 0.6787868364339331
atom 3.8232075794155813 6.3720366482748485 9.4448309870239768 O
    velocity -0.5448106478663415 0.7926133566479944 0.1727235366774826
atom 6.3720125070085816 8.9208513486138497 9.4448309953249776 O
    velocity -0.1811969831061472 -0.1660633311550549 -1.5158365750872858
atom 6.3720123913665816 3.8232220635778527 9.4448310361779768 O
    velocity 0.0894693874901912 0.2895821833793616 -0.6560702270447799
atom 8.9208173189595801 6.3720367639168485 9.4448310444789776 O
    velocity -1.0246536860031725 -0.1498947279118476 -1.3454960871599473
atom 1.2744027674645815 8.9208512329718506 9.4448309378699769 O
    velocity -0.6168795593833847 1.7899261154075097 1.1070379352329218
atom 3.8232074637735813 1.2744073632388531 9.4448310278769778 O
    velocity 0.4851773796275009 -0.8176326804072189 -0.6182615021448014
