#=======================================================
# FHI-aims file: /raven/u/mlang/gknet-aims/verdi_monoclinic/relaxation/relaxation/geometry.in.next_step
# Created using the Atomic Simulation Environment (ASE)
# Wed Jul 20 14:08:08 2022

# Additional information:
#  Relaxed with BFGS, fmax=1.000 meV/AA
#  nsteps = 28
#  residual force  = 0.860772 meV/AA
#  residual stress = 0.275318 meV/AA
#=======================================================
lattice_vector 5.1348113736440002 -0.0000000000000000 0.0059927344610000 
lattice_vector -0.0000000000000000 5.2148061878230001 -0.0000000000000000 
lattice_vector -0.8784025725590000 -0.0000000000000000 5.2323411215910003 
atom_frac 0.2766888863420000 0.0426589478760000 0.2099973824350000 Zr
atom_frac 0.7233110566580000 0.9573410521240001 0.7900026315650001 Zr
atom_frac 0.7233110566580000 0.5426589478760001 0.2900026315650000 Zr
atom_frac 0.2766888863420000 0.4573410521240000 0.7099973824350000 Zr
atom_frac 0.0694655203460000 0.3349073226360000 0.3426784811360001 O
atom_frac 0.9305344226540000 0.6650926773640000 0.6573215328640001 O
atom_frac 0.9305344226540000 0.8349073226360001 0.1573215328640000 O
atom_frac 0.0694655203460000 0.1650926773640000 0.8426784811360002 O
atom_frac 0.4492283732750000 0.7574305288080000 0.4792091995290000 O
atom_frac 0.5507715697250000 0.2425694711920000 0.5207908144710001 O
atom_frac 0.5507715697250000 0.2574305288080000 0.0207908144710000 O
atom_frac 0.4492283732750000 0.7425694711920001 0.9792091995290003 O