#=======================================================
# FHI-aims file: 600_geometry.in.primitive.supercell_96.0010K
# Created using the Atomic Simulation Environment (ASE)
# Sat Nov 26 17:29:02 2022

# Additional information:
#  created from MB distrubtion
#  T = 10.0 K
#  quantum:             False
#  deterministic:       False
#  plus_minus:          False
#  gauge_eigenvectors:  False
#  Random seed:         636984768
#  Sample number:       1
#=======================================================
lattice_vector 10.3219999999999992 0.0000000000000000 0.0000000000000000 
lattice_vector 0.0000000000000000 10.4260000000000002 0.0000000000000000 
lattice_vector -1.6980887627861929 0.0000000000000000 10.5238821047035334 
atom 1.2496942447473678 0.2223810952775880 1.1049938475211403 Zr
    velocity -0.1265125741689149 0.1021273428248785 -0.0310444832328340
atom 6.4106942447473694 0.2223810952775880 1.1049938475211403 Zr
    velocity -0.0751944119898527 0.4142318966139059 0.3603445904410220
atom 1.2496942447473678 5.4353810952775881 1.1049938475211403 Zr
    velocity 0.0685276978315152 0.1030877530984213 -0.0373723370349491
atom 6.4106942447473694 5.4353810952775881 1.1049938475211403 Zr
    velocity -0.3130229588857414 0.1425334732087936 -0.7876487941894452
atom 0.4006498633542713 0.2223810952775880 6.3669348998729074 Zr
    velocity 0.0356153810608493 -0.3781214355239664 0.1157739351798986
atom 5.5616498633542726 0.2223810952775880 6.3669348998729074 Zr
    velocity 0.2248694458692065 -0.2419586139525273 -0.2281108434816085
atom 0.4006498633542713 5.4353810952775881 6.3669348998729074 Zr
    velocity 0.0911250702858169 0.1676915444679402 0.0889733441818347
atom 5.5616498633542726 5.4353810952775881 6.3669348998729074 Zr
    velocity 0.2535351818934699 0.1650576043454540 0.0069105770858763
atom 3.0622610677959150 4.9906189047224121 4.1569472784978005 Zr
    velocity 0.1695406750375319 -0.3574422060517866 0.1201716159414332
atom 8.2232610677959137 4.9906189047224121 4.1569472784978005 Zr
    velocity 0.1746590855792560 0.3642526275343795 -0.0710591162445892
atom 3.0622610677959150 10.2036189047224113 4.1569472784978005 Zr
    velocity 0.0776048884071316 -0.0441999957259162 -0.3850624940233113
atom 8.2232610677959137 10.2036189047224113 4.1569472784978005 Zr
    velocity -0.1807169701500654 -0.3486400006642643 0.1402826618680503
atom 2.2132166864028182 4.9906189047224121 9.4188883308495690 Zr
    velocity -0.0935796425727576 -0.0168904555196574 0.1312373213101701
atom 7.3742166864028178 4.9906189047224121 9.4188883308495690 Zr
    velocity -0.2462093223177474 -0.0115173587836662 -0.2371500341481396
atom 2.2132166864028182 10.2036189047224113 9.4188883308495690 Zr
    velocity 0.1593689163005331 0.1540655722345599 0.0549122330046493
atom 7.3742166864028178 10.2036189047224113 9.4188883308495690 Zr
    velocity 0.2229360979260351 0.0569323610441312 0.7189412153354348
atom 3.4867832584924630 2.8288810952775894 1.5259767523219190 Zr
    velocity -0.3484517478098598 0.3529884527359890 0.5978788317248552
atom 8.6477832584924634 2.8288810952775894 1.5259767523219190 Zr
    velocity -0.1375711849111938 0.0496667900392568 0.1072667096852151
atom 3.4867832584924630 8.0418810952775885 1.5259767523219190 Zr
    velocity 0.3662012008601700 0.4233399664360702 0.3335012738583554
atom 8.6477832584924634 8.0418810952775885 1.5259767523219190 Zr
    velocity -0.0998351738582462 0.1073045236674128 -0.3272595818124929
atom 2.6377388770993666 2.8288810952775894 6.7879178046736852 Zr
    velocity 0.3972059232313218 -0.1969693251492698 -0.1224976770462608
atom 7.7987388770993658 2.8288810952775894 6.7879178046736852 Zr
    velocity 0.0608010395697112 -0.4303745963747546 -0.0449783916494763
atom 2.6377388770993666 8.0418810952775885 6.7879178046736852 Zr
    velocity 0.4341424192231060 0.1600847983754558 0.0245319523304166
atom 7.7987388770993658 8.0418810952775885 6.7879178046736852 Zr
    velocity 0.1258411137881579 -0.2513047360293335 0.5963415505714028
atom 0.8251720540508204 2.3841189047224121 3.7359643736970249 Zr
    velocity -0.1934726114815798 0.4425502743950299 0.6550904764787834
atom 5.9861720540508205 2.3841189047224121 3.7359643736970249 Zr
    velocity -0.0347101818815338 0.0485466926820353 0.1677380347908080
atom 0.8251720540508204 7.5971189047224117 3.7359643736970249 Zr
    velocity 0.3196314649878126 -0.0063083622174250 -0.2250305360441733
atom 5.9861720540508205 7.5971189047224117 3.7359643736970249 Zr
    velocity -0.0827854597692972 -0.4009612191422429 -0.0340830205215315
atom -0.0238723273422760 2.3841189047224121 8.9979054260487903 Zr
    velocity 0.0334313168809075 0.2451625094423126 -0.0124731789718543
atom 5.1371276726577246 2.3841189047224121 8.9979054260487903 Zr
    velocity -0.3827121229668998 -0.4543636652418920 0.3222956294284246
atom -0.0238723273422760 7.5971189047224117 8.9979054260487903 Zr
    velocity 0.2652044721360147 -0.0069115185018810 0.1902584136839420
atom 5.1371276726577246 7.5971189047224117 8.9979054260487903 Zr
    velocity -0.1417229458927464 -0.3315942055785242 -0.8680279834768899
atom 0.0675623114728648 1.7458718729014679 1.8031539676470698 O
    velocity -0.3162370219336881 0.1078085229945306 -0.6460560303510861
atom 5.2285623114728645 1.7458718729014679 1.8031539676470698 O
    velocity -1.7132205746088822 -0.3496638971423543 -0.9107385509242859
atom 0.0675623114728648 6.9588718729014678 1.8031539676470698 O
    velocity 0.4877770894836230 0.8103101778164016 -0.6018520004129959
atom 5.2285623114728645 6.9588718729014678 1.8031539676470698 O
    velocity 0.4083917824298813 -0.0692670397352241 -0.4483115731545937
atom -0.7814820699202317 1.7458718729014679 7.0650950199988367 O
    velocity 0.7770746335274052 0.0191557391044900 0.4830205383433104
atom 4.3795179300797678 1.7458718729014679 7.0650950199988367 O
    velocity 0.0157301788023376 -0.8139859073948664 -0.7500859941257079
atom -0.7814820699202317 6.9588718729014678 7.0650950199988367 O
    velocity -0.0379439424080234 0.1486699389397778 -0.8544534629144365
atom 4.3795179300797678 6.9588718729014678 7.0650950199988367 O
    velocity 0.5932926282283154 0.6775067085848747 0.0253142423578060
atom 4.2443930010704163 3.4671281270985324 3.4587871583718734 O
    velocity 0.9008936205453485 1.1486676200623651 0.0541390789592635
atom 9.4053930010704168 3.4671281270985324 3.4587871583718734 O
    velocity -0.4752632885837593 0.7466971694027357 -0.5566649426394815
atom 4.2443930010704163 8.6801281270985324 3.4587871583718734 O
    velocity -0.3315744503226543 0.0479583126490843 -0.5696624748934090
atom 9.4053930010704168 8.6801281270985324 3.4587871583718734 O
    velocity -0.1553166734993827 0.7581796342638142 0.4416437044777574
atom 3.3953486196773204 3.4671281270985324 8.7207282107236388 O
    velocity 0.2953987515561716 -0.5277158576273769 1.1728856308307829
atom 8.5563486196773191 3.4671281270985324 8.7207282107236388 O
    velocity -0.5824318745554762 0.2799872614573407 -0.0322057147285300
atom 3.3953486196773204 8.6801281270985324 8.7207282107236388 O
    velocity 0.0698692542468988 -1.2796133965497742 0.2470401946232127
atom 8.5563486196773191 8.6801281270985324 8.7207282107236388 O
    velocity -0.4260158283774068 0.7510549101520907 0.5771467125528499
atom 4.6689151917669651 4.3523718729014682 0.8278166321959892 O
    velocity 0.6779709733909309 -0.6780972367001218 -0.6028805894178773
atom 9.8299151917669647 4.3523718729014682 0.8278166321959892 O
    velocity 0.1337157033866356 -0.3171524196597083 0.5275953307228741
atom 4.6689151917669651 9.5653718729014674 0.8278166321959892 O
    velocity -0.0477941291478184 -0.1216555819174671 0.0155360697278711
atom 9.8299151917669647 9.5653718729014674 0.8278166321959892 O
    velocity -1.2799828897464132 -0.4021239124883066 -0.3290170409636522
atom 3.8198708103738683 4.3523718729014682 6.0897576845477559 O
    velocity -0.9723614616481445 0.2354385189022674 -0.3450928626144750
atom 8.9808708103738688 4.3523718729014682 6.0897576845477559 O
    velocity 0.5290055344439328 -0.2742432452687150 -0.3585908409208550
atom 3.8198708103738683 9.5653718729014674 6.0897576845477559 O
    velocity -2.1580019611303189 0.5119648314238489 -0.0468144566264335
atom 8.9808708103738688 9.5653718729014674 6.0897576845477559 O
    velocity -0.0285870575789004 0.2710928398731086 -0.1349827889930722
atom -0.3569598792236837 0.8606281270985320 4.4341244938229547 O
    velocity -1.5056601308490802 -0.6228333121022489 0.7537537193580413
atom 4.8040401207763157 0.8606281270985320 4.4341244938229547 O
    velocity 0.0235521544020090 0.2430718443288233 -1.1028146649843873
atom -0.3569598792236837 6.0736281270985319 4.4341244938229547 O
    velocity -0.5201043193447937 -0.2890808179827196 -1.0282500919109872
atom 4.8040401207763157 6.0736281270985319 4.4341244938229547 O
    velocity -1.1660723457195818 0.7378433883644088 1.0602971859127726
atom -1.2060042606167800 0.8606281270985320 9.6960655461747205 O
    velocity -0.2656163974719379 -0.5773121643866784 -0.3248940495845891
atom 3.9549957393832194 0.8606281270985320 9.6960655461747205 O
    velocity -1.2498074836599649 -0.3119781045406066 0.7814874415392656
atom -1.2060042606167800 6.0736281270985319 9.6960655461747205 O
    velocity 1.4732856099409828 -0.7527051826335890 -0.2287044215811034
atom 3.9549957393832194 6.0736281270985319 9.6960655461747205 O
    velocity 0.2219850290910266 -0.2276171456658810 -0.1427649640043165
atom 1.9115977561002941 3.9484853466761041 2.5215705596662739 O
    velocity -0.5133268824627162 0.0523777145882362 0.1924623895918433
atom 7.0725977561002935 3.9484853466761041 2.5215705596662739 O
    velocity 1.2368513703557040 1.9981328381079899 -0.6425687252388791
atom 1.9115977561002941 9.1614853466761037 2.5215705596662739 O
    velocity -0.2721328430377509 0.3263199199052466 0.3686429341867816
atom 7.0725977561002935 9.1614853466761037 2.5215705596662739 O
    velocity 0.6228474630278377 -0.0935878088027400 0.8601264057810292
atom 1.0625533747071976 3.9484853466761041 7.7835116120180405 O
    velocity 1.0045774841484554 0.1516533747102604 0.1601428166926585
atom 6.2235533747071985 3.9484853466761041 7.7835116120180405 O
    velocity 1.0020479252161574 -1.1197107266878241 0.6898220194105116
atom 1.0625533747071976 9.1614853466761037 7.7835116120180405 O
    velocity -1.4797404897706725 0.3684672104827639 -0.9550002017348581
atom 6.2235533747071985 9.1614853466761037 7.7835116120180405 O
    velocity 0.0248113189142696 -1.0058983035300810 -0.1237892316704013
atom 2.4003575564429873 1.2645146533238960 2.7403705663526683 O
    velocity 0.2323679270274888 1.0848353329697342 -0.4827599950972662
atom 7.5613575564429869 1.2645146533238960 2.7403705663526683 O
    velocity -0.6659437257508484 0.4991662915436668 -1.0094647861463679
atom 2.4003575564429873 6.4775146533238965 2.7403705663526683 O
    velocity -0.4229215613991023 0.8045185377198104 -0.0549184828118463
atom 7.5613575564429869 6.4775146533238965 2.7403705663526683 O
    velocity -0.6363576795026108 0.4042927901087907 0.4636936670838058
atom 1.5513131750498907 1.2645146533238960 8.0023116187044376 O
    velocity -0.8620059413143547 -1.3903366977915943 -0.0266038096388450
atom 6.7123131750498901 1.2645146533238960 8.0023116187044376 O
    velocity -0.8881101218070472 0.1679190818463761 0.2867895558433636
atom 1.5513131750498907 6.4775146533238965 8.0023116187044376 O
    velocity 0.9624148179285650 -0.1633661281879129 -0.8554241905869105
atom 6.7123131750498901 6.4775146533238965 8.0023116187044376 O
    velocity -0.0161142340960389 1.0169866345033638 -0.3869886093284358
atom 2.8248797471395357 1.3419853466761040 0.1094000401767841 O
    velocity 0.3433484348330611 -0.4920668782702174 -0.9592938750892870
atom 7.9858797471395375 1.3419853466761040 0.1094000401767841 O
    velocity 0.1417462202723000 -1.2619954709019090 -0.4475691518891169
atom 2.8248797471395357 6.5549853466761032 0.1094000401767841 O
    velocity 0.4050554611426155 -0.4545887060837245 -0.4590548418339243
atom 7.9858797471395375 6.5549853466761032 0.1094000401767841 O
    velocity 0.5570679548973525 -1.5166336335320962 1.7665901939076134
atom 1.9758353657464394 1.3419853466761040 5.3713410925285512 O
    velocity -0.5477022322001593 -0.0728454006498491 0.0450140957358197
atom 7.1368353657464407 1.3419853466761040 5.3713410925285512 O
    velocity -0.1251042755471796 1.5695286734153229 -0.1198783694056860
atom 1.9758353657464394 6.5549853466761032 5.3713410925285512 O
    velocity -0.8203461298117963 -0.3974898421800679 -1.0851084621797211
atom 7.1368353657464407 6.5549853466761032 5.3713410925285512 O
    velocity -0.1680509241183187 0.8620868526826587 -1.1809856093820559
atom 1.4870755654037455 3.8710146533238974 5.1525410858421594 O
    velocity -0.9447282223012708 -0.8596692673263333 -0.8390453135402267
atom 6.6480755654037447 3.8710146533238974 5.1525410858421594 O
    velocity -0.1064634558406368 -0.9839551689587848 -0.1981419268144075
atom 1.4870755654037455 9.0840146533238961 5.1525410858421594 O
    velocity 1.4833644449201988 0.6541281965102163 1.6231536033008751
atom 6.6480755654037447 9.0840146533238961 5.1525410858421594 O
    velocity 0.1721067533495900 -0.3300506416937425 0.9885345505520529
atom 0.6380311840106497 3.8710146533238974 10.4144821381939270 O
    velocity 0.9207591791867020 0.4675234670088542 -0.0521669029059723
atom 5.7990311840106497 3.8710146533238974 10.4144821381939270 O
    velocity 0.4487412176905649 -1.2534700843273516 1.0320146526258847
atom 0.6380311840106497 9.0840146533238961 10.4144821381939270 O
    velocity 0.7074943920139299 0.5594922457009669 -0.9684888452300697
atom 5.7990311840106497 9.0840146533238961 10.4144821381939270 O
    velocity -1.0097464711929278 0.4020534515889589 -1.2849253027846617
