#=======================================================
# FHI-aims file: 1650_geometry.in.primitive.supercell_2592.0010K
# Created using the Atomic Simulation Environment (ASE)
# Tue Nov 15 14:10:58 2022

# Additional information:
#  created from MB distrubtion
#  T = 10.0 K
#  quantum:             False
#  deterministic:       False
#  plus_minus:          False
#  gauge_eigenvectors:  False
#  Random seed:         2063516004
#  Sample number:       1
#=======================================================
lattice_vector 30.9886467517198980 0.0000000000000000 0.0000000000000000 
lattice_vector 0.0000000000000000 30.9886467517198980 0.0000000000000000 
lattice_vector 0.0000000000000000 0.0000000000000000 31.7688118649909086 
atom 2.5823872293099903 0.0000000000000000 0.0000000000000000 Zr
    velocity -0.0488651908506414 0.2914470599306126 0.1985187949722951
atom 7.7471616879299745 0.0000000000000000 0.0000000000000000 Zr
    velocity -0.0679193813573996 -0.0060801381861554 -0.5886858482554964
atom 12.9119361465499551 0.0000000000000000 0.0000000000000000 Zr
    velocity -0.2238156161667502 0.1799521274515609 0.3916489074332726
atom 18.0767106051699393 0.0000000000000000 0.0000000000000000 Zr
    velocity 0.3916192057819068 0.0180861409608772 0.3883630387990376
atom 23.2414850637899200 0.0000000000000000 0.0000000000000000 Zr
    velocity -0.2874717620891177 0.2092529098376128 -0.5150881409190626
atom 28.4062595224099006 0.0000000000000000 0.0000000000000000 Zr
    velocity -0.0834253814036383 -0.3869287425294434 -0.1158372774995724
atom 2.5823872293099903 5.1647744586199806 0.0000000000000000 Zr
    velocity -0.0775994581396863 -0.0461636493445572 0.0899086831484936
atom 7.7471616879299745 5.1647744586199806 0.0000000000000000 Zr
    velocity 0.3786329787638332 -0.2121917658321985 -0.2506047785374236
atom 12.9119361465499551 5.1647744586199806 0.0000000000000000 Zr
    velocity 0.3184652657696496 0.2960180426801760 0.2815218727634355
atom 18.0767106051699393 5.1647744586199806 0.0000000000000000 Zr
    velocity 0.1258910561032744 -0.1032943259161116 -0.1984917431885459
atom 23.2414850637899200 5.1647744586199806 0.0000000000000000 Zr
    velocity -0.1162781690779654 -0.2487470831041021 0.2114051140769936
atom 28.4062595224099006 5.1647744586199806 0.0000000000000000 Zr
    velocity 0.2174804887473548 0.4103151871687050 -0.4514922747411922
atom 2.5823872293099903 10.3295489172399648 0.0000000000000000 Zr
    velocity 0.6270774928345356 -0.1994690004705167 -0.4612153973745474
atom 7.7471616879299745 10.3295489172399648 0.0000000000000000 Zr
    velocity -0.1237967188203361 0.5501585841185964 -0.3953172384282710
atom 12.9119361465499551 10.3295489172399648 0.0000000000000000 Zr
    velocity -0.4599056925486655 -0.2773418657472662 -0.1961686707987084
atom 18.0767106051699393 10.3295489172399648 0.0000000000000000 Zr
    velocity 0.2903666180927446 0.1654204299897797 0.1337761742581878
atom 23.2414850637899200 10.3295489172399648 0.0000000000000000 Zr
    velocity -0.0145441084516862 -0.1328935161054160 -0.3484652457769716
atom 28.4062595224099006 10.3295489172399648 0.0000000000000000 Zr
    velocity -0.0082989830185560 0.1859550440352419 -0.1323469985258976
atom 2.5823872293099903 15.4943233758599455 0.0000000000000000 Zr
    velocity 0.8094040767209477 -0.2739512751256082 0.0357486576704765
atom 7.7471616879299745 15.4943233758599455 0.0000000000000000 Zr
    velocity 0.0896271676565651 0.2227576777904129 0.4352154040521331
atom 12.9119361465499551 15.4943233758599455 0.0000000000000000 Zr
    velocity -0.2639552570582004 0.4277620271521926 -0.2936065482308083
atom 18.0767106051699393 15.4943233758599455 0.0000000000000000 Zr
    velocity 0.0124802218237197 0.1169463528750215 -0.2460166098746994
atom 23.2414850637899200 15.4943233758599455 0.0000000000000000 Zr
    velocity 0.0696216618438727 0.3860880012168468 -0.1576322642936556
atom 28.4062595224099006 15.4943233758599455 0.0000000000000000 Zr
    velocity -0.3584949143993224 0.2563504369594000 0.2742612997654214
atom 2.5823872293099903 20.6590978344799261 0.0000000000000000 Zr
    velocity 0.0163362077987478 0.2107111722625516 -0.1257339734965884
atom 7.7471616879299745 20.6590978344799261 0.0000000000000000 Zr
    velocity 0.2985947833916332 0.2033356067597244 -0.0248580656444056
atom 12.9119361465499551 20.6590978344799261 0.0000000000000000 Zr
    velocity 0.0086219000878687 -0.2842191482547669 -0.2678544481222218
atom 18.0767106051699393 20.6590978344799261 0.0000000000000000 Zr
    velocity 0.0055634333308617 -0.3572015349830664 0.1079824234356924
atom 23.2414850637899200 20.6590978344799261 0.0000000000000000 Zr
    velocity 0.2147094200077728 -0.3400026080574674 -0.4897388335917807
atom 28.4062595224099006 20.6590978344799261 0.0000000000000000 Zr
    velocity -0.0760058274271941 -0.3143502378764113 -0.2021156313332212
atom 2.5823872293099903 25.8238722930999138 0.0000000000000000 Zr
    velocity 0.0697105036614915 0.2459673197942657 -0.0007619868122573
atom 7.7471616879299745 25.8238722930999138 0.0000000000000000 Zr
    velocity 0.2823490748467756 -0.1326686078089569 -0.1480395118679403
atom 12.9119361465499551 25.8238722930999138 0.0000000000000000 Zr
    velocity 0.0008851984640378 0.7336142663073304 -0.1574756434657479
atom 18.0767106051699393 25.8238722930999138 0.0000000000000000 Zr
    velocity 0.0108784830448956 -0.1183945548784275 -0.1297949642341385
atom 23.2414850637899200 25.8238722930999138 0.0000000000000000 Zr
    velocity -0.1113275745389501 0.0373458447526723 0.0630538003058463
atom 28.4062595224099006 25.8238722930999138 0.0000000000000000 Zr
    velocity -0.2144077584213675 -0.1849559673300181 -0.4189496082756873
atom 2.5823872293099903 0.0000000000000000 5.2948019774984862 Zr
    velocity 0.1703174727574183 0.2852401819109283 0.6919420773164876
atom 7.7471616879299745 0.0000000000000000 5.2948019774984862 Zr
    velocity 0.3153700838606883 -0.0953234503560666 0.4065362130100763
atom 12.9119361465499551 0.0000000000000000 5.2948019774984862 Zr
    velocity -0.3986186163295440 -0.3186720563894214 0.2383842951688698
atom 18.0767106051699393 0.0000000000000000 5.2948019774984862 Zr
    velocity -0.1385365432290526 0.2053957698894088 -0.0768998622277534
atom 23.2414850637899200 0.0000000000000000 5.2948019774984862 Zr
    velocity -0.2424623070106598 -0.2080394761445481 0.6454534543018445
atom 28.4062595224099006 0.0000000000000000 5.2948019774984862 Zr
    velocity 0.3701085025297827 -0.4989202933980765 0.2176253255897285
atom 2.5823872293099903 5.1647744586199806 5.2948019774984862 Zr
    velocity -0.1744789442277684 0.1767437064414557 0.1571218010278283
atom 7.7471616879299745 5.1647744586199806 5.2948019774984862 Zr
    velocity 0.1252217203039400 -0.1181710250799650 0.1997750596252917
atom 12.9119361465499551 5.1647744586199806 5.2948019774984862 Zr
    velocity 0.8160418036202852 -0.5330436733377899 0.1787459720687103
atom 18.0767106051699393 5.1647744586199806 5.2948019774984862 Zr
    velocity -0.2114664450826143 -0.2442081085563400 0.1705044211601965
atom 23.2414850637899200 5.1647744586199806 5.2948019774984862 Zr
    velocity -0.2206563732601751 0.1973725646175353 -0.1806886892006325
atom 28.4062595224099006 5.1647744586199806 5.2948019774984862 Zr
    velocity -0.1594889761339094 0.0486567804246893 0.4717316804379541
atom 2.5823872293099903 10.3295489172399648 5.2948019774984862 Zr
    velocity -0.2239621476853939 0.4423230390556787 -0.3534924559239844
atom 7.7471616879299745 10.3295489172399648 5.2948019774984862 Zr
    velocity -0.3513921618856304 0.3450470229620712 0.2611193755522255
atom 12.9119361465499551 10.3295489172399648 5.2948019774984862 Zr
    velocity -0.1571141886807447 0.1383207580964892 -0.0206324222209421
atom 18.0767106051699393 10.3295489172399648 5.2948019774984862 Zr
    velocity 0.4621200456764503 0.0270360672368589 0.4060506749846914
atom 23.2414850637899200 10.3295489172399648 5.2948019774984862 Zr
    velocity 0.2581514143971169 0.1246427686403178 -0.0480594349368415
atom 28.4062595224099006 10.3295489172399648 5.2948019774984862 Zr
    velocity 0.3064030639093986 -0.0023817290901809 0.4365185128638253
atom 2.5823872293099903 15.4943233758599455 5.2948019774984862 Zr
    velocity -0.2853938226527086 -0.0186211728091932 0.2093313618798582
atom 7.7471616879299745 15.4943233758599455 5.2948019774984862 Zr
    velocity 0.3267342292848145 -0.0956148612582321 -0.0862672584187251
atom 12.9119361465499551 15.4943233758599455 5.2948019774984862 Zr
    velocity 0.3990991379312304 0.8041815090371672 -0.3120339406575443
atom 18.0767106051699393 15.4943233758599455 5.2948019774984862 Zr
    velocity 0.2561663913268939 0.0924903275475801 -0.1866999746850342
atom 23.2414850637899200 15.4943233758599455 5.2948019774984862 Zr
    velocity -0.3831252049400626 0.0721102634623920 -0.4155139193931687
atom 28.4062595224099006 15.4943233758599455 5.2948019774984862 Zr
    velocity -0.2712555378806237 -0.2038949375180860 -0.3552867342662787
atom 2.5823872293099903 20.6590978344799261 5.2948019774984862 Zr
    velocity -0.2233860419073438 -0.0561201958649383 0.2199131196819304
atom 7.7471616879299745 20.6590978344799261 5.2948019774984862 Zr
    velocity 0.3185207214500526 0.1470815080802980 0.0375618925794020
atom 12.9119361465499551 20.6590978344799261 5.2948019774984862 Zr
    velocity 0.4366604993612849 -0.3260511874481902 0.1577440298100517
atom 18.0767106051699393 20.6590978344799261 5.2948019774984862 Zr
    velocity -0.0682908269614293 -0.1194305943068526 0.7954674020457526
atom 23.2414850637899200 20.6590978344799261 5.2948019774984862 Zr
    velocity 0.1437181539749897 0.1161484122135574 -0.0454744622458446
atom 28.4062595224099006 20.6590978344799261 5.2948019774984862 Zr
    velocity -0.2391727247125074 -0.2172613190042938 0.3652680645143064
atom 2.5823872293099903 25.8238722930999138 5.2948019774984862 Zr
    velocity 0.2619577736719432 0.0522186112285505 0.0225796532663381
atom 7.7471616879299745 25.8238722930999138 5.2948019774984862 Zr
    velocity 0.4910231742404093 -0.1115201649919020 0.2571360840165456
atom 12.9119361465499551 25.8238722930999138 5.2948019774984862 Zr
    velocity -0.2500618419885798 0.2916463820103197 -0.0842648053787196
atom 18.0767106051699393 25.8238722930999138 5.2948019774984862 Zr
    velocity -0.2803208870273680 0.4514558738664392 -0.0391035899013521
atom 23.2414850637899200 25.8238722930999138 5.2948019774984862 Zr
    velocity 0.0957310097638107 0.5955631721189242 0.3357130486868475
atom 28.4062595224099006 25.8238722930999138 5.2948019774984862 Zr
    velocity -0.0940086886320834 0.1772211644062124 0.0547765365384314
atom 2.5823872293099903 0.0000000000000000 10.5896039549969689 Zr
    velocity 0.0523747162655073 0.0164281506151820 0.2077471972783852
atom 7.7471616879299745 0.0000000000000000 10.5896039549969689 Zr
    velocity -0.2596200958434444 -0.3143468068065028 0.1412334019926833
atom 12.9119361465499551 0.0000000000000000 10.5896039549969689 Zr
    velocity 0.1971782846833419 0.4458150016054234 -0.1163092463715737
atom 18.0767106051699393 0.0000000000000000 10.5896039549969689 Zr
    velocity -0.1852107524736726 0.2370106914946394 0.0637029085064640
atom 23.2414850637899200 0.0000000000000000 10.5896039549969689 Zr
    velocity -0.3307347820773370 0.1111038803193962 -0.0974749154653219
atom 28.4062595224099006 0.0000000000000000 10.5896039549969689 Zr
    velocity 0.1119672026467762 0.1615767917312692 -0.3559827030574144
atom 2.5823872293099903 5.1647744586199806 10.5896039549969689 Zr
    velocity -0.6156700963663849 -0.3541817247078697 -0.3304489880531707
atom 7.7471616879299745 5.1647744586199806 10.5896039549969689 Zr
    velocity -0.4265335813526234 0.1547116152331487 0.5028206706760806
atom 12.9119361465499551 5.1647744586199806 10.5896039549969689 Zr
    velocity 0.6458051963969209 0.3987730854703091 -0.1113228942428070
atom 18.0767106051699393 5.1647744586199806 10.5896039549969689 Zr
    velocity 0.2237743773905072 -0.1600066142071645 0.1891363711787536
atom 23.2414850637899200 5.1647744586199806 10.5896039549969689 Zr
    velocity -0.1930466315029535 -0.1859579514467229 0.0000259265481509
atom 28.4062595224099006 5.1647744586199806 10.5896039549969689 Zr
    velocity 0.0290021131058402 0.2916719778167851 -0.2508746044680687
atom 2.5823872293099903 10.3295489172399648 10.5896039549969689 Zr
    velocity 0.3470821514451731 -0.0067644127134630 -0.3931950827704941
atom 7.7471616879299745 10.3295489172399648 10.5896039549969689 Zr
    velocity -0.5268642297726656 -0.1446688887680191 -0.5935955305869159
atom 12.9119361465499551 10.3295489172399648 10.5896039549969689 Zr
    velocity 0.2912408154711895 0.2014333584384047 -0.0610184708124641
atom 18.0767106051699393 10.3295489172399648 10.5896039549969689 Zr
    velocity 0.2148487838502755 0.3944796021486757 -0.1611605952075519
atom 23.2414850637899200 10.3295489172399648 10.5896039549969689 Zr
    velocity 0.3480009222215895 -0.3582864049566904 -0.5586094061567282
atom 28.4062595224099006 10.3295489172399648 10.5896039549969689 Zr
    velocity 0.2632517240251748 0.0748141300079407 0.1423095499144100
atom 2.5823872293099903 15.4943233758599455 10.5896039549969689 Zr
    velocity 0.0271268359731539 -0.6887412198950547 -0.3838983607046036
atom 7.7471616879299745 15.4943233758599455 10.5896039549969689 Zr
    velocity -0.2132257255196499 -0.2085063467998766 0.3921550031435038
atom 12.9119361465499551 15.4943233758599455 10.5896039549969689 Zr
    velocity -0.3897671807339760 -0.0769307658181379 -0.0287214036414947
atom 18.0767106051699393 15.4943233758599455 10.5896039549969689 Zr
    velocity -0.1020105320138694 0.2561590576318912 -0.0850315078832680
atom 23.2414850637899200 15.4943233758599455 10.5896039549969689 Zr
    velocity -0.2869294723963606 0.0508229891115851 0.0989473225409844
atom 28.4062595224099006 15.4943233758599455 10.5896039549969689 Zr
    velocity 0.1123996578883958 -0.3870991790171429 0.2971500088464429
atom 2.5823872293099903 20.6590978344799261 10.5896039549969689 Zr
    velocity -0.2630497677808870 0.1372371600485720 0.1835961257973443
atom 7.7471616879299745 20.6590978344799261 10.5896039549969689 Zr
    velocity 0.2655887553722563 -0.1267592201279857 -1.0075310835143563
atom 12.9119361465499551 20.6590978344799261 10.5896039549969689 Zr
    velocity -0.0570251274686413 0.0422801586120539 0.0868990733266442
atom 18.0767106051699393 20.6590978344799261 10.5896039549969689 Zr
    velocity 0.0380854517569984 0.1056063285566177 0.1904031322745007
atom 23.2414850637899200 20.6590978344799261 10.5896039549969689 Zr
    velocity -0.1328845452283958 0.1013674675332316 -0.2564050488099275
atom 28.4062595224099006 20.6590978344799261 10.5896039549969689 Zr
    velocity 0.1865646214273137 0.1154817542009499 0.0362219291491482
atom 2.5823872293099903 25.8238722930999138 10.5896039549969689 Zr
    velocity -0.1964533755819798 -0.4590284129925175 0.0951872843581341
atom 7.7471616879299745 25.8238722930999138 10.5896039549969689 Zr
    velocity -0.3620755488766614 -0.3096618378606643 0.1903212439897228
atom 12.9119361465499551 25.8238722930999138 10.5896039549969689 Zr
    velocity -0.1298607144906519 -0.3056688917210608 0.7121956473175899
atom 18.0767106051699393 25.8238722930999138 10.5896039549969689 Zr
    velocity 0.0668455694957247 -0.1856929167238730 -0.0226617766245452
atom 23.2414850637899200 25.8238722930999138 10.5896039549969689 Zr
    velocity 0.0544439796970318 -0.1881549835383456 -0.0832586032502429
atom 28.4062595224099006 25.8238722930999138 10.5896039549969689 Zr
    velocity -0.0440788729765082 0.3527549583559834 0.4781068186526546
atom 2.5823872293099903 0.0000000000000000 15.8844059324954507 Zr
    velocity -0.3492165979839434 -0.0633153535188024 0.3125259607063637
atom 7.7471616879299745 0.0000000000000000 15.8844059324954507 Zr
    velocity -0.3666434517182790 0.1505601274849874 -0.3014229050903382
atom 12.9119361465499551 0.0000000000000000 15.8844059324954507 Zr
    velocity -0.0239657818365408 0.0574093129045772 0.5999245743925443
atom 18.0767106051699393 0.0000000000000000 15.8844059324954507 Zr
    velocity -0.5178599443483737 -0.1979995803125889 0.1849903910669579
atom 23.2414850637899200 0.0000000000000000 15.8844059324954507 Zr
    velocity 0.2761588368723414 -0.1685071974564151 0.2328551115986407
atom 28.4062595224099006 0.0000000000000000 15.8844059324954507 Zr
    velocity -0.1716658198241401 0.0958115871142680 -0.2147946429834804
atom 2.5823872293099903 5.1647744586199806 15.8844059324954507 Zr
    velocity 0.6199927012058459 -0.1777594577190956 -0.2290856946414377
atom 7.7471616879299745 5.1647744586199806 15.8844059324954507 Zr
    velocity 0.2580308926074630 0.2278374037271894 0.1537838089090081
atom 12.9119361465499551 5.1647744586199806 15.8844059324954507 Zr
    velocity 0.0567401829800239 0.3779709562330134 -0.4191238487344462
atom 18.0767106051699393 5.1647744586199806 15.8844059324954507 Zr
    velocity -0.1072609565179499 0.1557620644539554 -0.6793266941809730
atom 23.2414850637899200 5.1647744586199806 15.8844059324954507 Zr
    velocity 0.0057841774920116 -0.1037248436287833 0.2104863632264341
atom 28.4062595224099006 5.1647744586199806 15.8844059324954507 Zr
    velocity 0.0337939658790664 0.1965576276018233 -0.3165153368596746
atom 2.5823872293099903 10.3295489172399648 15.8844059324954507 Zr
    velocity -0.2088493209367238 0.3355772520420906 0.1896451766638030
atom 7.7471616879299745 10.3295489172399648 15.8844059324954507 Zr
    velocity -0.0814638418743518 -0.4913919610108820 0.6461340277430433
atom 12.9119361465499551 10.3295489172399648 15.8844059324954507 Zr
    velocity -0.1958615866217087 -0.3212646757639840 0.0470226615700151
atom 18.0767106051699393 10.3295489172399648 15.8844059324954507 Zr
    velocity 0.0974735622152061 0.1792997697827674 -0.2874902888819046
atom 23.2414850637899200 10.3295489172399648 15.8844059324954507 Zr
    velocity 0.4048946509228695 0.6929156354424870 -0.2170815305890804
atom 28.4062595224099006 10.3295489172399648 15.8844059324954507 Zr
    velocity -0.1582071560436227 -0.0158947693033916 0.0213555853013103
atom 2.5823872293099903 15.4943233758599455 15.8844059324954507 Zr
    velocity 0.1570512839335780 0.2550889846259184 -0.5273432843811626
atom 7.7471616879299745 15.4943233758599455 15.8844059324954507 Zr
    velocity -0.1586764323134545 -0.2103753981070672 0.3755945992811450
atom 12.9119361465499551 15.4943233758599455 15.8844059324954507 Zr
    velocity 0.6440921439187336 -0.2311183554082065 0.2072563545188377
atom 18.0767106051699393 15.4943233758599455 15.8844059324954507 Zr
    velocity -0.5274937901502992 -0.0984943364730845 -0.4217913073023790
atom 23.2414850637899200 15.4943233758599455 15.8844059324954507 Zr
    velocity -0.1077343632261016 0.1592655848129627 0.6211881204786306
atom 28.4062595224099006 15.4943233758599455 15.8844059324954507 Zr
    velocity -0.1172002557879985 0.1842831744354448 -0.3207257305679677
atom 2.5823872293099903 20.6590978344799261 15.8844059324954507 Zr
    velocity 0.0290295028154602 -0.4268856215333969 0.4969839559286477
atom 7.7471616879299745 20.6590978344799261 15.8844059324954507 Zr
    velocity 0.0774001338819322 -0.3295475895367279 -0.2980076732054419
atom 12.9119361465499551 20.6590978344799261 15.8844059324954507 Zr
    velocity -0.2952450624297823 0.1097265878703406 -0.0773352785663341
atom 18.0767106051699393 20.6590978344799261 15.8844059324954507 Zr
    velocity -0.4898405217787529 0.0874927242609469 -0.2681981771425373
atom 23.2414850637899200 20.6590978344799261 15.8844059324954507 Zr
    velocity -0.1371754344567298 -0.1247733290669222 0.2334438244361725
atom 28.4062595224099006 20.6590978344799261 15.8844059324954507 Zr
    velocity -0.0462154002452276 0.3532689685703342 0.1120374352229138
atom 2.5823872293099903 25.8238722930999138 15.8844059324954507 Zr
    velocity 0.5001475851451431 -0.0569777834812062 -0.8515810884057436
atom 7.7471616879299745 25.8238722930999138 15.8844059324954507 Zr
    velocity 0.1155770671657043 -0.0506464039833743 0.2528963973066283
atom 12.9119361465499551 25.8238722930999138 15.8844059324954507 Zr
    velocity 0.7366420406418278 0.1148032939333357 0.3283590369327968
atom 18.0767106051699393 25.8238722930999138 15.8844059324954507 Zr
    velocity -0.2228787631081535 -0.2124707807088890 0.3260879228367053
atom 23.2414850637899200 25.8238722930999138 15.8844059324954507 Zr
    velocity 0.3804320706774414 -0.0374021687677033 0.2166062697706453
atom 28.4062595224099006 25.8238722930999138 15.8844059324954507 Zr
    velocity 0.1354999121046280 0.0055366384385583 0.1782621697791094
atom 2.5823872293099903 0.0000000000000000 21.1792079099939379 Zr
    velocity -0.5682012408775428 0.3080512930360782 -0.0362657452703153
atom 7.7471616879299745 0.0000000000000000 21.1792079099939379 Zr
    velocity -0.2894645854607424 0.3101948934627392 0.3347191870285172
atom 12.9119361465499551 0.0000000000000000 21.1792079099939379 Zr
    velocity -0.0123682827234988 -0.0480599904861227 -0.1490757018892259
atom 18.0767106051699393 0.0000000000000000 21.1792079099939379 Zr
    velocity -0.2731650107555069 0.4614218695831539 -0.0146835773134546
atom 23.2414850637899200 0.0000000000000000 21.1792079099939379 Zr
    velocity -0.7096335071257492 0.0457782320189976 0.2953033689760310
atom 28.4062595224099006 0.0000000000000000 21.1792079099939379 Zr
    velocity -0.2711222217888527 -0.2258665545283196 0.1949360543870009
atom 2.5823872293099903 5.1647744586199806 21.1792079099939379 Zr
    velocity 0.1373671162250295 0.1492744227724896 0.2733217680928341
atom 7.7471616879299745 5.1647744586199806 21.1792079099939379 Zr
    velocity 0.2190313793117379 0.1127786644738100 -0.0199019161021615
atom 12.9119361465499551 5.1647744586199806 21.1792079099939379 Zr
    velocity 0.5194434440661450 0.1270134847888916 0.2300920646296943
atom 18.0767106051699393 5.1647744586199806 21.1792079099939379 Zr
    velocity -0.4572464734343315 -0.3183733778357642 -0.5083850000732317
atom 23.2414850637899200 5.1647744586199806 21.1792079099939379 Zr
    velocity -0.4759672758243706 0.2588074969948077 0.3392629120722656
atom 28.4062595224099006 5.1647744586199806 21.1792079099939379 Zr
    velocity 0.0783708671784820 -0.4280849689427367 0.0827689561728446
atom 2.5823872293099903 10.3295489172399648 21.1792079099939379 Zr
    velocity 0.2592712484771196 0.5085529697720336 0.5783077244141529
atom 7.7471616879299745 10.3295489172399648 21.1792079099939379 Zr
    velocity -0.4165656096687159 0.0608234601700719 -0.3830267224680337
atom 12.9119361465499551 10.3295489172399648 21.1792079099939379 Zr
    velocity 0.0633181920033205 0.3654282607803199 -0.3976287601916195
atom 18.0767106051699393 10.3295489172399648 21.1792079099939379 Zr
    velocity -0.3220063675637269 -0.1743298876972597 -0.1907673931862098
atom 23.2414850637899200 10.3295489172399648 21.1792079099939379 Zr
    velocity 0.3037388653437276 -0.1918365167145483 0.0905064419586480
atom 28.4062595224099006 10.3295489172399648 21.1792079099939379 Zr
    velocity -0.0218692065305987 0.3983495298573576 0.4288602700261080
atom 2.5823872293099903 15.4943233758599455 21.1792079099939379 Zr
    velocity 0.0282911595983094 0.6763826936403988 -0.1235058935560955
atom 7.7471616879299745 15.4943233758599455 21.1792079099939379 Zr
    velocity 0.3614517605129365 0.2734511286049375 -0.0214935859642538
atom 12.9119361465499551 15.4943233758599455 21.1792079099939379 Zr
    velocity 0.0755378963583508 -0.6671431785001519 -0.1536474773108812
atom 18.0767106051699393 15.4943233758599455 21.1792079099939379 Zr
    velocity -0.2049713174097406 -0.4311826783091827 0.6517371368876796
atom 23.2414850637899200 15.4943233758599455 21.1792079099939379 Zr
    velocity 0.6310626818028612 -0.2426071263527114 -0.2110931614078268
atom 28.4062595224099006 15.4943233758599455 21.1792079099939379 Zr
    velocity -0.2745292267566434 0.5214048953670941 -0.1677935501017906
atom 2.5823872293099903 20.6590978344799261 21.1792079099939379 Zr
    velocity -0.0241620613355294 0.0339509868996101 0.5927009996395612
atom 7.7471616879299745 20.6590978344799261 21.1792079099939379 Zr
    velocity -0.2630771200399080 0.2803387029698917 -0.1194562173482948
atom 12.9119361465499551 20.6590978344799261 21.1792079099939379 Zr
    velocity -0.3103902631354495 -0.8080475806781764 -0.4107557931835386
atom 18.0767106051699393 20.6590978344799261 21.1792079099939379 Zr
    velocity 0.2201708522205330 0.0789880126284962 0.1383052790723567
atom 23.2414850637899200 20.6590978344799261 21.1792079099939379 Zr
    velocity 0.1454525136552910 0.2472851181882233 0.3082505360261952
atom 28.4062595224099006 20.6590978344799261 21.1792079099939379 Zr
    velocity 0.2251169054857916 0.4341782729355572 0.0606996408986041
atom 2.5823872293099903 25.8238722930999138 21.1792079099939379 Zr
    velocity 0.2008888506341331 -0.0324505869203311 0.1204630896483136
atom 7.7471616879299745 25.8238722930999138 21.1792079099939379 Zr
    velocity -0.2563428655411539 -0.5150708364325457 -0.1381195486787508
atom 12.9119361465499551 25.8238722930999138 21.1792079099939379 Zr
    velocity -0.1259220490674546 -0.7998213368896550 0.2037102654607009
atom 18.0767106051699393 25.8238722930999138 21.1792079099939379 Zr
    velocity -0.1660140154499662 0.1648918569657578 -0.2584676095912948
atom 23.2414850637899200 25.8238722930999138 21.1792079099939379 Zr
    velocity -0.3661767686825991 -0.4281037023150652 0.0731454795391455
atom 28.4062595224099006 25.8238722930999138 21.1792079099939379 Zr
    velocity 0.1800827025489329 -0.0298248462105215 0.0619795875188608
atom 2.5823872293099903 0.0000000000000000 26.4740098874924215 Zr
    velocity -0.2440128137609535 -0.6622019271067334 -0.5046581291040863
atom 7.7471616879299745 0.0000000000000000 26.4740098874924215 Zr
    velocity -0.5123231072776846 0.1533676046757513 -0.0960611008179289
atom 12.9119361465499551 0.0000000000000000 26.4740098874924215 Zr
    velocity 0.2501972627930993 -0.2142223780996772 -0.3021705111296309
atom 18.0767106051699393 0.0000000000000000 26.4740098874924215 Zr
    velocity 0.2487721970018748 -0.5827208852190322 -0.2990928461714507
atom 23.2414850637899200 0.0000000000000000 26.4740098874924215 Zr
    velocity -0.4916463315307957 -0.1331220991243881 -0.3995047737120020
atom 28.4062595224099006 0.0000000000000000 26.4740098874924215 Zr
    velocity -0.2261078355643212 -0.2502400691070635 0.0322866709412571
atom 2.5823872293099903 5.1647744586199806 26.4740098874924215 Zr
    velocity -0.1893421686082995 0.1299838943678278 0.6735451412638204
atom 7.7471616879299745 5.1647744586199806 26.4740098874924215 Zr
    velocity 0.1638193202840779 -0.0701098011670218 0.3429910008217192
atom 12.9119361465499551 5.1647744586199806 26.4740098874924215 Zr
    velocity -0.3999351636062297 0.0787395254924120 -0.2892475165581062
atom 18.0767106051699393 5.1647744586199806 26.4740098874924215 Zr
    velocity 0.3875141132842584 0.4314367675139480 0.2079005350049209
atom 23.2414850637899200 5.1647744586199806 26.4740098874924215 Zr
    velocity 0.1880031954574836 -0.0157073848767145 0.2962826247461084
atom 28.4062595224099006 5.1647744586199806 26.4740098874924215 Zr
    velocity 0.1395624488466305 -0.3917892000017094 0.0488995340742077
atom 2.5823872293099903 10.3295489172399648 26.4740098874924215 Zr
    velocity 0.2558354920874363 0.3812236791917163 0.0900971307592819
atom 7.7471616879299745 10.3295489172399648 26.4740098874924215 Zr
    velocity -0.2114519872731591 0.1854850384380911 -0.0646631236904394
atom 12.9119361465499551 10.3295489172399648 26.4740098874924215 Zr
    velocity -0.4450684666472088 0.0883616222347761 -0.1137018147989805
atom 18.0767106051699393 10.3295489172399648 26.4740098874924215 Zr
    velocity -0.0117658608892233 -0.2308163546231159 0.4004026850366220
atom 23.2414850637899200 10.3295489172399648 26.4740098874924215 Zr
    velocity -0.0427559493393682 -0.1728323975986727 -0.0743634015450990
atom 28.4062595224099006 10.3295489172399648 26.4740098874924215 Zr
    velocity -0.0144558858928231 0.4959239984259299 0.5094512815666514
atom 2.5823872293099903 15.4943233758599455 26.4740098874924215 Zr
    velocity 0.7289823883258617 -0.2879914810186753 -0.6765716095980533
atom 7.7471616879299745 15.4943233758599455 26.4740098874924215 Zr
    velocity 0.1145929092490187 -0.7459456026472198 0.0512422136948022
atom 12.9119361465499551 15.4943233758599455 26.4740098874924215 Zr
    velocity 0.1376758509611339 -0.0045040243782573 0.0754271214776878
atom 18.0767106051699393 15.4943233758599455 26.4740098874924215 Zr
    velocity -0.0832387182446581 0.0725742221390636 -0.0505644506937603
atom 23.2414850637899200 15.4943233758599455 26.4740098874924215 Zr
    velocity -0.2083583437914946 -0.0684398843555129 0.0008257447296250
atom 28.4062595224099006 15.4943233758599455 26.4740098874924215 Zr
    velocity 0.2365593499325513 0.0704978069066382 0.4550542604650942
atom 2.5823872293099903 20.6590978344799261 26.4740098874924215 Zr
    velocity 0.0516357043531928 -0.1291546181802875 -0.2153507770125203
atom 7.7471616879299745 20.6590978344799261 26.4740098874924215 Zr
    velocity -0.2988096858697899 0.3481175366272882 0.4312342035486675
atom 12.9119361465499551 20.6590978344799261 26.4740098874924215 Zr
    velocity -0.2915473674771705 -0.1739422201380677 0.3706964855617371
atom 18.0767106051699393 20.6590978344799261 26.4740098874924215 Zr
    velocity 0.0353246743557891 0.1347500956204240 0.0006334208035647
atom 23.2414850637899200 20.6590978344799261 26.4740098874924215 Zr
    velocity 0.2394473494535953 0.6987905400607954 -0.0275306888403484
atom 28.4062595224099006 20.6590978344799261 26.4740098874924215 Zr
    velocity 0.0489264969398632 0.0274557755757435 -0.1900838486637482
atom 2.5823872293099903 25.8238722930999138 26.4740098874924215 Zr
    velocity -0.1448517061393114 0.5757822255271332 0.3056707892378036