#=======================================================
# FHI-aims file: geometry.in
# Created using the Atomic Simulation Environment (ASE)
# Tue Oct 25 10:46:37 2022
#=======================================================
lattice_vector 15.4410000000000007 0.0000000000000000 0.0000000000000000 
lattice_vector 0.0000000000000000 15.6600000000000001 0.0000000000000000 
lattice_vector -2.5811362306628816 0.0000000000000000 15.7620595024495262 
atom 1.2434404139531590 0.2226797079127200 1.1033304124330392 Zr
atom 6.3904404139531588 0.2226797079127200 1.1033304124330392 Zr
atom 11.5374404139531581 0.2226797079127200 1.1033304124330392 Zr
atom 1.2434404139531590 5.4426797079127196 1.1033304124330392 Zr
atom 6.3904404139531588 5.4426797079127196 1.1033304124330392 Zr
atom 11.5374404139531581 5.4426797079127196 1.1033304124330392 Zr
atom 1.2434404139531590 10.6626797079127194 1.1033304124330392 Zr
atom 6.3904404139531588 10.6626797079127194 1.1033304124330392 Zr
atom 11.5374404139531581 10.6626797079127194 1.1033304124330392 Zr
atom 0.3830616703988650 0.2226797079127200 6.3573502465828824 Zr
atom 5.5300616703988652 0.2226797079127200 6.3573502465828824 Zr
atom 10.6770616703988637 0.2226797079127200 6.3573502465828824 Zr
atom 0.3830616703988650 5.4426797079127196 6.3573502465828824 Zr
atom 5.5300616703988652 5.4426797079127196 6.3573502465828824 Zr
atom 10.6770616703988637 5.4426797079127196 6.3573502465828824 Zr
atom 0.3830616703988650 10.6626797079127194 6.3573502465828824 Zr
atom 5.5300616703988652 10.6626797079127194 6.3573502465828824 Zr
atom 10.6770616703988637 10.6626797079127194 6.3573502465828824 Zr
atom -0.4773170731554288 0.2226797079127200 11.6113700807327245 Zr
atom 4.6696829268445725 0.2226797079127200 11.6113700807327245 Zr
atom 9.8166829268445710 0.2226797079127200 11.6113700807327245 Zr
atom -0.4773170731554288 5.4426797079127196 11.6113700807327245 Zr
atom 4.6696829268445725 5.4426797079127196 11.6113700807327245 Zr
atom 9.8166829268445710 5.4426797079127196 11.6113700807327245 Zr
atom -0.4773170731554288 10.6626797079127194 11.6113700807327245 Zr
atom 4.6696829268445725 10.6626797079127194 11.6113700807327245 Zr
atom 9.8166829268445710 10.6626797079127194 11.6113700807327245 Zr
atom 3.0431805370682485 4.9973202920872808 4.1506894952730793 Zr
atom 8.1901805370682457 4.9973202920872808 4.1506894952730793 Zr
atom 13.3371805370682441 4.9973202920872808 4.1506894952730793 Zr
atom 3.0431805370682485 10.2173202920872832 4.1506894952730793 Zr
atom 8.1901805370682457 10.2173202920872832 4.1506894952730793 Zr
atom 13.3371805370682441 10.2173202920872832 4.1506894952730793 Zr
atom 3.0431805370682485 15.4373202920872838 4.1506894952730793 Zr
atom 8.1901805370682457 15.4373202920872838 4.1506894952730793 Zr
atom 13.3371805370682441 15.4373202920872838 4.1506894952730793 Zr
atom 2.1828017935139545 4.9973202920872808 9.4047093294229214 Zr
atom 7.3298017935139512 4.9973202920872808 9.4047093294229214 Zr
atom 12.4768017935139497 4.9973202920872808 9.4047093294229214 Zr
atom 2.1828017935139545 10.2173202920872832 9.4047093294229214 Zr
atom 7.3298017935139512 10.2173202920872832 9.4047093294229214 Zr
atom 12.4768017935139497 10.2173202920872832 9.4047093294229214 Zr
atom 2.1828017935139545 15.4373202920872838 9.4047093294229214 Zr
atom 7.3298017935139512 15.4373202920872838 9.4047093294229214 Zr
atom 12.4768017935139497 15.4373202920872838 9.4047093294229214 Zr
atom 1.3224230499596608 4.9973202920872808 14.6587291635727635 Zr
atom 6.4694230499596577 4.9973202920872808 14.6587291635727635 Zr
atom 11.6164230499596588 4.9973202920872808 14.6587291635727635 Zr
atom 1.3224230499596608 10.2173202920872832 14.6587291635727635 Zr
atom 6.4694230499596577 10.2173202920872832 14.6587291635727635 Zr
atom 11.6164230499596588 10.2173202920872832 14.6587291635727635 Zr
atom 1.3224230499596608 15.4373202920872838 14.6587291635727635 Zr
atom 6.4694230499596577 15.4373202920872838 14.6587291635727635 Zr
atom 11.6164230499596588 15.4373202920872838 14.6587291635727635 Zr
atom 3.4733699088453918 2.8326797079127206 1.5236795781981589 Zr
atom 8.6203699088453920 2.8326797079127206 1.5236795781981589 Zr
atom 13.7673699088453905 2.8326797079127206 1.5236795781981589 Zr
atom 3.4733699088453918 8.0526797079127199 1.5236795781981589 Zr
atom 8.6203699088453920 8.0526797079127199 1.5236795781981589 Zr
atom 13.7673699088453905 8.0526797079127199 1.5236795781981589 Zr
atom 3.4733699088453918 13.2726797079127206 1.5236795781981589 Zr
atom 8.6203699088453920 13.2726797079127206 1.5236795781981589 Zr
atom 13.7673699088453905 13.2726797079127206 1.5236795781981589 Zr
atom 2.6129911652910978 2.8326797079127206 6.7776994123480021 Zr
atom 7.7599911652910984 2.8326797079127206 6.7776994123480021 Zr
atom 12.9069911652910942 2.8326797079127206 6.7776994123480021 Zr
atom 2.6129911652910978 8.0526797079127199 6.7776994123480021 Zr
atom 7.7599911652910984 8.0526797079127199 6.7776994123480021 Zr
atom 12.9069911652910942 8.0526797079127199 6.7776994123480021 Zr
atom 2.6129911652910978 13.2726797079127206 6.7776994123480021 Zr
atom 7.7599911652910984 13.2726797079127206 6.7776994123480021 Zr
atom 12.9069911652910942 13.2726797079127206 6.7776994123480021 Zr
atom 1.7526124217368040 2.8326797079127206 12.0317192464978415 Zr
atom 6.8996124217368049 2.8326797079127206 12.0317192464978415 Zr
atom 12.0466124217368034 2.8326797079127206 12.0317192464978415 Zr
atom 1.7526124217368040 8.0526797079127199 12.0317192464978415 Zr
atom 6.8996124217368049 8.0526797079127199 12.0317192464978415 Zr
atom 12.0466124217368034 8.0526797079127199 12.0317192464978415 Zr
atom 1.7526124217368040 13.2726797079127206 12.0317192464978415 Zr
atom 6.8996124217368049 13.2726797079127206 12.0317192464978415 Zr
atom 12.0466124217368034 13.2726797079127206 12.0317192464978415 Zr
atom 0.8132510421760122 2.3873202920872787 3.7303403295079591 Zr
atom 5.9602510421760124 2.3873202920872787 3.7303403295079591 Zr
atom 11.1072510421760118 2.3873202920872787 3.7303403295079591 Zr
atom 0.8132510421760122 7.6073202920872802 3.7303403295079591 Zr
atom 5.9602510421760124 7.6073202920872802 3.7303403295079591 Zr
atom 11.1072510421760118 7.6073202920872802 3.7303403295079591 Zr
atom 0.8132510421760122 12.8273202920872809 3.7303403295079591 Zr
atom 5.9602510421760124 12.8273202920872809 3.7303403295079591 Zr
atom 11.1072510421760118 12.8273202920872809 3.7303403295079591 Zr
atom -0.0471277013782814 2.3873202920872787 8.9843601636577990 Zr
atom 5.0998722986217189 2.3873202920872787 8.9843601636577990 Zr
atom 10.2468722986217173 2.3873202920872787 8.9843601636577990 Zr
atom -0.0471277013782814 7.6073202920872802 8.9843601636577990 Zr
atom 5.0998722986217189 7.6073202920872802 8.9843601636577990 Zr
atom 10.2468722986217173 7.6073202920872802 8.9843601636577990 Zr
atom -0.0471277013782814 12.8273202920872809 8.9843601636577990 Zr
atom 5.0998722986217189 12.8273202920872809 8.9843601636577990 Zr
atom 10.2468722986217173 12.8273202920872809 8.9843601636577990 Zr
atom -0.9075064449325754 2.3873202920872787 14.2383799978076429 Zr
atom 4.2394935550674244 2.3873202920872787 14.2383799978076429 Zr
atom 9.3864935550674247 2.3873202920872787 14.2383799978076429 Zr
atom -0.9075064449325754 7.6073202920872802 14.2383799978076429 Zr
atom 4.2394935550674244 7.6073202920872802 14.2383799978076429 Zr
atom 9.3864935550674247 7.6073202920872802 14.2383799978076429 Zr
atom -0.9075064449325754 12.8273202920872809 14.2383799978076429 Zr
atom 4.2394935550674244 12.8273202920872809 14.2383799978076429 Zr
atom 9.3864935550674247 12.8273202920872809 14.2383799978076429 Zr
atom 0.0627057521779769 1.7482162241599200 1.8004395366248871 O
atom 5.2097057521779755 1.7482162241599200 1.8004395366248871 O
atom 10.3567057521779766 1.7482162241599200 1.8004395366248871 O
atom 0.0627057521779769 6.9682162241599217 1.8004395366248871 O
atom 5.2097057521779755 6.9682162241599217 1.8004395366248871 O
atom 10.3567057521779766 6.9682162241599217 1.8004395366248871 O
atom 0.0627057521779769 12.1882162241599197 1.8004395366248871 O
atom 5.2097057521779755 12.1882162241599197 1.8004395366248871 O
atom 10.3567057521779766 12.1882162241599197 1.8004395366248871 O
atom -0.7976729913763168 1.7482162241599200 7.0544593707747287 O
atom 4.3493270086236828 1.7482162241599200 7.0544593707747287 O
atom 9.4963270086236822 1.7482162241599200 7.0544593707747287 O
atom -0.7976729913763168 6.9682162241599217 7.0544593707747287 O
atom 4.3493270086236828 6.9682162241599217 7.0544593707747287 O
atom 9.4963270086236822 6.9682162241599217 7.0544593707747287 O
atom -0.7976729913763168 12.1882162241599197 7.0544593707747287 O
atom 4.3493270086236828 12.1882162241599197 7.0544593707747287 O
atom 9.4963270086236822 12.1882162241599197 7.0544593707747287 O
atom -1.6580517349306108 1.7482162241599200 12.3084792049245717 O
atom 3.4889482650693879 1.7482162241599200 12.3084792049245717 O
atom 8.6359482650693895 1.7482162241599200 12.3084792049245717 O
atom -1.6580517349306108 6.9682162241599217 12.3084792049245717 O
atom 3.4889482650693879 6.9682162241599217 12.3084792049245717 O
atom 8.6359482650693895 6.9682162241599217 12.3084792049245717 O
atom -1.6580517349306108 12.1882162241599197 12.3084792049245717 O
atom 3.4889482650693879 12.1882162241599197 12.3084792049245717 O
atom 8.6359482650693895 12.1882162241599197 12.3084792049245717 O
atom 4.2239151988434269 3.4717837758400814 3.4535803710812343 O
atom 9.3709151988434272 3.4717837758400814 3.4535803710812343 O
atom 14.5179151988434274 3.4717837758400814 3.4535803710812343 O
atom 4.2239151988434269 8.6917837758400793 3.4535803710812343 O
atom 9.3709151988434272 8.6917837758400793 3.4535803710812343 O
atom 14.5179151988434274 8.6917837758400793 3.4535803710812343 O
atom 4.2239151988434269 13.9117837758400800 3.4535803710812343 O
atom 9.3709151988434272 13.9117837758400800 3.4535803710812343 O
atom 14.5179151988434274 13.9117837758400800 3.4535803710812343 O
atom 3.3635364552891329 3.4717837758400814 8.7076002052310741 O
atom 8.5105364552891327 3.4717837758400814 8.7076002052310741 O
atom 13.6575364552891330 3.4717837758400814 8.7076002052310741 O
atom 3.3635364552891329 8.6917837758400793 8.7076002052310741 O
atom 8.5105364552891327 8.6917837758400793 8.7076002052310741 O
atom 13.6575364552891330 8.6917837758400793 8.7076002052310741 O
atom 3.3635364552891329 13.9117837758400800 8.7076002052310741 O
atom 8.5105364552891327 13.9117837758400800 8.7076002052310741 O
atom 13.6575364552891330 13.9117837758400800 8.7076002052310741 O
atom 2.5031577117348389 3.4717837758400814 13.9616200393809180 O
atom 7.6501577117348392 3.4717837758400814 13.9616200393809180 O
atom 12.7971577117348421 3.4717837758400814 13.9616200393809180 O
atom 2.5031577117348389 8.6917837758400793 13.9616200393809180 O
atom 7.6501577117348392 8.6917837758400793 13.9616200393809180 O
atom 12.7971577117348421 8.6917837758400793 13.9616200393809180 O
atom 2.5031577117348389 13.9117837758400800 13.9616200393809180 O
atom 7.6501577117348392 13.9117837758400800 13.9616200393809180 O
atom 12.7971577117348421 13.9117837758400800 13.9616200393809180 O
atom 4.6541045706205750 4.3582162241599205 0.8265704540063128 O
atom 9.8011045706205735 4.3582162241599205 0.8265704540063128 O
atom 14.9481045706205737 4.3582162241599205 0.8265704540063128 O
atom 4.6541045706205750 9.5782162241599202 0.8265704540063128 O
atom 9.8011045706205735 9.5782162241599202 0.8265704540063128 O
atom 14.9481045706205737 9.5782162241599202 0.8265704540063128 O
atom 4.6541045706205750 14.7982162241599191 0.8265704540063128 O
atom 9.8011045706205735 14.7982162241599191 0.8265704540063128 O
atom 14.9481045706205737 14.7982162241599191 0.8265704540063128 O
atom 3.7937258270662815 4.3582162241599205 6.0805902881561540 O
atom 8.9407258270662808 4.3582162241599205 6.0805902881561540 O
atom 14.0877258270662811 4.3582162241599205 6.0805902881561540 O
atom 3.7937258270662815 9.5782162241599202 6.0805902881561540 O
atom 8.9407258270662808 9.5782162241599202 6.0805902881561540 O
atom 14.0877258270662811 9.5782162241599202 6.0805902881561540 O
atom 3.7937258270662815 14.7982162241599191 6.0805902881561540 O
atom 8.9407258270662808 14.7982162241599191 6.0805902881561540 O
atom 14.0877258270662811 14.7982162241599191 6.0805902881561540 O
atom 2.9333470835119861 4.3582162241599205 11.3346101223059943 O
atom 8.0803470835119864 4.3582162241599205 11.3346101223059943 O
atom 13.2273470835119866 4.3582162241599205 11.3346101223059943 O
atom 2.9333470835119861 9.5782162241599202 11.3346101223059943 O
atom 8.0803470835119864 9.5782162241599202 11.3346101223059943 O
atom 13.2273470835119866 9.5782162241599202 11.3346101223059943 O
atom 2.9333470835119861 14.7982162241599191 11.3346101223059943 O
atom 8.0803470835119864 14.7982162241599191 11.3346101223059943 O
atom 13.2273470835119866 14.7982162241599191 11.3346101223059943 O
atom -0.3674836195991701 0.8617837758400805 4.4274494536998086 O
atom 4.7795163804008283 0.8617837758400805 4.4274494536998086 O
atom 9.9265163804008303 0.8617837758400805 4.4274494536998086 O
atom -0.3674836195991701 6.0817837758400799 4.4274494536998086 O
atom 4.7795163804008283 6.0817837758400799 4.4274494536998086 O
atom 9.9265163804008303 6.0817837758400799 4.4274494536998086 O
atom -0.3674836195991701 11.3017837758400788 4.4274494536998086 O
atom 4.7795163804008283 11.3017837758400788 4.4274494536998086 O
atom 9.9265163804008303 11.3017837758400788 4.4274494536998086 O
atom -1.2278623631534651 0.8617837758400805 9.6814692878496480 O
atom 3.9191376368465347 0.8617837758400805 9.6814692878496480 O
atom 9.0661376368465358 0.8617837758400805 9.6814692878496480 O
atom -1.2278623631534651 6.0817837758400799 9.6814692878496480 O
atom 3.9191376368465347 6.0817837758400799 9.6814692878496480 O
atom 9.0661376368465358 6.0817837758400799 9.6814692878496480 O
atom -1.2278623631534651 11.3017837758400788 9.6814692878496480 O
atom 3.9191376368465347 11.3017837758400788 9.6814692878496480 O
atom 9.0661376368465358 11.3017837758400788 9.6814692878496480 O
atom -2.0882411067077591 0.8617837758400805 14.9354891219994919 O
atom 3.0587588932922412 0.8617837758400805 14.9354891219994919 O
atom 8.2057588932922396 0.8617837758400805 14.9354891219994919 O
atom -2.0882411067077591 6.0817837758400799 14.9354891219994919 O
atom 3.0587588932922412 6.0817837758400799 14.9354891219994919 O
atom 8.2057588932922396 6.0817837758400799 14.9354891219994919 O
atom -2.0882411067077591 11.3017837758400788 14.9354891219994919 O
atom 3.0587588932922412 11.3017837758400788 14.9354891219994919 O
atom 8.2057588932922396 11.3017837758400788 14.9354891219994919 O
atom 1.8998770282560042 3.9537873603777598 2.5177746390324351 O
atom 7.0468770282560058 3.9537873603777598 2.5177746390324351 O
atom 12.1938770282560078 3.9537873603777598 2.5177746390324351 O
atom 1.8998770282560042 9.1737873603777587 2.5177746390324351 O
atom 7.0468770282560058 9.1737873603777587 2.5177746390324351 O
atom 12.1938770282560078 9.1737873603777587 2.5177746390324351 O
atom 1.8998770282560042 14.3937873603777611 2.5177746390324351 O
atom 7.0468770282560058 14.3937873603777611 2.5177746390324351 O
atom 12.1938770282560078 14.3937873603777611 2.5177746390324351 O
atom 1.0394982847017109 3.9537873603777598 7.7717944731822746 O
atom 6.1864982847017123 3.9537873603777598 7.7717944731822746 O
atom 11.3334982847017134 3.9537873603777598 7.7717944731822746 O
atom 1.0394982847017109 9.1737873603777587 7.7717944731822746 O
atom 6.1864982847017123 9.1737873603777587 7.7717944731822746 O
atom 11.3334982847017134 9.1737873603777587 7.7717944731822746 O
atom 1.0394982847017109 14.3937873603777611 7.7717944731822746 O
atom 6.1864982847017123 14.3937873603777611 7.7717944731822746 O
atom 11.3334982847017134 14.3937873603777611 7.7717944731822746 O
atom 0.1791195411474166 3.9537873603777598 13.0258143073321193 O
atom 5.3261195411474178 3.9537873603777598 13.0258143073321193 O
atom 10.4731195411474172 3.9537873603777598 13.0258143073321193 O
atom 0.1791195411474166 9.1737873603777587 13.0258143073321193 O
atom 5.3261195411474178 9.1737873603777587 13.0258143073321193 O
atom 10.4731195411474172 9.1737873603777587 13.0258143073321193 O
atom 0.1791195411474166 14.3937873603777611 13.0258143073321193 O
atom 5.3261195411474178 14.3937873603777611 13.0258143073321193 O
atom 10.4731195411474172 14.3937873603777611 13.0258143073321193 O
atom 2.3867439227653979 1.2662126396222395 2.7362452686736844 O
atom 7.5337439227653960 1.2662126396222395 2.7362452686736844 O
atom 12.6807439227653997 1.2662126396222395 2.7362452686736844 O
atom 2.3867439227653979 6.4862126396222406 2.7362452686736844 O
atom 7.5337439227653960 6.4862126396222406 2.7362452686736844 O
atom 12.6807439227653997 6.4862126396222406 2.7362452686736844 O
atom 2.3867439227653979 11.7062126396222421 2.7362452686736844 O
atom 7.5337439227653960 11.7062126396222421 2.7362452686736844 O
atom 12.6807439227653997 11.7062126396222421 2.7362452686736844 O
atom 1.5263651792111039 1.2662126396222395 7.9902651028235283 O
atom 6.6733651792111024 1.2662126396222395 7.9902651028235283 O
atom 11.8203651792111053 1.2662126396222395 7.9902651028235283 O
atom 1.5263651792111039 6.4862126396222406 7.9902651028235283 O
atom 6.6733651792111024 6.4862126396222406 7.9902651028235283 O
atom 11.8203651792111053 6.4862126396222406 7.9902651028235283 O
atom 1.5263651792111039 11.7062126396222421 7.9902651028235283 O
atom 6.6733651792111024 11.7062126396222421 7.9902651028235283 O
atom 11.8203651792111053 11.7062126396222421 7.9902651028235283 O
atom 0.6659864356568104 1.2662126396222395 13.2442849369733686 O
atom 5.8129864356568079 1.2662126396222395 13.2442849369733686 O
atom 10.9599864356568126 1.2662126396222395 13.2442849369733686 O
atom 0.6659864356568104 6.4862126396222406 13.2442849369733686 O
atom 5.8129864356568079 6.4862126396222406 13.2442849369733686 O
atom 10.9599864356568126 6.4862126396222406 13.2442849369733686 O
atom 0.6659864356568104 11.7062126396222421 13.2442849369733686 O
atom 5.8129864356568079 11.7062126396222421 13.2442849369733686 O
atom 10.9599864356568126 11.7062126396222421 13.2442849369733686 O
atom 2.8169332945425452 1.3437873603777595 0.1092353515987630 O
atom 7.9639332945425449 1.3437873603777595 0.1092353515987630 O
atom 13.1109332945425461 1.3437873603777595 0.1092353515987630 O
atom 2.8169332945425452 6.5637873603777592 0.1092353515987630 O
atom 7.9639332945425449 6.5637873603777592 0.1092353515987630 O
atom 13.1109332945425461 6.5637873603777592 0.1092353515987630 O
atom 2.8169332945425452 11.7837873603777581 0.1092353515987630 O
atom 7.9639332945425449 11.7837873603777581 0.1092353515987630 O
atom 13.1109332945425461 11.7837873603777581 0.1092353515987630 O
atom 1.9565545509882512 1.3437873603777595 5.3632551857486064 O
atom 7.1035545509882505 1.3437873603777595 5.3632551857486064 O
atom 12.2505545509882534 1.3437873603777595 5.3632551857486064 O
atom 1.9565545509882512 6.5637873603777592 5.3632551857486064 O
atom 7.1035545509882505 6.5637873603777592 5.3632551857486064 O
atom 12.2505545509882534 6.5637873603777592 5.3632551857486064 O
atom 1.9565545509882512 11.7837873603777581 5.3632551857486064 O
atom 7.1035545509882505 11.7837873603777581 5.3632551857486064 O
atom 12.2505545509882534 11.7837873603777581 5.3632551857486064 O
atom 1.0961758074339574 1.3437873603777595 10.6172750198984467 O
atom 6.2431758074339569 1.3437873603777595 10.6172750198984467 O
atom 11.3901758074339590 1.3437873603777595 10.6172750198984467 O
atom 1.0961758074339574 6.5637873603777592 10.6172750198984467 O
atom 6.2431758074339569 6.5637873603777592 10.6172750198984467 O
atom 11.3901758074339590 6.5637873603777592 10.6172750198984467 O
atom 1.0961758074339574 11.7837873603777581 10.6172750198984467 O
atom 6.2431758074339569 11.7837873603777581 10.6172750198984467 O
atom 11.3901758074339590 11.7837873603777581 10.6172750198984467 O
atom 1.4696876564788584 3.8762126396222416 5.1447845561073580 O
atom 6.6166876564788586 3.8762126396222416 5.1447845561073580 O
atom 11.7636876564788597 3.8762126396222416 5.1447845561073580 O
atom 1.4696876564788584 9.0962126396222427 5.1447845561073580 O
atom 6.6166876564788586 9.0962126396222427 5.1447845561073580 O
atom 11.7636876564788597 9.0962126396222427 5.1447845561073580 O
atom 1.4696876564788584 14.3162126396222433 5.1447845561073580 O
atom 6.6166876564788586 14.3162126396222433 5.1447845561073580 O
atom 11.7636876564788597 14.3162126396222433 5.1447845561073580 O
atom 0.6093089129245645 3.8762126396222416 10.3988043902572009 O
atom 5.7563089129245641 3.8762126396222416 10.3988043902572009 O
atom 10.9033089129245671 3.8762126396222416 10.3988043902572009 O
atom 0.6093089129245645 9.0962126396222427 10.3988043902572009 O
atom 5.7563089129245641 9.0962126396222427 10.3988043902572009 O
atom 10.9033089129245671 9.0962126396222427 10.3988043902572009 O
atom 0.6093089129245645 14.3162126396222433 10.3988043902572009 O
atom 5.7563089129245641 14.3162126396222433 10.3988043902572009 O
atom 10.9033089129245671 14.3162126396222433 10.3988043902572009 O
atom -0.2510698306297292 3.8762126396222416 15.6528242244070412 O
atom 4.8959301693702706 3.8762126396222416 15.6528242244070412 O
atom 10.0429301693702726 3.8762126396222416 15.6528242244070412 O
atom -0.2510698306297292 9.0962126396222427 15.6528242244070412 O
atom 4.8959301693702706 9.0962126396222427 15.6528242244070412 O
atom 10.0429301693702726 9.0962126396222427 15.6528242244070412 O
atom -0.2510698306297292 14.3162126396222433 15.6528242244070412 O
atom 4.8959301693702706 14.3162126396222433 15.6528242244070412 O
atom 10.0429301693702726 14.3162126396222433 15.6528242244070412 O
