#=======================================================
# FHI-aims file: 300_geometry.in.primitive.supercell_1500.0010K
# Created using the Atomic Simulation Environment (ASE)
# Thu Aug 11 18:09:34 2022

# Additional information:
#  created from MB distrubtion
#  T = 10.0 K
#  quantum:             False
#  deterministic:       False
#  plus_minus:          False
#  gauge_eigenvectors:  False
#  Random seed:         1130329550
#  Sample number:       1
#=======================================================
lattice_vector 25.7349999999999994 0.0000000000000000 0.0000000000000000 
lattice_vector 0.0000000000000000 26.0999999999999979 0.0000000000000000 
lattice_vector -4.3018937177714687 0.0000000000000000 26.2700991707492122 
atom 1.2434404139531583 0.2226797079127200 1.1033304124330396 Zr
    velocity 0.6020765197685876 0.5579921366225503 -0.3248816684780759
atom 6.3904404139531579 0.2226797079127200 1.1033304124330396 Zr
    velocity -0.2967839754511926 -0.0413788791555918 0.0516651933742628
atom 11.5374404139531581 0.2226797079127200 1.1033304124330396 Zr
    velocity 0.0314895880592132 -0.3800176385184239 -0.5104143067575077
atom 16.6844404139531619 0.2226797079127200 1.1033304124330396 Zr
    velocity 0.5507005038297315 -0.0677760535887614 -0.1789793822759018
atom 21.8314404139531604 0.2226797079127200 1.1033304124330396 Zr
    velocity 0.0434880424918407 -0.2858119632603048 0.3062590204483275
atom 1.2434404139531583 5.4426797079127196 1.1033304124330396 Zr
    velocity -0.2593495021810239 0.1480163456247679 -0.5912292897963035
atom 6.3904404139531579 5.4426797079127196 1.1033304124330396 Zr
    velocity 0.1559818870692210 -0.0603847455779153 0.0361657571342468
atom 11.5374404139531581 5.4426797079127196 1.1033304124330396 Zr
    velocity -0.5592078950625720 0.4566789636444589 -0.1920783182273168
atom 16.6844404139531619 5.4426797079127196 1.1033304124330396 Zr
    velocity -0.1891864840992860 -0.0539147597034825 0.0259445768989212
atom 21.8314404139531604 5.4426797079127196 1.1033304124330396 Zr
    velocity 0.5410309590065775 0.2828023524999706 -0.4057851932809418
atom 1.2434404139531583 10.6626797079127211 1.1033304124330396 Zr
    velocity 0.2562326572985722 -0.1723716717009196 -0.3088389238214024
atom 6.3904404139531579 10.6626797079127211 1.1033304124330396 Zr
    velocity -0.3722988787194519 0.2771600100109654 -0.4668694293070511
atom 11.5374404139531581 10.6626797079127211 1.1033304124330396 Zr
    velocity 0.3853336498120719 -0.3549939337678452 0.5465627440592011
atom 16.6844404139531619 10.6626797079127211 1.1033304124330396 Zr
    velocity -0.0661268556709560 0.3304987823662583 0.0731940850688131
atom 21.8314404139531604 10.6626797079127211 1.1033304124330396 Zr
    velocity 0.3577299328721524 -0.0812650635472513 0.6157666987922819
atom 1.2434404139531583 15.8826797079127200 1.1033304124330396 Zr
    velocity -0.2305734441948471 0.1704675031794764 0.5196987426940749
atom 6.3904404139531579 15.8826797079127200 1.1033304124330396 Zr
    velocity 0.2260625108977060 -0.4315741180630625 0.3641583116517549
atom 11.5374404139531581 15.8826797079127200 1.1033304124330396 Zr
    velocity -0.1382001953784494 0.1637450940912111 -0.2625261313796797
atom 16.6844404139531619 15.8826797079127200 1.1033304124330396 Zr
    velocity -0.2041833309598035 0.5065936892559463 0.3874828191001057
atom 21.8314404139531604 15.8826797079127200 1.1033304124330396 Zr
    velocity 0.2899575263242266 -0.2360957002954597 0.4079367853617247
atom 1.2434404139531583 21.1026797079127206 1.1033304124330396 Zr
    velocity 0.0371552633216550 0.0152834322555349 0.6030024711124677
atom 6.3904404139531579 21.1026797079127206 1.1033304124330396 Zr
    velocity -0.3724512510384074 -0.2934648127985354 -0.2072999301939864
atom 11.5374404139531581 21.1026797079127206 1.1033304124330396 Zr
    velocity -0.4804438576250875 0.3741343299635695 0.4176754544657373
atom 16.6844404139531619 21.1026797079127206 1.1033304124330396 Zr
    velocity 0.0355402594089350 -0.0048319003530624 0.0558443867218296
atom 21.8314404139531604 21.1026797079127206 1.1033304124330396 Zr
    velocity -0.0551813456719605 0.4494480250466659 -0.1563862856105188
atom 0.3830616703988646 0.2226797079127200 6.3573502465828815 Zr
    velocity -0.3817999117431947 0.4592292689143516 -0.2856597403049663
atom 5.5300616703988643 0.2226797079127200 6.3573502465828815 Zr
    velocity 0.6649130402465386 -0.1706376398349495 0.0229843167452497
atom 10.6770616703988654 0.2226797079127200 6.3573502465828815 Zr
    velocity 0.1226508549193507 -0.2361011478231588 0.0585321459767143
atom 15.8240616703988675 0.2226797079127200 6.3573502465828815 Zr
    velocity 0.2168732838224706 0.0468899176638817 0.5271383701260669
atom 20.9710616703988642 0.2226797079127200 6.3573502465828815 Zr
    velocity 0.0425125551026333 -0.2751040976472440 0.2988823344676039
atom 0.3830616703988646 5.4426797079127196 6.3573502465828815 Zr
    velocity 0.0902882493906964 0.0736344092838886 0.5815844254637239
atom 5.5300616703988643 5.4426797079127196 6.3573502465828815 Zr
    velocity 0.0637894180851091 0.4869254035554503 0.2165701458430906
atom 10.6770616703988654 5.4426797079127196 6.3573502465828815 Zr
    velocity -0.0514563085609588 0.0346597902720617 -0.3807994594716040
atom 15.8240616703988675 5.4426797079127196 6.3573502465828815 Zr
    velocity -0.1017539667965141 -0.0249022098763663 -0.3023482296975596
atom 20.9710616703988642 5.4426797079127196 6.3573502465828815 Zr
    velocity -0.1375239523597426 -0.0741644618239178 -0.4973938608875314
atom 0.3830616703988646 10.6626797079127211 6.3573502465828815 Zr
    velocity -0.5104301953643092 0.5040836154332954 -0.0171548272568535
atom 5.5300616703988643 10.6626797079127211 6.3573502465828815 Zr
    velocity -0.3675908066211164 0.3375116538969906 0.2479329072181825
atom 10.6770616703988654 10.6626797079127211 6.3573502465828815 Zr
    velocity 0.1508247211981575 -0.0100981213855416 0.0662144907746408
atom 15.8240616703988675 10.6626797079127211 6.3573502465828815 Zr
    velocity -0.2631717375017331 0.0341954810386805 -0.2832668221956128
atom 20.9710616703988642 10.6626797079127211 6.3573502465828815 Zr
    velocity 0.2024377063519729 0.6865757291275334 0.1938799530195970
atom 0.3830616703988646 15.8826797079127200 6.3573502465828815 Zr
    velocity 0.1994026880219589 -0.2476487905001188 0.0179797180614671
atom 5.5300616703988643 15.8826797079127200 6.3573502465828815 Zr
    velocity 0.3845778698684330 0.0247531271839857 -0.4276720799601685
atom 10.6770616703988654 15.8826797079127200 6.3573502465828815 Zr
    velocity 0.3294699108177023 0.4065342526841703 0.0144056296939730
atom 15.8240616703988675 15.8826797079127200 6.3573502465828815 Zr
    velocity 0.8096001049569127 -0.3035045272588956 -0.3438006312628427
atom 20.9710616703988642 15.8826797079127200 6.3573502465828815 Zr
    velocity 0.3471710641110674 0.6578603339073311 -0.3247914448303449
atom 0.3830616703988646 21.1026797079127206 6.3573502465828815 Zr
    velocity -0.2592153457942165 0.3118983198271240 0.1081228870516386
atom 5.5300616703988643 21.1026797079127206 6.3573502465828815 Zr
    velocity 0.1656122310851345 -0.3352201377148546 0.1343327754573982
atom 10.6770616703988654 21.1026797079127206 6.3573502465828815 Zr
    velocity -0.1629537718826121 0.3819094549812970 -0.1776027417785892
atom 15.8240616703988675 21.1026797079127206 6.3573502465828815 Zr
    velocity -0.2678797777422108 -0.4444128334624180 -0.0698787969320991
atom 20.9710616703988642 21.1026797079127206 6.3573502465828815 Zr
    velocity -0.0807099900440850 0.5099879692230851 -0.0656996730882837
atom -0.4773170731554297 0.2226797079127200 11.6113700807327280 Zr
    velocity -0.2019441636570009 -0.4485778829581180 -0.1175944159064605
atom 4.6696829268445699 0.2226797079127200 11.6113700807327280 Zr
    velocity 0.0503453233586830 0.0609440761412485 -0.0728915062132746
atom 9.8166829268445710 0.2226797079127200 11.6113700807327280 Zr
    velocity 0.8215452038273152 0.2969478626667104 0.3002425905270927
atom 14.9636829268445730 0.2226797079127200 11.6113700807327280 Zr
    velocity -0.1651247704562639 0.0597454461974067 0.1683099450541780
atom 20.1106829268445715 0.2226797079127200 11.6113700807327280 Zr
    velocity -0.3000588804901889 0.0869568502969381 -0.3651317511564335
atom -0.4773170731554297 5.4426797079127196 11.6113700807327280 Zr
    velocity -0.0690095437075027 -0.2071835745088833 -0.0113060027425852
atom 4.6696829268445699 5.4426797079127196 11.6113700807327280 Zr
    velocity -0.3443506436479402 0.1710431536281774 0.7598980434054916
atom 9.8166829268445710 5.4426797079127196 11.6113700807327280 Zr
    velocity 0.0751601766673473 0.2950072505895086 -0.0246974733478968
atom 14.9636829268445730 5.4426797079127196 11.6113700807327280 Zr
    velocity 0.6099675216656359 -0.2098234946163073 0.0804374068359106
atom 20.1106829268445715 5.4426797079127196 11.6113700807327280 Zr
    velocity -0.3464673486283059 -0.2991137660525839 0.2145274109283155
atom -0.4773170731554297 10.6626797079127211 11.6113700807327280 Zr
    velocity -0.1568780387717389 0.0523588779580828 -0.0222140317532606
atom 4.6696829268445699 10.6626797079127211 11.6113700807327280 Zr
    velocity -0.0932354127562046 0.4312469790207015 -0.1899114176553160
atom 9.8166829268445710 10.6626797079127211 11.6113700807327280 Zr
    velocity 0.3064904470296547 0.3207005289479557 0.1087275411582516
atom 14.9636829268445730 10.6626797079127211 11.6113700807327280 Zr
    velocity -0.3868239271033169 0.2109118513671898 0.0042734819447582
atom 20.1106829268445715 10.6626797079127211 11.6113700807327280 Zr
    velocity -0.4582889949242268 -0.3280259712833483 0.1890118056913305
atom -0.4773170731554297 15.8826797079127200 11.6113700807327280 Zr
    velocity -0.1577743489269129 -0.3942377274144157 -0.0315859582564887
atom 4.6696829268445699 15.8826797079127200 11.6113700807327280 Zr
    velocity -0.3707611943201304 0.0195762348864555 -0.4492224317478723
atom 9.8166829268445710 15.8826797079127200 11.6113700807327280 Zr
    velocity 0.1398759844915765 0.0203921680387374 -0.4842168908838914
atom 14.9636829268445730 15.8826797079127200 11.6113700807327280 Zr
    velocity -0.0179198251543624 0.0897233018174278 -0.6854651396105148
atom 20.1106829268445715 15.8826797079127200 11.6113700807327280 Zr
    velocity -0.3998146269895552 0.0718716586154586 -0.1177093483167597
atom -0.4773170731554297 21.1026797079127206 11.6113700807327280 Zr
    velocity -0.1542069474238139 -0.4470410484949017 0.3641280993118104
atom 4.6696829268445699 21.1026797079127206 11.6113700807327280 Zr
    velocity 0.5517405308496210 0.1983781938792403 0.2130601388082629
atom 9.8166829268445710 21.1026797079127206 11.6113700807327280 Zr
    velocity -0.2348479802341411 -0.1752968359165599 -0.2730390651449402
atom 14.9636829268445730 21.1026797079127206 11.6113700807327280 Zr
    velocity -0.0282983457341253 0.2492083429270550 0.1463713010402159
atom 20.1106829268445715 21.1026797079127206 11.6113700807327280 Zr
    velocity -0.5719080540316369 -0.0123986867166146 0.0807552790281906
atom -1.3376958167097233 0.2226797079127200 16.8653899148825701 Zr
    velocity 0.0878158498771017 0.2975059076509350 -0.1798185799228732
atom 3.8093041832902768 0.2226797079127200 16.8653899148825701 Zr
    velocity -0.0671617874844975 0.1262635958541004 -0.1524510466786432
atom 8.9563041832902766 0.2226797079127200 16.8653899148825701 Zr
    velocity 0.4237008681484859 -0.1969742028673342 -0.3779059483977151
atom 14.1033041832902786 0.2226797079127200 16.8653899148825701 Zr
    velocity -0.0549153081949614 -0.0900098556672875 0.2139976045168388
atom 19.2503041832902788 0.2226797079127200 16.8653899148825701 Zr
    velocity 0.4074828165206633 0.0131455607172741 0.2217963931851666
atom -1.3376958167097233 5.4426797079127196 16.8653899148825701 Zr
    velocity -0.0579888525268366 -0.4701123667665443 -0.0211691323882817
atom 3.8093041832902768 5.4426797079127196 16.8653899148825701 Zr
    velocity -0.0655962334385843 0.2188599185618151 -0.0998992198395919
atom 8.9563041832902766 5.4426797079127196 16.8653899148825701 Zr
    velocity -0.4952060779561244 0.5489541358667194 -0.2182166790685182
atom 14.1033041832902786 5.4426797079127196 16.8653899148825701 Zr
    velocity 0.1992388351678692 0.1334421807906563 0.3298969359581932
atom 19.2503041832902788 5.4426797079127196 16.8653899148825701 Zr
    velocity 0.0300219729709702 0.1552785998123018 -0.7493735033670055
atom -1.3376958167097233 10.6626797079127211 16.8653899148825701 Zr
    velocity -0.4056253474502777 -0.4253836859412842 0.0100414433873662
atom 3.8093041832902768 10.6626797079127211 16.8653899148825701 Zr
    velocity 0.2134899845016555 0.0848078670756479 -0.5134745521722150
atom 8.9563041832902766 10.6626797079127211 16.8653899148825701 Zr
    velocity -0.0507275295823787 -0.2791222322477156 0.2778109763821219
atom 14.1033041832902786 10.6626797079127211 16.8653899148825701 Zr
    velocity 0.0242583267308869 -0.4134919152723398 -0.0693682347629992
atom 19.2503041832902788 10.6626797079127211 16.8653899148825701 Zr
    velocity -0.1990333236899667 0.4751395695145940 -0.2340089314910108
atom -1.3376958167097233 15.8826797079127200 16.8653899148825701 Zr
    velocity -0.5597984084315895 0.1390536106423925 -0.1659163513618742
atom 3.8093041832902768 15.8826797079127200 16.8653899148825701 Zr
    velocity -0.1965359954063041 -0.4771588768836525 0.0516306507841713
atom 8.9563041832902766 15.8826797079127200 16.8653899148825701 Zr
    velocity 0.3043535757173370 0.0251139339949496 -0.1106024423898764
atom 14.1033041832902786 15.8826797079127200 16.8653899148825701 Zr
    velocity 0.6188435135476584 -0.2402219533766782 0.0773045669095342
atom 19.2503041832902788 15.8826797079127200 16.8653899148825701 Zr
    velocity -0.0258318174315940 -0.4283841604588047 0.1110738021434029
atom -1.3376958167097233 21.1026797079127206 16.8653899148825701 Zr
    velocity 0.1660920322458408 -0.3020982343157184 0.0360561919872908
atom 3.8093041832902768 21.1026797079127206 16.8653899148825701 Zr
    velocity -0.0843986977209786 0.1973558083936020 0.1171505845196387
atom 8.9563041832902766 21.1026797079127206 16.8653899148825701 Zr
    velocity 0.2208695692769995 0.0406316963607080 0.6882873230305511
atom 14.1033041832902786 21.1026797079127206 16.8653899148825701 Zr
    velocity -0.2334416098325564 -0.0734699879523350 -0.0743638617493036
atom 19.2503041832902788 21.1026797079127206 16.8653899148825701 Zr
    velocity 0.1077191103791902 -0.2501697542422261 0.4310400280247803
atom -2.1980745602640166 0.2226797079127200 22.1194097490324104 Zr
    velocity 0.1981571410986225 0.3919214434860296 -0.0542183907366858
atom 2.9489254397359832 0.2226797079127200 22.1194097490324104 Zr
    velocity -0.0841244799804455 0.5537397486939295 -0.0696879484815686
atom 8.0959254397359839 0.2226797079127200 22.1194097490324104 Zr
    velocity -0.2691007306012544 0.1048508589033639 0.4022678615661474
atom 13.2429254397359859 0.2226797079127200 22.1194097490324104 Zr
    velocity 0.1694360281169895 -0.1167064722226855 0.1324204134128214
atom 18.3899254397359826 0.2226797079127200 22.1194097490324104 Zr
    velocity 0.2987778920548895 -0.1123036921279681 0.0585360761073996
atom -2.1980745602640166 5.4426797079127196 22.1194097490324104 Zr
    velocity -0.0096513066882047 -0.2706949426583415 0.3142669949917600
atom 2.9489254397359832 5.4426797079127196 22.1194097490324104 Zr
    velocity 0.0606650511734049 -0.5852199840200932 -0.0964673716502883
atom 8.0959254397359839 5.4426797079127196 22.1194097490324104 Zr
    velocity 0.0267491518644987 -0.3660782512585662 -0.3061530478219313
atom 13.2429254397359859 5.4426797079127196 22.1194097490324104 Zr
    velocity 0.6309110606394306 0.4844877612242686 0.2586070629647715
atom 18.3899254397359826 5.4426797079127196 22.1194097490324104 Zr
    velocity -0.0158398422244167 -0.0099743626363309 0.1980212865187034
atom -2.1980745602640166 10.6626797079127211 22.1194097490324104 Zr
    velocity 0.8333547152632772 0.0116592017168620 -0.0468519525494121
atom 2.9489254397359832 10.6626797079127211 22.1194097490324104 Zr
    velocity 0.2935181142842848 0.0718445328087702 0.4908114981131819
atom 8.0959254397359839 10.6626797079127211 22.1194097490324104 Zr
    velocity -0.0741582686654230 0.2519859821677896 0.4595708297453454
atom 13.2429254397359859 10.6626797079127211 22.1194097490324104 Zr
    velocity -0.0511616405625019 -0.4096982087238368 0.0538978543400144
atom 18.3899254397359826 10.6626797079127211 22.1194097490324104 Zr
    velocity -0.5902087422707716 0.2031474105360338 -0.0086013338406173
atom -2.1980745602640166 15.8826797079127200 22.1194097490324104 Zr
    velocity 0.2570126847179598 0.0595081869413230 -0.2730299207847809
atom 2.9489254397359832 15.8826797079127200 22.1194097490324104 Zr
    velocity 0.2672391354103310 0.3908164020837195 -0.3147669134543231
atom 8.0959254397359839 15.8826797079127200 22.1194097490324104 Zr
    velocity -0.0459526100095974 -0.3053516978535220 -0.2988275585270010
atom 13.2429254397359859 15.8826797079127200 22.1194097490324104 Zr
    velocity -0.1070023142239393 0.1205946754196826 -0.4009287317171608
atom 18.3899254397359826 15.8826797079127200 22.1194097490324104 Zr
    velocity 0.2251950166175810 0.4482068938114910 0.0629651231557995
atom -2.1980745602640166 21.1026797079127206 22.1194097490324104 Zr
    velocity -0.2145124416327809 -0.4946045308988749 -0.1661830002590020
atom 2.9489254397359832 21.1026797079127206 22.1194097490324104 Zr
    velocity 0.1540761500107431 0.2370388599330646 -0.1196010773941900
atom 8.0959254397359839 21.1026797079127206 22.1194097490324104 Zr
    velocity -0.1497623279905555 0.4927382614904881 -0.2398774238444650
atom 13.2429254397359859 21.1026797079127206 22.1194097490324104 Zr
    velocity 0.1950379605399474 -0.0092741449715182 -0.1695072421047118
atom 18.3899254397359826 21.1026797079127206 22.1194097490324104 Zr
    velocity 0.3361366174821961 -0.1220466675707036 0.5692418398480156
atom 3.0431805370682481 4.9973202920872826 4.1506894952730802 Zr
    velocity 0.2207054381869549 -0.1748079458868626 0.1063770091008207
atom 8.1901805370682457 4.9973202920872826 4.1506894952730802 Zr
    velocity 0.1840370664483857 0.0181311346862333 0.0785118411655722
atom 13.3371805370682441 4.9973202920872826 4.1506894952730802 Zr
    velocity 0.0334603425451541 -0.2161139938027910 -0.2597154079860741
atom 18.4841805370682479 4.9973202920872826 4.1506894952730802 Zr
    velocity 0.8290276928389253 -0.2936221934037097 0.5178651284347140
atom 23.6311805370682499 4.9973202920872826 4.1506894952730802 Zr
    velocity -0.1005761075568953 0.2278288851425495 0.0015283629846223
atom 3.0431805370682481 10.2173202920872832 4.1506894952730802 Zr
    velocity -0.0189289200782212 0.0988788106855147 -0.0358214447413290
atom 8.1901805370682457 10.2173202920872832 4.1506894952730802 Zr
    velocity -0.4798952364313137 0.3811485876089961 0.1465652429079542
atom 13.3371805370682441 10.2173202920872832 4.1506894952730802 Zr
    velocity 0.5365125240004219 0.4476842816324943 -0.2389940807981095
atom 18.4841805370682479 10.2173202920872832 4.1506894952730802 Zr
    velocity -0.2835083186090994 0.0031866497584991 0.4096021232740314
atom 23.6311805370682499 10.2173202920872832 4.1506894952730802 Zr
    velocity -0.2696461728701862 -0.0717214541734416 0.3981645470508899
atom 3.0431805370682481 15.4373202920872785 4.1506894952730802 Zr
    velocity 0.1116759198354731 -0.2474748630204431 -0.2855785446460480
atom 8.1901805370682457 15.4373202920872785 4.1506894952730802 Zr
    velocity -0.1765101256752023 0.0791738043165513 0.1340517816017446
atom 13.3371805370682441 15.4373202920872785 4.1506894952730802 Zr
    velocity 0.6416213174887823 0.3568354871142219 0.0080900309232159
atom 18.4841805370682479 15.4373202920872785 4.1506894952730802 Zr
    velocity -0.6559792543508105 0.1229561737008310 -0.1589698069744291
atom 23.6311805370682499 15.4373202920872785 4.1506894952730802 Zr
    velocity -0.3919817919378124 0.3545837453448785 -0.2225684732454556
atom 3.0431805370682481 20.6573202920872809 4.1506894952730802 Zr
    velocity -0.3743539522127519 0.1899114609394865 0.3212826840891002
atom 8.1901805370682457 20.6573202920872809 4.1506894952730802 Zr
    velocity 0.2681869948365592 0.0289316096572020 0.2937993245805636
atom 13.3371805370682441 20.6573202920872809 4.1506894952730802 Zr
    velocity -0.2235834710832304 -0.2397732781353473 -0.5704841715062726
atom 18.4841805370682479 20.6573202920872809 4.1506894952730802 Zr
    velocity 0.1142367083467142 0.1061579925510383 -0.0216311008863661
atom 23.6311805370682499 20.6573202920872809 4.1506894952730802 Zr
    velocity -0.3626179438227353 0.2264599133978250 -0.1213907752332793
atom 3.0431805370682481 25.8773202920872833 4.1506894952730802 Zr
    velocity -0.1459871736759563 0.5008628847522227 -0.1814391914199810
atom 8.1901805370682457 25.8773202920872833 4.1506894952730802 Zr
    velocity 0.1787074788764852 -0.3116458788542555 -0.7741984861179979
atom 13.3371805370682441 25.8773202920872833 4.1506894952730802 Zr
    velocity 0.0814527384763080 -0.4754876158412513 0.0984164834775337
atom 18.4841805370682479 25.8773202920872833 4.1506894952730802 Zr
    velocity 0.2208330544111475 -0.4734445824278388 0.1920998434898198
atom 23.6311805370682499 25.8773202920872833 4.1506894952730802 Zr
    velocity -0.3590686766471927 0.0325322611188707 0.3282768316069879
atom 2.1828017935139519 4.9973202920872826 9.4047093294229231 Zr
    velocity -0.0454364027472657 -0.1769815892490604 -0.5588363510075058
atom 7.3298017935139521 4.9973202920872826 9.4047093294229231 Zr
    velocity 0.0199870745538795 0.4621294904575063 0.0071271759166542
atom 12.4768017935139497 4.9973202920872826 9.4047093294229231 Zr
    velocity -0.3106743377945722 0.2571228512396722 0.2024189414851261
atom 17.6238017935139553 4.9973202920872826 9.4047093294229231 Zr
    velocity -0.3915592098022903 0.3154654299023645 0.2247230434953787
atom 22.7708017935139573 4.9973202920872826 9.4047093294229231 Zr
    velocity 0.0847772340701754 -0.0846717816845156 0.3166877949752438
atom 2.1828017935139519 10.2173202920872832 9.4047093294229231 Zr
    velocity -0.2080040418409492 -0.0959139916270982 -0.5044581335244530
atom 7.3298017935139521 10.2173202920872832 9.4047093294229231 Zr
    velocity -0.2624355487158011 -0.4781564053106525 0.0067413876279852
atom 12.4768017935139497 10.2173202920872832 9.4047093294229231 Zr
    velocity -0.0275975598051154 -0.0826454429807529 -0.1095953189302942
atom 17.6238017935139553 10.2173202920872832 9.4047093294229231 Zr
    velocity -0.4420393055160869 0.4510126093914356 0.6669971377035305
atom 22.7708017935139573 10.2173202920872832 9.4047093294229231 Zr
    velocity -0.0129813399515920 -0.4630044010027755 -0.2082146954063028
atom 2.1828017935139519 15.4373202920872785 9.4047093294229231 Zr
    velocity 0.3321773666845052 0.3045213858094125 -0.2007170457140925
atom 7.3298017935139521 15.4373202920872785 9.4047093294229231 Zr
    velocity -0.1261268819432492 -0.0145872570503781 -0.3895831908395971
atom 12.4768017935139497 15.4373202920872785 9.4047093294229231 Zr
    velocity 0.2971445995137751 0.2381436977168860 0.1495519792506258
atom 17.6238017935139553 15.4373202920872785 9.4047093294229231 Zr
    velocity 0.1474223374339940 -0.5729370728354735 0.2417433013492674
atom 22.7708017935139573 15.4373202920872785 9.4047093294229231 Zr
    velocity -0.0986766468023913 0.1491997799270012 -0.0463946200906567
atom 2.1828017935139519 20.6573202920872809 9.4047093294229231 Zr
    velocity 0.2304575802227961 0.2631241976152663 0.4613713985686100
atom 7.3298017935139521 20.6573202920872809 9.4047093294229231 Zr
    velocity 0.1416176951953499 0.0240210493078021 0.3382486293655436
atom 12.4768017935139497 20.6573202920872809 9.4047093294229231 Zr
    velocity -0.2091092805768103 -0.2903397353234530 -0.5837759342002584
atom 17.6238017935139553 20.6573202920872809 9.4047093294229231 Zr
    velocity 0.2597272777781879 0.2534342181218432 -0.3327687083065572
atom 22.7708017935139573 20.6573202920872809 9.4047093294229231 Zr
    velocity 0.2902816696560446 -0.1888985136094086 -0.8003131518310936
atom 2.1828017935139519 25.8773202920872833 9.4047093294229231 Zr
    velocity -0.3758510328817566 0.1427344199292221 -0.3137531577709095
atom 7.3298017935139521 25.8773202920872833 9.4047093294229231 Zr
    velocity 0.2074674252097035 0.1938147821980376 -0.2537163421323541
atom 12.4768017935139497 25.8773202920872833 9.4047093294229231 Zr
    velocity -0.0056397616437322 -0.1270758524074791 -0.1588071877411637
atom 17.6238017935139553 25.8773202920872833 9.4047093294229231 Zr
    velocity 0.1757477084268997 -0.1836644069914566 -0.1490292199362843
atom 22.7708017935139573 25.8773202920872833 9.4047093294229231 Zr
    velocity -0.3380809422491122 -0.1687987409323761 -0.0599040076040877
atom 1.3224230499596581 4.9973202920872826 14.6587291635727652 Zr
    velocity -0.3320846646500785 0.1463226527330135 0.4615805695466986
atom 6.4694230499596577 4.9973202920872826 14.6587291635727652 Zr
    velocity -0.5398240413882917 -0.1800235457401947 -0.2268823488413477
atom 11.6164230499596570 4.9973202920872826 14.6587291635727652 Zr
    velocity -0.1826097994129589 -0.0090601656758935 0.2680309595902785
atom 16.7634230499596590 4.9973202920872826 14.6587291635727652 Zr
    velocity -0.6131150089644276 0.3621346438686400 -0.5434197329882805
atom 21.9104230499596611 4.9973202920872826 14.6587291635727652 Zr
    velocity -0.1076309550535998 -0.2519466969696920 -0.2302347906648214
atom 1.3224230499596581 10.2173202920872832 14.6587291635727652 Zr
    velocity -0.2389508514718586 0.0408051441948979 0.5298429758950975
atom 6.4694230499596577 10.2173202920872832 14.6587291635727652 Zr
    velocity -0.1976220498737162 -0.0886714474235039 -0.2258147706012911
atom 11.6164230499596570 10.2173202920872832 14.6587291635727652 Zr
    velocity -0.0736470960256730 0.3884655883820085 -0.2782685583857151
atom 16.7634230499596590 10.2173202920872832 14.6587291635727652 Zr
    velocity -0.3009048375251844 0.1035537649184429 0.0583919660027840
atom 21.9104230499596611 10.2173202920872832 14.6587291635727652 Zr
    velocity -0.0408643668302955 0.4046938803471528 -0.3176606166924105
atom 1.3224230499596581 15.4373202920872785 14.6587291635727652 Zr
    velocity -0.4515150772775104 -0.2400007375146112 0.0944608308118255
atom 6.4694230499596577 15.4373202920872785 14.6587291635727652 Zr
    velocity 0.2914068481788060 -0.2350552950394631 0.3938076301503485
atom 11.6164230499596570 15.4373202920872785 14.6587291635727652 Zr
    velocity -0.8624758938614425 -0.2238363838714639 0.1324818228264616
atom 16.7634230499596590 15.4373202920872785 14.6587291635727652 Zr
    velocity 0.0095037890802835 0.0351331068153284 -0.0510194881814200
atom 21.9104230499596611 15.4373202920872785 14.6587291635727652 Zr
    velocity 0.2102754900758014 -0.2157765488726217 0.2960542793132029
atom 1.3224230499596581 20.6573202920872809 14.6587291635727652 Zr
    velocity 0.3151115117608485 0.0489010969812942 -0.5831169430439315
atom 6.4694230499596577 20.6573202920872809 14.6587291635727652 Zr
    velocity -0.1724596803492677 -0.5022603326059071 0.0492446720127295
atom 11.6164230499596570 20.6573202920872809 14.6587291635727652 Zr
    velocity 0.1906128450904733 -0.0768942047582090 0.4111391631135390
atom 16.7634230499596590 20.6573202920872809 14.6587291635727652 Zr
    velocity 0.4480935048894083 -0.4623130607782694 0.0266667139719210
atom 21.9104230499596611 20.6573202920872809 14.6587291635727652 Zr
    velocity 0.3422625783204738 -0.3381415232578368 -0.1583830734662688
atom 1.3224230499596581 25.8773202920872833 14.6587291635727652 Zr
    velocity -0.2473542435193241 0.1508541218484097 -0.3010176568076507
atom 6.4694230499596577 25.8773202920872833 14.6587291635727652 Zr
    velocity -0.3906404495801806 0.2035990099280854 0.1637618504354600
atom 11.6164230499596570 25.8773202920872833 14.6587291635727652 Zr
    velocity 0.0871815080969744 -0.2167447706179323 0.0461275336906917
atom 16.7634230499596590 25.8773202920872833 14.6587291635727652 Zr
    velocity -0.4961161550240159 0.2208011518032166 0.0455527072860576
atom 21.9104230499596611 25.8773202920872833 14.6587291635727652 Zr
    velocity 0.2371255865443846 -0.4644858190212608 0.3484256925165410
atom 0.4620443064053651 4.9973202920872826 19.9127489977226055 Zr
    velocity -0.4486324291078708 -0.3148405265883804 0.1520342194798299
atom 5.6090443064053650 4.9973202920872826 19.9127489977226055 Zr
    velocity -0.3831633397256876 -0.1225876652547520 -0.2650032289453567
atom 10.7560443064053608 4.9973202920872826 19.9127489977226055 Zr
    velocity -0.1680580474662117 0.0235753735377192 -0.4946930815481271
atom 15.9030443064053664 4.9973202920872826 19.9127489977226055 Zr
    velocity -0.3791173133855300 0.2609288686654429 -0.3152091946293470
atom 21.0500443064053684 4.9973202920872826 19.9127489977226055 Zr
    velocity -0.1313828245887792 -0.1385445279974217 0.2367595722636728
atom 0.4620443064053651 10.2173202920872832 19.9127489977226055 Zr
    velocity -0.0825889677286761 0.0474942499244467 -0.1099878081523040
atom 5.6090443064053650 10.2173202920872832 19.9127489977226055 Zr
    velocity 0.2301105432561518 -0.4015137550915861 -0.2481426295823753
atom 10.7560443064053608 10.2173202920872832 19.9127489977226055 Zr
    velocity -0.5524773660247790 0.0520660938787844 0.0780897588315293
atom 15.9030443064053664 10.2173202920872832 19.9127489977226055 Zr
    velocity 0.1641651798603392 0.0107274750492584 0.3881095771429163
atom 21.0500443064053684 10.2173202920872832 19.9127489977226055 Zr
    velocity 0.3126625856196271 -0.1794448440885265 0.1048294031729747
atom 0.4620443064053651 15.4373202920872785 19.9127489977226055 Zr
    velocity -0.0992787936295557 -0.0183649387209976 -0.3811258319671555
atom 5.6090443064053650 15.4373202920872785 19.9127489977226055 Zr