#=======================================================
# FHI-aims file: starting_geometries/geometry_300_0.in
# Created using the Atomic Simulation Environment (ASE)
# Wed Jan 13 17:51:19 2021

# Additional information:
# starting geometry from CC, T=300, ens=0
#=======================================================
lattice_vector 10.1515389999999996 0.0000000000000000 0.0000000000000000 
lattice_vector 0.0000000000000000 10.1515500000000003 0.0000000000000000 
lattice_vector 0.0000000000000000 0.0000000000000000 10.3735759999999999 
atom_frac 0.0655465333876962 0.8134611985361843 0.9939756396444196 Zr
    velocity -0.0401922647973910 1.4488505172608945 -0.2573063006365169
atom_frac 0.5713073544809315 0.8161698952376731 0.9888001476058014 Zr
    velocity -1.8290393164769105 2.0249309492814338 0.7458195272081015
atom_frac 0.0653926877491186 0.3172399613852072 0.9924633067709726 Zr
    velocity 2.0079200195499358 -0.8777971296088705 1.6681000980854632
atom_frac 0.5748143045108728 0.3032883500549177 0.9924377986915988 Zr
    velocity -1.0185253733342750 -1.7238073979424473 -2.5253198480734742
atom_frac 0.0712348610392966 0.8266770325713807 0.4999367267372408 Zr
    velocity -0.9942601350199887 3.1253638814370208 -2.9710113986326148
atom_frac 0.5641871680737276 0.8340640187951593 0.4852152546045838 Zr
    velocity 2.7546040894994497 -3.8917545035340750 0.7683405583324936
atom_frac 0.0714007413063182 0.3130943639148702 0.4992695141964545 Zr
    velocity 1.5612723578523926 0.6970413448780305 -2.0444550051227703
atom_frac 0.5710186465323140 0.3239559023006339 0.4839753494841124 Zr
    velocity 2.1866143359405208 -2.4482957554865097 0.9448879613342742
atom_frac 0.0723741661239739 0.0720233747555792 0.2451179757105939 Zr
    velocity 0.8472200625720372 -1.7094124062298610 0.9107590105069115
atom_frac 0.5727501711809412 0.0672225236540233 0.2383866036167277 Zr
    velocity 1.1334796382852448 -1.3863890033941193 1.6248854059935591
atom_frac 0.0736845841797978 0.5619837689810916 0.2518954784733828 Zr
    velocity -2.3731769762787680 -0.8021738839033021 1.6161703882836074
atom_frac 0.5617849332992761 0.5679591087075373 0.2406810660084815 Zr
    velocity 0.4285453096662710 -0.2744840626018900 0.5341283464751312
atom_frac 0.0762718785791987 0.0679241780811797 0.7420396360907753 Zr
    velocity -1.4352632746972926 -0.3138122868717016 1.4415583904241456
atom_frac 0.5659926273247831 0.0729222670429639 0.7432832670238305 Zr
    velocity -1.0186416821347286 -1.0117838259184189 0.5151299679503349
atom_frac 0.0667386078110915 0.5645658268934300 0.7383876640032329 Zr
    velocity 1.0939944745121859 -1.5387672980789564 -0.8338838594709971
atom_frac 0.5696641553561486 0.5614957617309673 0.7357120148346143 Zr
    velocity 0.5024638561543389 1.8684218462498803 -1.1039436189549106
atom_frac 0.3151559866932492 0.8116158281247691 0.2371959891169641 Zr
    velocity -1.9031798803725735 0.2253773180003488 1.0725903512462509
atom_frac 0.8195938074020108 0.8136969901148101 0.2477504343728720 Zr
    velocity -2.4577036055339954 -1.5484089324963037 2.4031881432054254
atom_frac 0.3224537048027890 0.3194966482950879 0.2428953718563396 Zr
    velocity 1.1133757647909464 1.8108710299311435 -2.0162956219379917
atom_frac 0.8094135194673440 0.3142506829006408 0.2396631412349993 Zr
    velocity 0.1331315162489035 1.2931140449224674 2.4007705101849903
atom_frac 0.3252081078543855 0.8206001241189769 0.7447162694908679 Zr
    velocity 2.5217217467415693 -1.7484439161191756 -0.5582390118751431
atom_frac 0.8193622572892643 0.8017066191862326 0.7427431553015084 Zr
    velocity -1.8369346196198273 0.7674393931951050 -0.5324735629961752
atom_frac 0.3235823642109832 0.3180971536366368 0.7508678473074279 Zr
    velocity -0.4425706466595947 1.8028638178771679 -2.6389137043594468
atom_frac 0.8205287671160009 0.3048329811703632 0.7335808056932344 Zr
    velocity 2.2524600968505335 -0.4363043884456998 1.2294388020693630
atom_frac 0.3164313785328511 0.0648420773182420 0.9962923219533939 Zr
    velocity -3.9044654567574968 1.8984771468339707 -1.0651621138156406
atom_frac 0.8337058912939211 0.0575138161167506 0.9914301644871546 Zr
    velocity -0.5013840188273508 0.5674334893010200 -0.7768802781318993
atom_frac 0.3255316883479441 0.5640747777433003 0.9899917848965486 Zr
    velocity -2.3293559187395645 3.2350529218563739 -3.7371412197692524
atom_frac 0.8256758625465558 0.5610486546389467 0.9991515105302164 Zr
    velocity -1.2471234679243501 -0.6845592266202734 -1.7013564342780350
atom_frac 0.3175881361436921 0.0741077559584497 0.4941761134251101 Zr
    velocity 3.6147489873547838 -0.7421064623393691 1.3520358435341990
atom_frac 0.8170407019073661 0.0603794267870424 0.4909003414058951 Zr
    velocity -1.1206613309737474 -1.2475886055590877 2.9914789257624919
atom_frac 0.3164901883349904 0.5686497756500239 0.4893597299523327 Zr
    velocity -0.3108571557366230 1.3407343513267778 0.5223386557092025
atom_frac 0.8143171020669872 0.5743599667045919 0.4863079356626875 Zr
    velocity 4.0390907876915696 0.1380620287294417 0.7605305220117190
atom_frac 0.1963804276376223 0.9337397284158576 0.0934772396712570 O
    velocity 2.0471850472474142 4.0617778377294709 -4.6941679700964825
atom_frac 0.7002691552482830 0.9473667370992607 0.0878537218023948 O
    velocity -9.4508495218428727 1.4839051845883973 -4.0525437107255655
atom_frac 0.1981151646070611 0.4406320768749600 0.0936299372559665 O
    velocity -1.5567556809411174 3.9296180361864379 -1.3660517567115984
atom_frac 0.6986454940477499 0.4355602366141131 0.0876230019426281 O
    velocity -1.4181648594471101 0.4180353054514864 -0.9773968321781473
atom_frac 0.1983655926456078 0.9612032201979007 0.5973358097535507 O
    velocity 2.9794017619205779 -0.0226408465833207 -1.9164581058323400
atom_frac 0.6987449065604733 0.9370447645925992 0.5948067011799981 O
    velocity 4.1837271482517755 3.5757023625413820 2.7317324463413302
atom_frac 0.1989938166025861 0.4476452837251454 0.5929019289008920 O
    velocity -1.5554060679701345 -0.9074206644946279 1.9286885039291044
atom_frac 0.6888698649534816 0.4502342194049184 0.5811906260676164 O
    velocity 2.3832948641150860 6.5422084566180132 -0.5875616044407168
atom_frac 0.1937918881068181 0.9412170693145381 0.3430686370832970 O
    velocity 2.0046530864992551 -5.0985812219311697 -1.5818174272069696
atom_frac 0.6957327534278301 0.9512766080056740 0.3468736884946907 O
    velocity 0.9644847314114304 -4.7740840483258946 3.6119204182997513
atom_frac 0.1872428269250603 0.4323328989169142 0.3467667832192101 O
    velocity -4.2544686374875402 2.0721634281932890 -5.8077201081033749
atom_frac 0.6989817603025512 0.4507953780457171 0.3421839614420331 O
    velocity -1.1116211664945626 0.6481524947292491 7.1670490870528747
atom_frac 0.1978810739928202 0.9397226659968182 0.8409802839445144 O
    velocity 2.2483926671405516 5.1252242274414286 0.6090908805133179
atom_frac 0.6848738314456558 0.9361334653328802 0.8326104006949966 O
    velocity 3.7458618073999661 0.7243911888721765 4.5692626862129693
atom_frac 0.1943193322707030 0.4408470332116770 0.8345715093811430 O
    velocity -3.0692426855316755 -1.3386548258292297 1.7330807294780983
atom_frac 0.7046838494143598 0.4448878033403766 0.8295898839513008 O
    velocity -0.7019210955761034 3.2097006276493003 3.8415326621095462
atom_frac 0.4450975453081548 0.9433479852830357 0.1327016450257847 O
    velocity 7.9499306693226304 -2.8818307353066759 -3.1388912218124392
atom_frac 0.9409839788824138 0.9491433515078979 0.1387743715378381 O
    velocity 2.8363785424196193 -4.8526483621700338 2.1098051364407988
atom_frac 0.4435196082091593 0.4402791573700569 0.1347086713395650 O
    velocity -3.7386263022808532 -4.4550922793183352 -1.6375252562901415
atom_frac 0.9370165824117900 0.4455330850953795 0.1510502617419490 O
    velocity 3.8944109137424001 6.5494476401620201 -0.1961043347183578
atom_frac 0.4444306415017468 0.9429795420403780 0.6353800752990098 O
    velocity 2.7928072873367080 -7.2179836701012672 0.8837584873869678
atom_frac 0.9553431425520801 0.9325446163393767 0.6390128505348589 O
    velocity -3.8158223010953987 -1.1446579975501163 -1.4970613260188894
atom_frac 0.4389512289712920 0.4501484118188848 0.6383355276907404 O
    velocity 0.3981906446533637 -6.7504359268779295 0.5683094789792958
atom_frac 0.9500257438798198 0.4376372425885702 0.6443960318023408 O
    velocity -2.9450081367235348 -2.1622833422959356 -1.2492686684102636
atom_frac 0.4484295445252193 0.9594801690382257 0.3848106660615394 O
    velocity -2.6144123826267460 -9.5343546419651517 -5.4582844423029675
atom_frac 0.9458436922716842 0.9344608931640980 0.3902800962753827 O
    velocity 6.1094603222078065 0.8233166433068517 -2.4044877691388815
atom_frac 0.4428619808287197 0.4440886386807926 0.3836141856964271 O
    velocity 5.5645282143302133 -1.6279113634484170 2.4149435350634243
atom_frac 0.9378658152226970 0.4364066620368319 0.3979725920936040 O
    velocity -3.9363245400454079 0.5987030480976141 -6.0284737359737965
atom_frac 0.4424105743966506 0.9408935797981589 0.8874297445740986 O
    velocity -4.3136179487969146 5.0397924954207589 -0.2115942515512059
atom_frac 0.9463059118425295 0.9428219473873447 0.8830557331435177 O
    velocity -6.7992991124827604 -8.9543382408380907 3.8266172292265441
atom_frac 0.4486343430291703 0.4418478724923781 0.8915821275132123 O
    velocity 2.0562517324392440 -4.1590212536863556 -4.7095980079747486
atom_frac 0.9529252924113282 0.4380238121272121 0.8984974332862651 O
    velocity 1.2984105847871592 -3.4046978530100449 -1.6378650491279942
atom_frac 0.1977488634974461 0.1856301431801055 0.1461218975982824 O
    velocity -2.3222947537091625 -1.5629420200478856 -1.2264122241080462
atom_frac 0.6857048926276106 0.1987575591904684 0.1345283150188517 O
    velocity 1.0960104229172360 8.7779575139463830 -0.2910828860685062
atom_frac 0.1851620133656582 0.6913850742004916 0.1474687581215966 O
    velocity -6.1889718530577271 -2.3160960616129342 1.7261918378183649
atom_frac 0.6719577937887055 0.6993296058237413 0.1409273330623885 O
    velocity -2.8312477623245238 8.0474468912338395 -4.6098921851104251
atom_frac 0.1957178561792453 0.2026128394186109 0.6385191124063678 O
    velocity 0.2910225587951580 -6.6131376411689820 -3.8419611605154622
atom_frac 0.6938966377413317 0.2002216794479661 0.6314675585352630 O
    velocity -3.7981499076297771 2.3697405814825863 -5.6134797889334624
atom_frac 0.1900248484490874 0.7054016371884096 0.6377208862209136 O
    velocity 0.9505867046777700 0.7492102265987974 1.7577866243017042
atom_frac 0.6880285481836794 0.6877403322645311 0.6414786521060818 O
    velocity 6.6879865161968652 1.1057701629697443 6.7814499919111464
atom_frac 0.1877998360642658 0.1857910082696731 0.3880591032446285 O
    velocity 0.7875337624622392 6.7476772025015723 3.3651005003770562
atom_frac 0.6878450114805253 0.1967895414985889 0.3806207820716790 O
    velocity 3.5563025255041385 -0.7501801986981086 -3.0522986775920975
atom_frac 0.1995818358181947 0.6942453300234940 0.3801246156580912 O
    velocity -2.8936732919683994 -7.0164915240270052 2.3140278943347314
atom_frac 0.6949123369372862 0.6995186675926337 0.3882108416615446 O
    velocity 0.5577930418820020 6.8012622316127755 -0.2954758974793222
atom_frac 0.1804295703341139 0.1859732641813319 0.8945973423243826 O
    velocity -1.2932793495310866 -1.3404435477622154 -4.6860051739074917
atom_frac 0.6975271828242003 0.1870786461180805 0.8760334305161498 O
    velocity -1.5466632854408700 3.7796777960776597 10.1437403890093396
atom_frac 0.2019354247666290 0.6887506203486167 0.8986702811065346 O
    velocity 9.5532716172205294 -3.6597925266062226 -0.8153720985990240
atom_frac 0.7021192944242248 0.6890053775039280 0.8994305888345542 O
    velocity -0.9221475964671653 3.9876235886605675 -1.8520085259181096
atom_frac 0.4396106639594253 0.1948404076224813 0.0922717074613422 O
    velocity 0.1589079597940249 -0.7052517547427052 -1.0292413459606762
atom_frac 0.9370945252734587 0.2018580492634130 0.0995218273814160 O
    velocity -2.2954232333234614 -2.8326883200375721 1.0207591079347298
atom_frac 0.4328689915883691 0.6949435504922893 0.0893899885632495 O
    velocity -2.1722578374098638 0.9039654629131539 1.6488646413822290
atom_frac 0.9246623728677987 0.7084747324300230 0.0924758511433280 O
    velocity 4.1662591625214693 3.7832738206259910 2.0367487963252064
atom_frac 0.4503381329668339 0.2019290926016224 0.5997673348129902 O
    velocity -8.1343784497192093 0.0576569832252121 -1.1721450300756238
atom_frac 0.9573504913885472 0.1768139683102580 0.5951923608599388 O
    velocity 5.8877236275547347 0.1488589426119799 -0.1703948402949174
atom_frac 0.4386196693920006 0.7069245139904744 0.5804845686771851 O
    velocity -1.8032620941007920 -3.7806700508352362 -2.3863440210850331
atom_frac 0.9355103300100607 0.6894274953085981 0.5933649476323305 O
    velocity -1.8635748676581629 -0.3180907595525111 2.4669915563740066
atom_frac 0.4366859921436543 0.1949309573414897 0.3493552416254530 O
    velocity 2.1080086833653966 1.1127616782566987 0.0561331417344126
atom_frac 0.9329355962677187 0.1817395570134610 0.3497975047370357 O
    velocity -2.3479419416528393 0.3633915011159035 0.0403108562449069
atom_frac 0.4494480098042278 0.7016019130083584 0.3324663645400583 O
    velocity -5.6407409710907830 -0.0846545263500932 -0.7724486994146980
atom_frac 0.9474004158384262 0.6944092143564283 0.3419744107528590 O
    velocity -1.9385653586947329 2.1108066351997912 4.9961146891972641
atom_frac 0.4408717151162991 0.1952777556136747 0.8500739368950495 O
    velocity 4.6406167308863013 -3.4998587721897638 -3.0369360642258565
atom_frac 0.9466706821497707 0.1919931419339904 0.8394496160244065 O
    velocity 1.3892473230097566 7.0168893207641254 -0.9887871647069838
atom_frac 0.4447995530529903 0.6857146967704439 0.8362662306614421 O
    velocity 2.4785992500332727 2.0659382623780411 7.3504704625491835
atom_frac 0.9542865953625358 0.6993451827553427 0.8449317342447773 O
    velocity -6.6312282026120775 -0.1562961654756700 -0.9252779878202659
