#=======================================================
# FHI-aims file: 300_new_geometry.in.primitive.supercell_1500.0010K
# Created using the Atomic Simulation Environment (ASE)
# Mon Nov 21 18:33:13 2022

# Additional information:
#  created from MB distrubtion
#  T = 10.0 K
#  quantum:             False
#  deterministic:       False
#  plus_minus:          False
#  gauge_eigenvectors:  False
#  Random seed:         835620421
#  Sample number:       1
#=======================================================
lattice_vector 25.7349999999999994 0.0000000000000000 0.0000000000000000 
lattice_vector 0.0000000000000000 26.0449999999999982 0.0000000000000000 
lattice_vector -4.2913894693997507 0.0000000000000000 26.2059535491827660 
atom 1.2438815868856599 0.2222104594860840 1.1006363299083157 Zr
    velocity 0.4603638816872569 -0.1728556923846596 -0.2251079849672639
atom 6.3908815868856594 0.2222104594860840 1.1006363299083157 Zr
    velocity 0.2502476482386140 0.1681184518213962 -0.1220722303083542
atom 11.5378815868856606 0.2222104594860840 1.1006363299083157 Zr
    velocity -0.3555974956033381 -0.5474988114640928 0.0685636409982067
atom 16.6848815868856626 0.2222104594860840 1.1006363299083157 Zr
    velocity -0.1402973342772532 0.1377789057693443 -0.0289092597574832
atom 21.8318815868856611 0.2222104594860840 1.1006363299083157 Zr
    velocity 0.3329010185298202 0.2868299812914167 0.1144317916347321
atom 1.2438815868856599 5.4312104594860831 1.1006363299083157 Zr
    velocity -0.1695291000786813 0.1210744324324944 0.4963121623737189
atom 6.3908815868856594 5.4312104594860831 1.1006363299083157 Zr
    velocity 0.5852981723725573 0.1185100811237087 0.2209174310420608
atom 11.5378815868856606 5.4312104594860831 1.1006363299083157 Zr
    velocity -0.1144685857062844 0.1281472878010198 -0.0925785460328690
atom 16.6848815868856626 5.4312104594860831 1.1006363299083157 Zr
    velocity -0.1123090508564968 0.1512748563122124 0.1935467783464342
atom 21.8318815868856611 5.4312104594860831 1.1006363299083157 Zr
    velocity -0.1036701499358857 -0.2932770035194404 0.1483477330254317
atom 1.2438815868856599 10.6402104594860862 1.1006363299083157 Zr
    velocity 0.3277237464395610 0.2649381783377632 -0.0342321936509250
atom 6.3908815868856594 10.6402104594860862 1.1006363299083157 Zr
    velocity -0.1250995652637003 -0.0274927248525360 -0.0863926308618028
atom 11.5378815868856606 10.6402104594860862 1.1006363299083157 Zr
    velocity -0.0417068450210975 0.1397673164814370 0.1913017473103095
atom 16.6848815868856626 10.6402104594860862 1.1006363299083157 Zr
    velocity 0.1069310316899393 0.3979222232892887 -0.1038266243813199
atom 21.8318815868856611 10.6402104594860862 1.1006363299083157 Zr
    velocity -0.1360939022038079 -0.1728145570619536 -0.0850122408542785
atom 1.2438815868856599 15.8492104594860841 1.1006363299083157 Zr
    velocity 0.0298898510396001 0.1125162948506724 -0.5749244524883864
atom 6.3908815868856594 15.8492104594860841 1.1006363299083157 Zr
    velocity -0.3844372406813352 0.3823659157147324 -0.1860455155905402
atom 11.5378815868856606 15.8492104594860841 1.1006363299083157 Zr
    velocity -0.2361038138238469 0.0237141408891732 -0.7602331061844422
atom 16.6848815868856626 15.8492104594860841 1.1006363299083157 Zr
    velocity -0.2993940902368425 -0.1121449197319908 -0.4779023232904357
atom 21.8318815868856611 15.8492104594860841 1.1006363299083157 Zr
    velocity -0.1804047746682843 0.4392584822102951 0.1933595189074317
atom 1.2438815868856599 21.0582104594860837 1.1006363299083157 Zr
    velocity 0.3913536354149826 -0.3339883191639754 -0.4235929946380683
atom 6.3908815868856594 21.0582104594860837 1.1006363299083157 Zr
    velocity -0.2282672936272670 -0.3636339651699335 -0.5325661213210089
atom 11.5378815868856606 21.0582104594860837 1.1006363299083157 Zr
    velocity -0.0953662091297794 0.6661374895242230 -0.1174734502942159
atom 16.6848815868856626 21.0582104594860837 1.1006363299083157 Zr
    velocity -0.6491347447455794 0.1578152636297470 0.1288104877583460
atom 21.8318815868856611 21.0582104594860837 1.1006363299083157 Zr
    velocity 0.2104744875542664 -0.1539646024183127 -0.2677478715778684
atom 0.3856036930057097 0.2222104594860840 6.3418270397448691 Zr
    velocity 0.2603269325716727 -0.4299879627629612 0.3983865296238157
atom 5.5326036930057096 0.2222104594860840 6.3418270397448691 Zr
    velocity 0.3500733742987722 -0.2221664551763348 0.1402544544890725
atom 10.6796036930057099 0.2222104594860840 6.3418270397448691 Zr
    velocity 0.1512231670055054 -0.1848002484770419 0.2965787249981612
atom 15.8266036930057119 0.2222104594860840 6.3418270397448691 Zr
    velocity 0.6690515482153925 -0.3671614908905277 -0.0567981723738988
atom 20.9736036930057104 0.2222104594860840 6.3418270397448691 Zr
    velocity -0.1136304425015659 0.2506068679630705 -0.0530313056167232
atom 0.3856036930057097 5.4312104594860831 6.3418270397448691 Zr
    velocity -0.7717602298723101 0.1085451555660941 -0.0773354317489989
atom 5.5326036930057096 5.4312104594860831 6.3418270397448691 Zr
    velocity 0.1650916994605665 0.3593262667873146 -0.1871437355648888
atom 10.6796036930057099 5.4312104594860831 6.3418270397448691 Zr
    velocity 0.2408985061867389 0.1262944072621012 0.1592095660664799
atom 15.8266036930057119 5.4312104594860831 6.3418270397448691 Zr
    velocity -0.0500526164393324 -0.1492918769140103 0.2374271894637659
atom 20.9736036930057104 5.4312104594860831 6.3418270397448691 Zr
    velocity -0.0309063179890027 -0.1504319983234919 -0.4891084950070789
atom 0.3856036930057097 10.6402104594860862 6.3418270397448691 Zr
    velocity 0.1036613740444032 -0.2692802326839025 0.4789914584914642
atom 5.5326036930057096 10.6402104594860862 6.3418270397448691 Zr
    velocity -0.1696072822228904 -0.4210828286324850 0.0562013251817700
atom 10.6796036930057099 10.6402104594860862 6.3418270397448691 Zr
    velocity -0.0188112419620400 0.1220628302215701 -0.1031823486207775
atom 15.8266036930057119 10.6402104594860862 6.3418270397448691 Zr
    velocity 0.0443657043695971 -0.5826830139060327 -0.0555088446519297
atom 20.9736036930057104 10.6402104594860862 6.3418270397448691 Zr
    velocity -0.2866679745235108 0.5537443785438412 -0.2727320623852743
atom 0.3856036930057097 15.8492104594860841 6.3418270397448691 Zr
    velocity 0.5078529974307679 0.1872247794493669 -0.1607758135122472
atom 5.5326036930057096 15.8492104594860841 6.3418270397448691 Zr
    velocity -0.1324903734199294 -0.0660942828866135 0.1571118762719894
atom 10.6796036930057099 15.8492104594860841 6.3418270397448691 Zr
    velocity -0.4246931150943785 -0.1797653551470008 0.2015308303701928
atom 15.8266036930057119 15.8492104594860841 6.3418270397448691 Zr
    velocity -0.0208175126137533 0.0377955906614997 0.4256286900590744
atom 20.9736036930057104 15.8492104594860841 6.3418270397448691 Zr
    velocity 0.2853019516120759 0.0997184653509511 -0.1669126970683507
atom 0.3856036930057097 21.0582104594860837 6.3418270397448691 Zr
    velocity 0.1402180824170851 0.1102511716186101 0.1824463267274408
atom 5.5326036930057096 21.0582104594860837 6.3418270397448691 Zr
    velocity -0.6118022701183530 0.0309645800761683 -0.2306940205129099
atom 10.6796036930057099 21.0582104594860837 6.3418270397448691 Zr
    velocity 0.1674619582015291 -0.4617054450060663 -0.0699089520935028
atom 15.8266036930057119 21.0582104594860837 6.3418270397448691 Zr
    velocity 0.2304736662797126 0.0939342451790106 -0.1662964898897480
atom 20.9736036930057104 21.0582104594860837 6.3418270397448691 Zr
    velocity -0.0470466999209769 -0.1958470751325298 -0.2063289364241051
atom -0.4726742008742409 0.2222104594860840 11.5830177495814244 Zr
    velocity -0.0182919487567522 -0.2261468369752364 0.0935450901126623
atom 4.6743257991257590 0.2222104594860840 11.5830177495814244 Zr
    velocity 0.1222538369513479 -0.1947299444886503 0.3097575229293640
atom 9.8213257991257592 0.2222104594860840 11.5830177495814244 Zr
    velocity 0.1542520545834945 0.2278435774200415 -0.1253640357426923
atom 14.9683257991257612 0.2222104594860840 11.5830177495814244 Zr
    velocity -0.2712584512310138 0.1769903693937121 0.0960339152553011
atom 20.1153257991257597 0.2222104594860840 11.5830177495814244 Zr
    velocity 0.1824421543506371 0.3449639802020064 -0.2961250802286069
atom -0.4726742008742409 5.4312104594860831 11.5830177495814244 Zr
    velocity -0.0242093475527271 0.0727615496431055 0.1120374455110083
atom 4.6743257991257590 5.4312104594860831 11.5830177495814244 Zr
    velocity 0.4294855959072432 -0.1039451282888430 0.3029457498474815
atom 9.8213257991257592 5.4312104594860831 11.5830177495814244 Zr
    velocity 0.1978731616386262 -0.6072592331408693 0.1197201403737873
atom 14.9683257991257612 5.4312104594860831 11.5830177495814244 Zr
    velocity -0.0203907295156056 -0.0527942820019563 -0.1065244771483404
atom 20.1153257991257597 5.4312104594860831 11.5830177495814244 Zr
    velocity -0.2267910111786534 -0.3703832003773998 0.1042261210028335
atom -0.4726742008742409 10.6402104594860862 11.5830177495814244 Zr
    velocity -0.2660207768641884 -0.5783932374541759 -0.0045994256509562
atom 4.6743257991257590 10.6402104594860862 11.5830177495814244 Zr
    velocity 0.0993967469832747 0.1984069909878088 0.4656296404729190
atom 9.8213257991257592 10.6402104594860862 11.5830177495814244 Zr
    velocity 0.2779689128305122 -0.4763393938742206 0.2729719422275919
atom 14.9683257991257612 10.6402104594860862 11.5830177495814244 Zr
    velocity -0.3806321002534309 0.6495559985399376 0.0731865819876149
atom 20.1153257991257597 10.6402104594860862 11.5830177495814244 Zr
    velocity -0.5789814914735677 0.0497574734159576 0.1547400411677657
atom -0.4726742008742409 15.8492104594860841 11.5830177495814244 Zr
    velocity -0.6438265353073764 0.9664581360546394 -0.6369749903839549
atom 4.6743257991257590 15.8492104594860841 11.5830177495814244 Zr
    velocity 0.0751816851000335 -0.4499985424782582 0.0737281812873558
atom 9.8213257991257592 15.8492104594860841 11.5830177495814244 Zr
    velocity -0.2265659710707898 -0.1179699443215098 0.0333838134320301
atom 14.9683257991257612 15.8492104594860841 11.5830177495814244 Zr
    velocity 0.0378306596877832 -0.0370874360900520 0.4376442163270253
atom 20.1153257991257597 15.8492104594860841 11.5830177495814244 Zr
    velocity -0.4935941682258952 0.3428350435381728 -0.1504249423455274
atom -0.4726742008742409 21.0582104594860837 11.5830177495814244 Zr
    velocity -0.1622668256060322 0.3206071360432059 -0.1722044585647019
atom 4.6743257991257590 21.0582104594860837 11.5830177495814244 Zr
    velocity -0.3819386424068767 0.0443737422671402 0.1433344792917285
atom 9.8213257991257592 21.0582104594860837 11.5830177495814244 Zr
    velocity -0.2318531433591055 -0.2266803685794619 -0.3741208265587669
atom 14.9683257991257612 21.0582104594860837 11.5830177495814244 Zr
    velocity 0.0985800953379671 -0.2305251808068764 0.1790303960646794
atom 20.1153257991257597 21.0582104594860837 11.5830177495814244 Zr
    velocity -0.2732982912735873 0.3581852622118215 -0.0669179702485349
atom -1.3309520947541909 0.2222104594860840 16.8242084594179779 Zr
    velocity -0.2106590623695385 -0.2136573313973276 0.0758229242407731
atom 3.8160479052458087 0.2222104594860840 16.8242084594179779 Zr
    velocity -0.1594017137085987 -0.4283338718864556 -0.2857450432456246
atom 8.9630479052458085 0.2222104594860840 16.8242084594179779 Zr
    velocity -0.2642764204260955 -0.1323653238316630 0.2259197397835351
atom 14.1100479052458105 0.2222104594860840 16.8242084594179779 Zr
    velocity 0.3091205080282350 -0.1500757088547781 0.0182595616280771
atom 19.2570479052458090 0.2222104594860840 16.8242084594179779 Zr
    velocity 0.5627156724573849 -0.1142058233028103 -0.1197916229831001
atom -1.3309520947541909 5.4312104594860831 16.8242084594179779 Zr
    velocity -0.5274497953966732 -0.1498711489191355 0.1889975372867048
atom 3.8160479052458087 5.4312104594860831 16.8242084594179779 Zr
    velocity 0.2539334302194178 0.2539888926877892 -0.0053338991456326
atom 8.9630479052458085 5.4312104594860831 16.8242084594179779 Zr
    velocity -0.0548113995248216 -0.6855547519372718 0.1283874944928395
atom 14.1100479052458105 5.4312104594860831 16.8242084594179779 Zr
    velocity -0.1857400130003007 -0.0854447916063389 0.1524684094131227
atom 19.2570479052458090 5.4312104594860831 16.8242084594179779 Zr
    velocity -0.0463937491688272 0.4106214952462088 -0.4658061582180390
atom -1.3309520947541909 10.6402104594860862 16.8242084594179779 Zr
    velocity 0.3481877703035146 0.0371208953674702 0.4477820360282038
atom 3.8160479052458087 10.6402104594860862 16.8242084594179779 Zr
    velocity -0.0448509445381154 0.6364865991729666 0.5764186585017146
atom 8.9630479052458085 10.6402104594860862 16.8242084594179779 Zr
    velocity 0.5209546882079535 0.1131139626817459 -0.1414926679684654
atom 14.1100479052458105 10.6402104594860862 16.8242084594179779 Zr
    velocity 0.0849250354034200 0.0250507082686248 -0.4512558174770802
atom 19.2570479052458090 10.6402104594860862 16.8242084594179779 Zr
    velocity -0.0756927402487299 -0.4831236846695740 0.3815120308304011
atom -1.3309520947541909 15.8492104594860841 16.8242084594179779 Zr
    velocity -0.1194689969745192 0.3386393763073908 -0.1943879186738366
atom 3.8160479052458087 15.8492104594860841 16.8242084594179779 Zr
    velocity 0.4433541435406993 0.4063144957974930 -0.3897607575674180
atom 8.9630479052458085 15.8492104594860841 16.8242084594179779 Zr
    velocity -0.2082106513735252 0.1752931428177577 -0.2317207338475310
atom 14.1100479052458105 15.8492104594860841 16.8242084594179779 Zr
    velocity 0.2804122930287381 -0.2598261700565878 -0.0942155121921995
atom 19.2570479052458090 15.8492104594860841 16.8242084594179779 Zr
    velocity 0.1288570828124206 0.2709322296100276 -0.4718592778249724
atom -1.3309520947541909 21.0582104594860837 16.8242084594179779 Zr
    velocity 0.0425992142709475 -0.1376809086960781 -0.7500380454205761
atom 3.8160479052458087 21.0582104594860837 16.8242084594179779 Zr
    velocity -0.3381442346982494 0.0039623240513144 0.6640267375536826
atom 8.9630479052458085 21.0582104594860837 16.8242084594179779 Zr
    velocity 0.0032551142463099 -0.9276940332856262 0.0051427668569269
atom 14.1100479052458105 21.0582104594860837 16.8242084594179779 Zr
    velocity 0.1165231125922825 0.2975640725619048 -0.0619136002181776
atom 19.2570479052458090 21.0582104594860837 16.8242084594179779 Zr
    velocity 0.0299682769643954 -0.0048478300110022 0.2527850211686097
atom -2.1892299886341413 0.2222104594860840 22.0653991692545333 Zr
    velocity -0.2737699966063700 0.0073929822949706 0.0234379471331711
atom 2.9577700113658585 0.2222104594860840 22.0653991692545333 Zr
    velocity 0.2656900224665347 -0.7931404807245563 -0.0615267913728552
atom 8.1047700113658561 0.2222104594860840 22.0653991692545333 Zr
    velocity -0.3916362773139689 -0.0986046978345186 -0.0231051878560494
atom 13.2517700113658599 0.2222104594860840 22.0653991692545333 Zr
    velocity 0.0576536460193859 0.0987694538372671 -0.2105651990807487
atom 18.3987700113658583 0.2222104594860840 22.0653991692545333 Zr
    velocity 0.3558256473349029 -0.6248493294631191 -0.2251694881428759
atom -2.1892299886341413 5.4312104594860831 22.0653991692545333 Zr
    velocity -0.1826940337694379 -0.1842004490553675 0.5763307053345180
atom 2.9577700113658585 5.4312104594860831 22.0653991692545333 Zr
    velocity -0.2332904743120758 0.0208642446086546 0.0638064876777986
atom 8.1047700113658561 5.4312104594860831 22.0653991692545333 Zr
    velocity -0.6391565169721115 0.0972020778677418 -0.1114338839667906
atom 13.2517700113658599 5.4312104594860831 22.0653991692545333 Zr
    velocity -0.2934731821053788 -0.2188230903731811 -0.0964627137775219
atom 18.3987700113658583 5.4312104594860831 22.0653991692545333 Zr
    velocity 0.3182437476995750 0.0909519053115576 -0.1509386061729090
atom -2.1892299886341413 10.6402104594860862 22.0653991692545333 Zr
    velocity -0.0037906229424283 -0.2860654476357061 0.2495308266994346
atom 2.9577700113658585 10.6402104594860862 22.0653991692545333 Zr
    velocity 0.1903204621942634 0.2846868790522634 0.2541912795540343
atom 8.1047700113658561 10.6402104594860862 22.0653991692545333 Zr
    velocity 0.5560556368572640 -0.1201992204566674 0.2148681181708164
atom 13.2517700113658599 10.6402104594860862 22.0653991692545333 Zr
    velocity 0.2354826587767303 0.2937405355451406 0.9021862545954614
atom 18.3987700113658583 10.6402104594860862 22.0653991692545333 Zr
    velocity 0.1150494435342751 -0.2120630913845067 0.8299188361688311
atom -2.1892299886341413 15.8492104594860841 22.0653991692545333 Zr
    velocity 0.3316210950571941 0.6436448763962772 -0.3447638655817188
atom 2.9577700113658585 15.8492104594860841 22.0653991692545333 Zr
    velocity -0.3676882515431220 0.0988027450807570 -0.3442279930771903
atom 8.1047700113658561 15.8492104594860841 22.0653991692545333 Zr
    velocity -0.0090413736033468 -0.1217059844329313 -0.4402978394717788
atom 13.2517700113658599 15.8492104594860841 22.0653991692545333 Zr
    velocity 0.0375605698147570 0.4605785412476767 -0.2466217457692202
atom 18.3987700113658583 15.8492104594860841 22.0653991692545333 Zr
    velocity 0.0323905710996348 0.8165763758406942 0.0382183525213356
atom -2.1892299886341413 21.0582104594860837 22.0653991692545333 Zr
    velocity -0.6563910261499907 -0.2479750338600661 -0.0699556072229153
atom 2.9577700113658585 21.0582104594860837 22.0653991692545333 Zr
    velocity 0.2773739678365832 0.0804272378837861 0.2033023588228837
atom 8.1047700113658561 21.0582104594860837 22.0653991692545333 Zr
    velocity -0.3897040295360551 -0.0613974395341484 0.1878955513600606
atom 13.2517700113658599 21.0582104594860837 22.0653991692545333 Zr
    velocity -0.2442417480952601 -0.0053520934309846 -0.3296863309418261
atom 18.3987700113658583 21.0582104594860837 22.0653991692545333 Zr
    velocity -0.9684913385342536 0.3321412828534988 -0.0899972601792371
atom 3.0448402138394997 4.9867895405139153 4.1405544533049072 Zr
    velocity -0.4731188228385374 -0.3072367153289300 0.3267267401875942
atom 8.1918402138394999 4.9867895405139153 4.1405544533049072 Zr
    velocity 0.1237480074769485 -0.0539420534789948 0.4459718029120636
atom 13.3388402138394984 4.9867895405139153 4.1405544533049072 Zr
    velocity 0.0060977267702127 0.4717568476304068 -0.0374523853411376
atom 18.4858402138395022 4.9867895405139153 4.1405544533049072 Zr
    velocity -0.1358249571004987 -0.2257380943176424 0.2874243047713070
atom 23.6328402138395042 4.9867895405139153 4.1405544533049072 Zr
    velocity -0.1188829901082344 -0.3126638560081851 0.3980405450193099
atom 3.0448402138394997 10.1957895405139176 4.1405544533049072 Zr
    velocity 0.4314516237225147 0.2263834391280416 -0.0925750492637089
atom 8.1918402138394999 10.1957895405139176 4.1405544533049072 Zr
    velocity 0.3350589946429940 -0.4403038932192234 0.0849148126945809
atom 13.3388402138394984 10.1957895405139176 4.1405544533049072 Zr
    velocity -0.6174080570621104 -0.3325306994057236 0.0369309199271847
atom 18.4858402138395022 10.1957895405139176 4.1405544533049072 Zr
    velocity -0.2021057548137384 -0.1334291901519124 0.2928691681635128
atom 23.6328402138395042 10.1957895405139176 4.1405544533049072 Zr
    velocity -0.0504272924699253 0.4642917305675061 0.2865367292440951
atom 3.0448402138394997 15.4047895405139155 4.1405544533049072 Zr
    velocity 0.1360366901711834 0.2154467409380123 -0.1352021767230267
atom 8.1918402138394999 15.4047895405139155 4.1405544533049072 Zr
    velocity 0.3561398334623912 -0.0551725467242405 -0.4761891992704492
atom 13.3388402138394984 15.4047895405139155 4.1405544533049072 Zr
    velocity 0.2550103548502800 -0.1580069960165664 -0.3727214260194023
atom 18.4858402138395022 15.4047895405139155 4.1405544533049072 Zr
    velocity 0.1205219308908426 -0.1099709288658690 -0.0836051957144607
atom 23.6328402138395042 15.4047895405139155 4.1405544533049072 Zr
    velocity 0.1674454927517501 -0.1380712380464303 -0.2338785057516894
atom 3.0448402138394997 20.6137895405139169 4.1405544533049072 Zr
    velocity 0.1519380703827267 -0.3437012847010614 0.2366407453036315
atom 8.1918402138394999 20.6137895405139169 4.1405544533049072 Zr
    velocity -0.0006566266474826 0.2693929163716026 0.1271400091364000
atom 13.3388402138394984 20.6137895405139169 4.1405544533049072 Zr
    velocity 0.2494539449735538 0.1821461079869170 0.3273777357472340
atom 18.4858402138395022 20.6137895405139169 4.1405544533049072 Zr
    velocity 0.2410124228848430 -0.4276154475932388 0.2429617398576800
atom 23.6328402138395042 20.6137895405139169 4.1405544533049072 Zr
    velocity 0.4628470614014031 0.1867149258533944 0.2120224196622078
atom 3.0448402138394997 25.8227895405139165 4.1405544533049072 Zr
    velocity 0.3127491342149383 0.1745874507296733 -0.3432382412678335
atom 8.1918402138394999 25.8227895405139165 4.1405544533049072 Zr
    velocity 0.3270149027237318 -0.2717774304422529 -0.0051123610030393
atom 13.3388402138394984 25.8227895405139165 4.1405544533049072 Zr
    velocity 0.0424535118723084 0.1741517153507844 0.1008051120569904
atom 18.4858402138395022 25.8227895405139165 4.1405544533049072 Zr
    velocity 0.0037857771017233 -0.0281211951618206 -0.2419204050805487
atom 23.6328402138395042 25.8227895405139165 4.1405544533049072 Zr
    velocity 0.4416247092773627 -0.4636291094378219 -0.1672417769781326
atom 2.1865623199595490 4.9867895405139153 9.3817451631414635 Zr
    velocity -0.4321998379503306 0.3679008796911998 0.3720387346357822
atom 7.3335623199595483 4.9867895405139153 9.3817451631414635 Zr
    velocity 0.2819412201859128 -0.0712038766446602 -0.7183614607715539
atom 12.4805623199595477 4.9867895405139153 9.3817451631414635 Zr
    velocity 0.1792269695616445 -0.8620644123280260 -0.2872736588722640
atom 17.6275623199595515 4.9867895405139153 9.3817451631414635 Zr
    velocity -0.4761807647860144 0.2532486128485271 0.0419367956791243
atom 22.7745623199595535 4.9867895405139153 9.3817451631414635 Zr
    velocity 0.1812070621727760 -0.1262763432142810 0.0726533588231186
atom 2.1865623199595490 10.1957895405139176 9.3817451631414635 Zr
    velocity 0.3994330702321248 -0.0564543326237779 0.1212376366486144
atom 7.3335623199595483 10.1957895405139176 9.3817451631414635 Zr
    velocity -0.1572300027847615 -0.1937023692812253 0.2821300770495543
atom 12.4805623199595477 10.1957895405139176 9.3817451631414635 Zr
    velocity -0.1555170358886974 0.0473621286230539 -0.1652541226486647
atom 17.6275623199595515 10.1957895405139176 9.3817451631414635 Zr
    velocity 0.0055687796109463 -0.3452152949412001 -0.2398916038213398
atom 22.7745623199595535 10.1957895405139176 9.3817451631414635 Zr
    velocity 0.4851776549317421 0.3839142880031661 0.0322934051656044
atom 2.1865623199595490 15.4047895405139155 9.3817451631414635 Zr
    velocity 0.6162286631512108 0.3376398678482471 -0.3910288035737690
atom 7.3335623199595483 15.4047895405139155 9.3817451631414635 Zr
    velocity -0.3624431006925742 -0.3094267276868161 0.0472198407771768
atom 12.4805623199595477 15.4047895405139155 9.3817451631414635 Zr
    velocity 0.5562802139499652 -0.5024702872085919 -0.2996201535711807
atom 17.6275623199595515 15.4047895405139155 9.3817451631414635 Zr
    velocity 0.1227345326671123 -0.0389698264075131 0.0140925246796205
atom 22.7745623199595535 15.4047895405139155 9.3817451631414635 Zr
    velocity -0.1526662661120870 0.0579845075657499 0.0941178700246062
atom 2.1865623199595490 20.6137895405139169 9.3817451631414635 Zr
    velocity 0.0603454588318999 -0.9897030204273380 0.0324279849047592
atom 7.3335623199595483 20.6137895405139169 9.3817451631414635 Zr
    velocity -0.1568994713775695 0.3584153758278434 -0.3546621377336214
atom 12.4805623199595477 20.6137895405139169 9.3817451631414635 Zr
    velocity -0.1382767136683786 0.2985667036387132 -0.1430171336329863
atom 17.6275623199595515 20.6137895405139169 9.3817451631414635 Zr
    velocity 0.2370707609756663 -0.3715830479588532 0.1152732875547183
atom 22.7745623199595535 20.6137895405139169 9.3817451631414635 Zr
    velocity 0.3364830300476470 0.0422510340553241 0.0353622827921411
atom 2.1865623199595490 25.8227895405139165 9.3817451631414635 Zr
    velocity -0.3229002944270357 -0.4311175710397913 -0.1602273550589265
atom 7.3335623199595483 25.8227895405139165 9.3817451631414635 Zr
    velocity -0.3089823279313144 -0.0404956611116655 0.0793281837011821
atom 12.4805623199595477 25.8227895405139165 9.3817451631414635 Zr
    velocity 0.1342610717042834 0.4910426289405526 -0.2867398025438773
atom 17.6275623199595515 25.8227895405139165 9.3817451631414635 Zr
    velocity -0.2228345416766612 -0.1061278098730412 -0.1168067138536499
atom 22.7745623199595535 25.8227895405139165 9.3817451631414635 Zr
    velocity -0.2244528394319112 -0.1778812344391674 -0.3587331551214118
atom 1.3282844260795992 4.9867895405139153 14.6229358729780134 Zr
    velocity 0.0290659513643006 0.2187252291808960 -0.2080119163888367
atom 6.4752844260795994 4.9867895405139153 14.6229358729780134 Zr
    velocity -0.4700892491048756 0.0536393863452691 -0.4597459387580231
atom 11.6222844260795970 4.9867895405139153 14.6229358729780134 Zr
    velocity 0.0170007794653110 -0.0308505653719549 0.2555332760838440
atom 16.7692844260796008 4.9867895405139153 14.6229358729780134 Zr
    velocity 0.3273821717429176 -0.0482051500711935 -0.6004083175780076
atom 21.9162844260796028 4.9867895405139153 14.6229358729780134 Zr
    velocity -0.3152231414416800 0.0721735634239150 -0.2396105331047838
atom 1.3282844260795992 10.1957895405139176 14.6229358729780134 Zr
    velocity 0.3062703222522156 0.2337078670511628 -0.0187388211160242
atom 6.4752844260795994 10.1957895405139176 14.6229358729780134 Zr
    velocity 0.3861174059226338 0.2583921986090800 -0.0907995372536008
atom 11.6222844260795970 10.1957895405139176 14.6229358729780134 Zr
    velocity 0.3354004395091180 0.0221738809794808 0.1346009976282160
atom 16.7692844260796008 10.1957895405139176 14.6229358729780134 Zr
    velocity -0.3885517448545747 0.2183028689898582 0.3950402988902075
atom 21.9162844260796028 10.1957895405139176 14.6229358729780134 Zr
    velocity 0.0665994853758203 0.0792066592313447 0.1446646420557538
atom 1.3282844260795992 15.4047895405139155 14.6229358729780134 Zr
    velocity 0.1561101898465706 -0.0883746619821199 0.1817165946314716
atom 6.4752844260795994 15.4047895405139155 14.6229358729780134 Zr
    velocity 0.2315982374082221 0.0127118604572331 0.4936412140208634
atom 11.6222844260795970 15.4047895405139155 14.6229358729780134 Zr
    velocity 0.2255397261296667 0.0001053731694472 0.0120031801996736
atom 16.7692844260796008 15.4047895405139155 14.6229358729780134 Zr
    velocity 0.2884328508171642 -0.3971213318269376 0.4097720512910712
atom 21.9162844260796028 15.4047895405139155 14.6229358729780134 Zr
    velocity -0.4019417398512027 -0.1805840072096455 -0.1808553038439239
atom 1.3282844260795992 20.6137895405139169 14.6229358729780134 Zr
    velocity 0.3933436209875849 0.1423338736153725 0.5023686476192011
atom 6.4752844260795994 20.6137895405139169 14.6229358729780134 Zr
    velocity -0.1399344602518959 -0.0916737610221460 -0.1804329027522047
atom 11.6222844260795970 20.6137895405139169 14.6229358729780134 Zr
    velocity -0.0488886980347026 -0.4454112846718920 0.2976007166448627
atom 16.7692844260796008 20.6137895405139169 14.6229358729780134 Zr
    velocity 0.4519186691598776 0.0589471099145168 0.0275185313714495
atom 21.9162844260796028 20.6137895405139169 14.6229358729780134 Zr
    velocity 0.1694572664875578 0.1951944565112943 -0.2343666524822773
atom 1.3282844260795992 25.8227895405139165 14.6229358729780134 Zr
    velocity -0.2652366989682381 0.4604525657680970 0.2406148456323119
atom 6.4752844260795994 25.8227895405139165 14.6229358729780134 Zr
    velocity 0.1317846276370721 0.2463296946203824 -0.1678321101533469
atom 11.6222844260795970 25.8227895405139165 14.6229358729780134 Zr
    velocity 0.4271702904524009 0.0782967528151420 -0.0440235491754467
atom 16.7692844260796008 25.8227895405139165 14.6229358729780134 Zr
    velocity 0.0742437687744332 -0.3053145850595307 0.0916251090643702
atom 21.9162844260796028 25.8227895405139165 14.6229358729780134 Zr
    velocity -0.0163887943888259 -0.4727282151349064 -0.9493917357209884
atom 0.4700065321996488 4.9867895405139153 19.8641265828145706 Zr
    velocity 0.5970243242001698 0.4177729819714227 0.3590211390636929
atom 5.6170065321996487 4.9867895405139153 19.8641265828145706 Zr
    velocity 0.3419351471409540 0.6164625919148378 0.5655882759911556
atom 10.7640065321996445 4.9867895405139153 19.8641265828145706 Zr
    velocity -0.1048543667204642 0.5016765292332749 -0.3583367078481581
atom 15.9110065321996501 4.9867895405139153 19.8641265828145706 Zr
    velocity -0.0941742542685890 0.6064133509866898 -0.2348995452399688
atom 21.0580065321996521 4.9867895405139153 19.8641265828145706 Zr
    velocity -0.3707503163991757 -0.1441229422548401 0.2185014425120568
atom 0.4700065321996488 10.1957895405139176 19.8641265828145706 Zr
    velocity 0.2943114576217983 0.3129167466546929 -0.5252758550632578
atom 5.6170065321996487 10.1957895405139176 19.8641265828145706 Zr
    velocity -0.0718690345159948 0.0372437322014276 -0.2136682247778813
atom 10.7640065321996445 10.1957895405139176 19.8641265828145706 Zr
    velocity -0.5183416433811842 0.0751662163475776 0.2204970832219346
atom 15.9110065321996501 10.1957895405139176 19.8641265828145706 Zr
    velocity 0.4517171800716687 -0.1611987024215617 -0.3017599468317378
atom 21.0580065321996521 10.1957895405139176 19.8641265828145706 Zr
    velocity 0.0432540260122787 -0.0349822515243137 -0.1754770020230884
atom 0.4700065321996488 15.4047895405139155 19.8641265828145706 Zr
    velocity -0.3382422648766295 -0.1078657134890373 -0.7507841024567745
atom 5.6170065321996487 15.4047895405139155 19.8641265828145706 Zr