#=======================================================
# FHI-aims file: 300_new_geometry.in.primitive.supercell_96.0010K
# Created using the Atomic Simulation Environment (ASE)
# Sat Nov 26 17:17:12 2022

# Additional information:
#  created from MB distrubtion
#  T = 10.0 K
#  quantum:             False
#  deterministic:       False
#  plus_minus:          False
#  gauge_eigenvectors:  False
#  Random seed:         1730176644
#  Sample number:       1
#=======================================================
lattice_vector 10.2940000000000005 0.0000000000000000 0.0000000000000000 
lattice_vector 0.0000000000000000 10.4179999999999993 0.0000000000000000 
lattice_vector -1.7165557877599003 0.0000000000000000 10.4823814196731071 
atom 1.2438815868856596 0.2222104594860840 1.1006363299083171 Zr
    velocity 0.0502789709283557 0.3310082223677330 -0.1821308431857815
atom 6.3908815868856603 0.2222104594860840 1.1006363299083171 Zr
    velocity 0.3566442632557463 0.0152082947654417 0.4506976613030684
atom 1.2438815868856596 5.4312104594860848 1.1006363299083171 Zr
    velocity 0.1047949942868746 -0.2374238575563570 0.6401955894839030
atom 6.3908815868856603 5.4312104594860848 1.1006363299083171 Zr
    velocity 0.2839118166438496 0.6490886632790073 -0.0674764453780943
atom 0.3856036930057096 0.2222104594860840 6.3418270397448699 Zr
    velocity 0.1760788204324769 -0.2052435592536815 -0.1877210376987631
atom 5.5326036930057105 0.2222104594860840 6.3418270397448699 Zr
    velocity -0.0435316044679140 0.5690543288869577 0.5063418182301725
atom 0.3856036930057096 5.4312104594860848 6.3418270397448699 Zr
    velocity 0.4348751228791452 0.0336831349303459 -0.7703219228913236
atom 5.5326036930057105 5.4312104594860848 6.3418270397448699 Zr
    velocity 0.0011426492852151 -0.3535298688107001 -0.1484705852008336
atom 3.0448402138394997 4.9867895405139171 4.1405544533049072 Zr
    velocity -0.0160905227177811 -0.0982216668356284 -0.5323662716484343
atom 8.1918402138394999 4.9867895405139171 4.1405544533049072 Zr
    velocity 0.3220230274147517 0.0203042578303407 0.0424953680628275
atom 3.0448402138394997 10.1957895405139158 4.1405544533049072 Zr
    velocity -0.4788445013966025 -0.3457717909946021 -0.0451139607825851
atom 8.1918402138394999 10.1957895405139158 4.1405544533049072 Zr
    velocity 0.1705588533308548 -0.7550816903629726 -0.3461434397360645
atom 2.1865623199595507 4.9867895405139171 9.3817451631414617 Zr
    velocity -0.2522194192143479 -0.0337696307763811 0.2991918214999159
atom 7.3335623199595492 4.9867895405139171 9.3817451631414617 Zr
    velocity 0.5279602840780868 -0.1100763717200066 0.2025019843598181
atom 2.1865623199595507 10.1957895405139158 9.3817451631414617 Zr
    velocity -0.4329697840028245 -0.2209684391608976 0.2199605496019764
atom 7.3335623199595492 10.1957895405139158 9.3817451631414617 Zr
    velocity -0.2823787229236176 0.2191767461572278 -0.0985825107851392
atom 3.4739791607794759 2.8267104594860850 1.5199590983866320 Zr
    velocity -0.1272471975333022 -0.0554253235824568 0.2646546568142438
atom 8.6209791607794752 2.8267104594860850 1.5199590983866320 Zr
    velocity -0.0064023170720218 0.0907519165063867 0.4379618154105540
atom 3.4739791607794759 8.0357104594860846 1.5199590983866320 Zr
    velocity 0.1049677309681432 0.1131953435117854 0.1834442506416867
atom 8.6209791607794752 8.0357104594860846 1.5199590983866320 Zr
    velocity 0.2732534104791309 -0.3056933663056795 0.4102098197194996
atom 2.6157012668995256 2.8267104594860850 6.7611498082231849 Zr
    velocity 0.4886153794031113 0.3534444860414582 -0.1296109841790339
atom 7.7627012668995263 2.8267104594860850 6.7611498082231849 Zr
    velocity -0.2194530159164664 0.0463529925149558 0.1143441316326803
atom 2.6157012668995256 8.0357104594860846 6.7611498082231849 Zr
    velocity -0.1139410707953926 -0.2578917837845214 0.0641281445755968
atom 7.7627012668995263 8.0357104594860846 6.7611498082231849 Zr
    velocity 0.0055094092750883 -0.3975456902909822 -0.4359271789185674
atom 0.8147426399456855 2.3822895405139146 3.7212316848265936 Zr
    velocity 0.0977648953077321 -0.1340037047796065 -0.0541487963471727
atom 5.9617426399456850 2.3822895405139146 3.7212316848265936 Zr
    velocity -0.3033656284043811 -0.0124799216308656 0.0129228873268202
atom 0.8147426399456855 7.5912895405139142 3.7212316848265936 Zr
    velocity -0.1627355111249222 0.1968338638694064 0.0435124126189124
atom 5.9617426399456850 7.5912895405139142 3.7212316848265936 Zr
    velocity -0.1340700744189224 0.1158786678593822 -0.2423238908305286
atom -0.0435352539342646 2.3822895405139146 8.9624223946631467 Zr
    velocity -0.1388339113511797 0.2652954326302882 0.4269130509508370
atom 5.1034647460657352 2.3822895405139146 8.9624223946631467 Zr
    velocity 0.0517009750600128 0.2085762002252320 -0.1835738822240350
atom -0.0435352539342646 7.5912895405139142 8.9624223946631467 Zr
    velocity -0.2680291789091215 0.0357981725220262 -0.3857671907729798
atom 5.1034647460657352 7.5912895405139142 8.9624223946631467 Zr
    velocity 0.0363892505370257 0.1867752951340804 -0.3587537640387901
atom 0.0634256681534755 1.7445322436109238 1.7960432717909049 O
    velocity 0.5723603745900750 -1.0631500516045949 2.0932545600069230
atom 5.2104256681534755 1.7445322436109238 1.7960432717909049 O
    velocity -1.1517184017941620 0.6179164608288295 0.1449477379719375
atom 0.0634256681534755 6.9535322436109235 1.7960432717909049 O
    velocity 0.9139189309353407 1.2717798030599692 0.1562575839523860
atom 5.2104256681534755 6.9535322436109235 1.7960432717909049 O
    velocity -0.2504777032184752 -0.4172468920927321 -0.1939701697343516
atom -0.7948522257264746 1.7445322436109238 7.0372339816274581 O
    velocity 0.6202200426154402 -0.1155929333795599 0.7073765604749780
atom 4.3521477742735257 1.7445322436109238 7.0372339816274581 O
    velocity 0.4424799474327148 -0.6575114226297536 -0.6706739007039554
atom -0.7948522257264746 6.9535322436109235 7.0372339816274581 O
    velocity -0.9266044522112921 -0.1472037785577252 0.5410438748040334
atom 4.3521477742735257 6.9535322436109235 7.0372339816274581 O
    velocity 1.2086837667907651 -1.6359985614827559 -2.2182942829814820
atom 4.2252961325716845 3.4644677563890758 3.4451475114223205 O
    velocity -1.4036637383612980 0.3951945910321437 0.2970566705936644
atom 9.3722961325716838 3.4644677563890758 3.4451475114223205 O
    velocity 1.0293049346141567 1.3738531602206696 1.3062118466286745
atom 4.2252961325716845 8.6734677563890763 3.4451475114223205 O
    velocity 0.0487999289498522 0.1318986495343862 1.0918416605563166
atom 9.3722961325716838 8.6734677563890763 3.4451475114223205 O
    velocity -1.1406007745796354 1.3775362628330592 0.7800133629456619
atom 3.3670182386917347 3.4644677563890758 8.6863382212588736 O
    velocity -0.8802530835934097 0.6631102090665592 0.5882822707723593
atom 8.5140182386917331 3.4644677563890758 8.6863382212588736 O
    velocity -0.3038145036939249 1.2030628925301465 -0.0996950706717439
atom 3.3670182386917347 8.6734677563890763 8.6863382212588736 O
    velocity -1.2708762637973245 -0.5610955456414712 -0.5180213449314934
atom 8.5140182386917331 8.6734677563890763 8.6863382212588736 O
    velocity -0.1057661709018158 -0.3566205395326390 -0.1665251410399875
atom 4.6544350795116598 4.3490322436109246 0.8245521565040428 O
    velocity -0.2011310162055551 0.0187139568912059 -0.1742391116046251
atom 9.8014350795116592 4.3490322436109246 0.8245521565040428 O
    velocity 0.3710410607644948 -0.7490003346152656 0.8569066285297594
atom 4.6544350795116598 9.5580322436109242 0.8245521565040428 O
    velocity 0.5560034302898597 0.0398230250157212 0.4272271655204089
atom 9.8014350795116592 9.5580322436109242 0.8245521565040428 O
    velocity -0.0098251010046102 1.2020012063432037 -0.1720726548427350
atom 3.7961571856317096 4.3490322436109246 6.0657428663405968 O
    velocity -0.2081848006614191 0.1749753029476251 -0.9052500560747162
atom 8.9431571856317085 4.3490322436109246 6.0657428663405968 O
    velocity -0.2070351605668098 0.6274942129910602 0.2472166436309398
atom 3.7961571856317096 9.5580322436109242 6.0657428663405968 O
    velocity -0.9053981601944706 -0.0305697944943337 -0.6524986958593521
atom 8.9431571856317085 9.5580322436109242 6.0657428663405968 O
    velocity 1.0577034452275720 0.4047394673942925 -0.0865545111498503
atom -0.3657132787864987 0.8599677563890759 4.4166386267091831 O
    velocity -0.6043713898273546 -0.2390998780399081 -0.4589209346354078
atom 4.7812867212135011 0.8599677563890759 4.4166386267091831 O
    velocity -0.3033823253650721 -1.4575030951623844 0.6839741642509587
atom -0.3657132787864987 6.0689677563890756 4.4166386267091831 O
    velocity -0.7178872264952655 0.2057293735184213 -0.2072318151753942
atom 4.7812867212135011 6.0689677563890756 4.4166386267091831 O
    velocity -0.3445325423529065 -0.5454466493152376 1.1877614032558925
atom -1.2239911726664487 0.8599677563890759 9.6578293365457366 O
    velocity -0.0968517915509272 -0.0576916576343840 -0.6665515436756991
atom 3.9230088273335508 0.8599677563890759 9.6578293365457366 O
    velocity -0.5143737675663206 -1.4216276948688553 0.1355228618752758
atom -1.2239911726664487 6.0689677563890756 9.6578293365457366 O
    velocity 0.7017945109613463 -0.2808235808144518 -1.2333009325497859
atom 3.9230088273335508 6.0689677563890756 9.6578293365457366 O
    velocity -0.4436947060157045 1.1346417716682613 -0.6367731806865733
atom 1.9008837747467782 3.9454556245608727 2.5116268046396062 O
    velocity -0.3779111308086215 0.0001628248582131 -0.5856967811383725
atom 7.0478837747467784 3.9454556245608727 2.5116268046396062 O
    velocity -0.4916342590482276 -0.8954771547068091 -0.8146281218601840
atom 1.9008837747467782 9.1544556245608710 2.5116268046396062 O
    velocity -1.1706156156833809 1.0252169477735358 0.3978794326202481
atom 7.0478837747467784 9.1544556245608710 2.5116268046396062 O
    velocity 0.1756953975707879 -1.7076769814198498 -0.2728402808014721
atom 1.0426058808668281 3.9454556245608727 7.7528175144761597 O
    velocity 0.0225047115799788 -1.1860486603199336 -0.2126835504552734
atom 6.1896058808668286 3.9454556245608727 7.7528175144761597 O
    velocity -0.1130689802842743 0.9344951290524047 0.1943225378401105
atom 1.0426058808668281 9.1544556245608710 7.7528175144761597 O
    velocity 0.0637835342425125 -0.6477168846952814 0.4073944367343074
atom 6.1896058808668286 9.1544556245608710 7.7528175144761597 O
    velocity -0.5676254508973180 0.1798482358491114 0.3866883479341374
atom 2.3878380259783807 1.2635443754391280 2.7295639785736183 O
    velocity 0.6177147453011500 0.6603784212118905 -0.1823111567583947
atom 7.5348380259783800 1.2635443754391280 2.7295639785736183 O
    velocity 0.3746906177672251 0.4082540293518291 0.6397443065478867
atom 2.3878380259783807 6.4725443754391279 2.7295639785736183 O
    velocity 1.9695739708553897 -0.5891451425399737 -0.2241004984588452
atom 7.5348380259783800 6.4725443754391279 2.7295639785736183 O
    velocity -1.4553406550127153 0.0100907911374487 0.2309781689503394
atom 1.5295601320984304 1.2635443754391280 7.9707546884101728 O
    velocity -0.4827975327954219 0.1786452038092972 -1.4971861944834945
atom 6.6765601320984302 1.2635443754391280 7.9707546884101728 O
    velocity 0.9489621967172289 -0.1715711185556866 -0.3231571523833801
atom 1.5295601320984304 6.4725443754391279 7.9707546884101728 O
    velocity -0.1981951836604755 0.8072761232846489 0.2580384838154746
atom 6.6765601320984302 6.4725443754391279 7.9707546884101728 O
    velocity -0.3075205121325808 -0.2715689067740527 0.6238230242594334
atom 2.8169769729183556 1.3409556245608718 0.1089686236553406 O
    velocity 0.2098519787092747 -0.3131573648119362 1.1942164532490434
atom 7.9639769729183554 1.3409556245608718 0.1089686236553406 O
    velocity 0.3230920700406180 -1.3470991880466721 0.3198133089445375
atom 2.8169769729183556 6.5499556245608721 0.1089686236553406 O
    velocity 0.2948598358381663 1.6057989058515127 -0.8151310723143242
atom 7.9639769729183554 6.5499556245608721 0.1089686236553406 O
    velocity -0.1942752696108962 0.1083867106454287 -0.6443305225280644
atom 1.9586990790384056 1.3409556245608718 5.3501593334918942 O
    velocity 0.1549691146794502 -0.8544292364445942 -0.4772715205029404
atom 7.1056990790384056 1.3409556245608718 5.3501593334918942 O
    velocity 0.0464770965565308 0.4466341626611237 -1.1177029056249337
atom 1.9586990790384056 6.5499556245608721 5.3501593334918942 O
    velocity 0.2915183750537353 0.7623896067500232 -0.9045111155471844
atom 7.1056990790384056 6.5499556245608721 5.3501593334918942 O
    velocity 0.7649929242239001 1.3436439998928793 0.0549304632119889
atom 1.4717448278068026 3.8680443754391289 5.1322221595578865 O
    velocity -0.4724717089634277 -0.7233652492366107 0.4025509161632590
atom 6.6187448278068031 3.8680443754391289 5.1322221595578865 O
    velocity 0.3578911195975837 -0.6515161705107644 -0.7657479396531063
atom 1.4717448278068026 9.0770443754391277 5.1322221595578865 O
    velocity -0.2379780081863972 0.2852363477113846 1.1751098970291110
atom 6.6187448278068031 9.0770443754391277 5.1322221595578865 O
    velocity -0.4516923206884385 0.0538834080129781 -0.4048510725871232
atom 0.6134669339268527 3.8680443754391289 10.3734128693944392 O
    velocity 0.3045776234816320 0.0487143568407595 -0.6983628087735536
atom 5.7604669339268533 3.8680443754391289 10.3734128693944392 O
    velocity 0.5045954837062980 -0.3809708485169009 0.3075872069475135
atom 0.6134669339268527 9.0770443754391277 10.3734128693944392 O
    velocity 0.9727574142438135 0.0772109828429055 0.4077307653192459
atom 5.7604669339268533 9.0770443754391277 10.3734128693944392 O
    velocity -0.2964260021731369 0.1117174288784851 -0.1058436651224273
