#=======================================================
# FHI-aims file: 600_geometry.in.primitive.supercell_1500.0010K
# Created using the Atomic Simulation Environment (ASE)
# Tue Aug 16 11:33:27 2022

# Additional information:
#  created from MB distrubtion
#  T = 10.0 K
#  quantum:             False
#  deterministic:       False
#  plus_minus:          False
#  gauge_eigenvectors:  False
#  Random seed:         1930149817
#  Sample number:       1
#=======================================================
lattice_vector 25.8049999999999997 0.0000000000000000 0.0000000000000000 
lattice_vector 0.0000000000000000 26.0650000000000013 0.0000000000000000 
lattice_vector -4.2452219069654822 0.0000000000000000 26.3097052617588325 
atom 1.2496942447473680 0.2223810952775880 1.1049938475211403 Zr
    velocity -0.3121200027188359 -0.0304427010449895 0.0970674306314351
atom 6.4106942447473685 0.2223810952775880 1.1049938475211403 Zr
    velocity 0.4060009545534028 -0.2425621864428440 -0.1117372829292578
atom 11.5716942447473681 0.2223810952775880 1.1049938475211403 Zr
    velocity 0.5142822283106950 -0.0654880206681552 0.0794235288123740
atom 16.7326942447473677 0.2223810952775880 1.1049938475211403 Zr
    velocity 0.2467375307712623 0.2195509088534826 0.0908974379293404
atom 21.8936942447473655 0.2223810952775880 1.1049938475211403 Zr
    velocity -0.1874518967022190 0.0681368216628731 0.0312874100538994
atom 1.2496942447473680 5.4353810952775881 1.1049938475211403 Zr
    velocity 0.6866575263507885 -0.5270814611401609 -0.3651236974371986
atom 6.4106942447473685 5.4353810952775881 1.1049938475211403 Zr
    velocity -0.0466917292911309 0.0727321472701084 -0.1810602281718344
atom 11.5716942447473681 5.4353810952775881 1.1049938475211403 Zr
    velocity -0.1874529334658084 0.2080275284399674 0.0644028621180113
atom 16.7326942447473677 5.4353810952775881 1.1049938475211403 Zr
    velocity 0.0292870549234399 0.2755842441193679 0.0831331214505788
atom 21.8936942447473655 5.4353810952775881 1.1049938475211403 Zr
    velocity 0.4759306430739192 -0.1843991065614384 -0.3161894308028337
atom 1.2496942447473680 10.6483810952775908 1.1049938475211403 Zr
    velocity 0.4053555563351333 0.3779912800821242 0.3663853325999827
atom 6.4106942447473685 10.6483810952775908 1.1049938475211403 Zr
    velocity -0.0800183054050001 0.0265801003685523 -0.8345428732312331
atom 11.5716942447473681 10.6483810952775908 1.1049938475211403 Zr
    velocity 0.3437395025304986 0.2494243736878888 -0.0803561964544927
atom 16.7326942447473677 10.6483810952775908 1.1049938475211403 Zr
    velocity 0.0257535265858819 0.4754128752731416 0.3507286519253936
atom 21.8936942447473655 10.6483810952775908 1.1049938475211403 Zr
    velocity 0.1852199839903931 -0.1387251730181201 0.0006648532371463
atom 1.2496942447473680 15.8613810952775900 1.1049938475211403 Zr
    velocity 0.0068466876545192 -0.3567183595017273 0.1363385978945371
atom 6.4106942447473685 15.8613810952775900 1.1049938475211403 Zr
    velocity -0.6894228467351684 -0.0594701988616354 -0.6569809942520670
atom 11.5716942447473681 15.8613810952775900 1.1049938475211403 Zr
    velocity 0.2395073038289597 0.2717164372566903 0.2337834135435688
atom 16.7326942447473677 15.8613810952775900 1.1049938475211403 Zr
    velocity 0.5440184847385849 0.3003314892949842 -0.1572936709201972
atom 21.8936942447473655 15.8613810952775900 1.1049938475211403 Zr
    velocity -0.1615557235010527 0.4625786001573779 0.0195047616398874
atom 1.2496942447473680 21.0743810952775910 1.1049938475211403 Zr
    velocity 0.0511199952763402 0.1074886066835564 -0.0366094544477507
atom 6.4106942447473685 21.0743810952775910 1.1049938475211403 Zr
    velocity -0.3490101966354919 -0.0399698483345936 -0.0421890699874679
atom 11.5716942447473681 21.0743810952775910 1.1049938475211403 Zr
    velocity -0.3523022038892729 0.1809591674697300 0.0557230515468807
atom 16.7326942447473677 21.0743810952775910 1.1049938475211403 Zr
    velocity 0.4001500716130498 -0.2789820610390943 -0.4146116641159189
atom 21.8936942447473655 21.0743810952775910 1.1049938475211403 Zr
    velocity -0.1317292933036124 0.4297526500071204 -0.2165446604818196
atom 0.4006498633542711 0.2223810952775880 6.3669348998729092 Zr
    velocity -0.2943618524707824 0.1099436449118765 -0.2835014343282055
atom 5.5616498633542717 0.2223810952775880 6.3669348998729092 Zr
    velocity -0.3027903541332521 0.2272792967597616 -0.1865453584163763
atom 10.7226498633542722 0.2223810952775880 6.3669348998729092 Zr
    velocity 0.2063279361856078 0.0195845564396286 -0.3401652441868445
atom 15.8836498633542718 0.2223810952775880 6.3669348998729092 Zr
    velocity 0.1521411737515631 -0.0095248224265686 0.2845674919125176
atom 21.0446498633542696 0.2223810952775880 6.3669348998729092 Zr
    velocity -0.0950015212595780 -0.3893341894896675 0.2014640539056692
atom 0.4006498633542711 5.4353810952775881 6.3669348998729092 Zr
    velocity 0.0048812308951091 -0.4618604584118349 -0.2188663019102685
atom 5.5616498633542717 5.4353810952775881 6.3669348998729092 Zr
    velocity 0.3589065803041903 0.1338364897763035 -0.3109259672219759
atom 10.7226498633542722 5.4353810952775881 6.3669348998729092 Zr
    velocity -0.3841445036411709 -0.0779224720414987 0.0004733842783769
atom 15.8836498633542718 5.4353810952775881 6.3669348998729092 Zr
    velocity -0.6704405293378832 -0.1544003728945923 0.0255039549675612
atom 21.0446498633542696 5.4353810952775881 6.3669348998729092 Zr
    velocity -0.1668003896730340 0.1878852686918960 0.0314381789968258
atom 0.4006498633542711 10.6483810952775908 6.3669348998729092 Zr
    velocity 0.0404341326075915 -0.0866691115716035 -0.1605192495762560
atom 5.5616498633542717 10.6483810952775908 6.3669348998729092 Zr
    velocity 0.2826073933344716 -0.3177424351934600 -0.1503166395597688
atom 10.7226498633542722 10.6483810952775908 6.3669348998729092 Zr
    velocity 0.2044231288210696 0.0460082039648958 0.1701007629611854
atom 15.8836498633542718 10.6483810952775908 6.3669348998729092 Zr
    velocity -0.0326620449095252 0.0037655407953156 0.0871217365271513
atom 21.0446498633542696 10.6483810952775908 6.3669348998729092 Zr
    velocity 0.0184376759890345 -0.4177025589434747 0.1082626178235115
atom 0.4006498633542711 15.8613810952775900 6.3669348998729092 Zr
    velocity 0.1603530972013023 -0.1174962140349732 0.0298506800592500
atom 5.5616498633542717 15.8613810952775900 6.3669348998729092 Zr
    velocity -0.1063697182811042 -0.0443848435963134 -0.0869061675904922
atom 10.7226498633542722 15.8613810952775900 6.3669348998729092 Zr
    velocity -0.3403686588812618 0.1490397966586865 0.5175960540485172
atom 15.8836498633542718 15.8613810952775900 6.3669348998729092 Zr
    velocity -0.1359130302600929 -0.1132676181087743 0.5341001973921979
atom 21.0446498633542696 15.8613810952775900 6.3669348998729092 Zr
    velocity -0.1257321960090566 0.0188090644289978 -0.2393364808643419
atom 0.4006498633542711 21.0743810952775910 6.3669348998729092 Zr
    velocity 0.2820811068664232 -0.4022730309279637 0.0660841308972786
atom 5.5616498633542717 21.0743810952775910 6.3669348998729092 Zr
    velocity 0.3937070751207556 0.1049395128804022 -0.2403311719936175
atom 10.7226498633542722 21.0743810952775910 6.3669348998729092 Zr
    velocity -0.2666023427741687 0.1287845198712186 -0.1558004457991121
atom 15.8836498633542718 21.0743810952775910 6.3669348998729092 Zr
    velocity 0.4426867867377475 0.2015600724085507 0.5216581797065434
atom 21.0446498633542696 21.0743810952775910 6.3669348998729092 Zr
    velocity -0.0999021605826113 -0.0421339633580767 -0.0154208747165424
atom -0.4483945180388255 0.2223810952775880 11.6288759522246767 Zr
    velocity -0.6334465589686999 -0.2229271941674264 0.0695150388878241
atom 4.7126054819611749 0.2223810952775880 11.6288759522246767 Zr
    velocity -0.3822896404855300 -0.0147396044378014 -0.2543225496569112
atom 9.8736054819611745 0.2223810952775880 11.6288759522246767 Zr
    velocity -0.1188107786306653 -0.4000048370727599 -0.0369326066329621
atom 15.0346054819611741 0.2223810952775880 11.6288759522246767 Zr
    velocity 0.0537695334607944 0.0863951941896004 -0.0749032283321533
atom 20.1956054819611737 0.2223810952775880 11.6288759522246767 Zr
    velocity -0.3288074361126063 -0.1716361000089238 0.3364590004822792
atom -0.4483945180388255 5.4353810952775881 11.6288759522246767 Zr
    velocity -0.2417884307585093 -0.3873887351367030 -0.4019165454269141
atom 4.7126054819611749 5.4353810952775881 11.6288759522246767 Zr
    velocity -0.0270456965617538 -0.0115131992454441 -0.1621981137632046
atom 9.8736054819611745 5.4353810952775881 11.6288759522246767 Zr
    velocity -0.7175699831426096 -0.0370906899947867 -0.0796630495023222
atom 15.0346054819611741 5.4353810952775881 11.6288759522246767 Zr
    velocity -0.1137935368291263 0.6452984199419928 -0.1832878338876788
atom 20.1956054819611737 5.4353810952775881 11.6288759522246767 Zr
    velocity 0.3248022893354278 0.0957314836023887 -0.1910663956186952
atom -0.4483945180388255 10.6483810952775908 11.6288759522246767 Zr
    velocity -0.4448774259941795 -0.1067369731617219 -0.0597713791699788
atom 4.7126054819611749 10.6483810952775908 11.6288759522246767 Zr
    velocity 0.5715947520918537 0.3656706729229338 -0.0123886666868362
atom 9.8736054819611745 10.6483810952775908 11.6288759522246767 Zr
    velocity 0.4299172410736890 0.1921337068057647 0.2916426205598034
atom 15.0346054819611741 10.6483810952775908 11.6288759522246767 Zr
    velocity -0.0804283079408571 0.6072832774978993 0.0339979533119063
atom 20.1956054819611737 10.6483810952775908 11.6288759522246767 Zr
    velocity -0.3506165831474147 -0.3340206330012125 0.1115063319095568
atom -0.4483945180388255 15.8613810952775900 11.6288759522246767 Zr
    velocity 0.4217837283963936 0.0485055793557837 0.0767230367124504
atom 4.7126054819611749 15.8613810952775900 11.6288759522246767 Zr
    velocity 0.3553742378800824 -0.2061268244177296 -0.0780352117862378
atom 9.8736054819611745 15.8613810952775900 11.6288759522246767 Zr
    velocity 0.0326892663173310 -0.4455553871246564 0.0869501814508762
atom 15.0346054819611741 15.8613810952775900 11.6288759522246767 Zr
    velocity -0.2909985808830545 -0.0485635132221060 -0.0840839556646115
atom 20.1956054819611737 15.8613810952775900 11.6288759522246767 Zr
    velocity 0.1093533284817672 -0.0992638974537728 0.0181381638843673
atom -0.4483945180388255 21.0743810952775910 11.6288759522246767 Zr
    velocity 0.1095198443419444 -0.4147705830364400 -0.1373214898114848
atom 4.7126054819611749 21.0743810952775910 11.6288759522246767 Zr
    velocity -0.1671526189957213 0.1541220393773113 0.0471668120956265
atom 9.8736054819611745 21.0743810952775910 11.6288759522246767 Zr
    velocity -0.2003154652252482 0.3350052956749412 0.0693177416231874
atom 15.0346054819611741 21.0743810952775910 11.6288759522246767 Zr
    velocity 0.1245835258220766 -0.0508887182479812 -0.0054611549092117
atom 20.1956054819611737 21.0743810952775910 11.6288759522246767 Zr
    velocity 0.1046696488805648 0.4297368728347021 0.3396158209446098
atom -1.2974388994319217 0.2223810952775880 16.8908170045764408 Zr
    velocity -0.1976250267486709 -0.5916921205991187 -0.1672014383133806
atom 3.8635611005680786 0.2223810952775880 16.8908170045764408 Zr
    velocity -0.2704666928863450 0.1614191497358451 -0.3932891363228580
atom 9.0245611005680786 0.2223810952775880 16.8908170045764408 Zr
    velocity 0.3646287635038445 0.4278100848254794 -0.4033461408601066
atom 14.1855611005680782 0.2223810952775880 16.8908170045764408 Zr
    velocity 0.1396234280983424 0.2302347953184330 0.5110171025857574
atom 19.3465611005680778 0.2223810952775880 16.8908170045764408 Zr
    velocity -0.1380273921270329 0.0875739827230427 -0.1190813235455659
atom -1.2974388994319217 5.4353810952775881 16.8908170045764408 Zr
    velocity 0.5358854222418834 0.1811795672163981 -0.2223781753918944
atom 3.8635611005680786 5.4353810952775881 16.8908170045764408 Zr
    velocity -0.4297440592339956 -0.1306321758014149 -0.4103373804042593
atom 9.0245611005680786 5.4353810952775881 16.8908170045764408 Zr
    velocity 0.3422077605831946 0.8603838216161017 -0.4181184117001883
atom 14.1855611005680782 5.4353810952775881 16.8908170045764408 Zr
    velocity 0.8251950453753941 0.5186661712937843 0.3335038477007176
atom 19.3465611005680778 5.4353810952775881 16.8908170045764408 Zr
    velocity 0.7368958121635169 0.0492383806763743 0.0274553307550083
atom -1.2974388994319217 10.6483810952775908 16.8908170045764408 Zr
    velocity 0.0180509362817875 -0.7642463062127980 0.1942666888145323
atom 3.8635611005680786 10.6483810952775908 16.8908170045764408 Zr
    velocity -0.1937676436512820 0.5814925801611877 -0.0428569705965607
atom 9.0245611005680786 10.6483810952775908 16.8908170045764408 Zr
    velocity -0.0555485999560264 0.1064521984844212 -0.3058089555478115
atom 14.1855611005680782 10.6483810952775908 16.8908170045764408 Zr
    velocity 0.2305064313485630 -0.1373612139129819 -0.1372535726108247
atom 19.3465611005680778 10.6483810952775908 16.8908170045764408 Zr
    velocity -0.5081953355303304 -0.3597602372991923 0.7049951369031814
atom -1.2974388994319217 15.8613810952775900 16.8908170045764408 Zr
    velocity -0.1652930218917560 -0.0381877875552319 0.2042227927224640
atom 3.8635611005680786 15.8613810952775900 16.8908170045764408 Zr
    velocity -0.2198776044814025 -0.0941369034219073 -0.1162110616352450
atom 9.0245611005680786 15.8613810952775900 16.8908170045764408 Zr
    velocity -0.3424193293683988 0.4868482980652882 -0.2485743434884793
atom 14.1855611005680782 15.8613810952775900 16.8908170045764408 Zr
    velocity -0.2816520075101880 -0.4119241969254642 0.3516166751537577
atom 19.3465611005680778 15.8613810952775900 16.8908170045764408 Zr
    velocity -0.6961622189881755 0.4815834100014568 0.2653479425497439
atom -1.2974388994319217 21.0743810952775910 16.8908170045764408 Zr
    velocity 0.6554439876770098 -0.2843205233634167 -0.2870693655944520
atom 3.8635611005680786 21.0743810952775910 16.8908170045764408 Zr
    velocity -0.4588780190840003 -0.1763928733243146 0.2210875485986601
atom 9.0245611005680786 21.0743810952775910 16.8908170045764408 Zr
    velocity -0.0897859635115655 -0.2934243476550542 -0.1060472540779312
atom 14.1855611005680782 21.0743810952775910 16.8908170045764408 Zr
    velocity -0.0197476238506911 -0.0651973841158650 -0.4508877785860689
atom 19.3465611005680778 21.0743810952775910 16.8908170045764408 Zr
    velocity 0.0829710639685071 -0.2357690137497421 0.0624594160114247
atom -2.1464832808250183 0.2223810952775880 22.1527580569282101 Zr
    velocity 0.6886537123542013 -0.7473121772152640 -0.4193714531166414
atom 3.0145167191749844 0.2223810952775880 22.1527580569282101 Zr
    velocity -0.0502540777338903 -0.1652538064447910 -0.2500467860790638
atom 8.1755167191749827 0.2223810952775880 22.1527580569282101 Zr
    velocity 0.0826319886474627 -0.3817664987037168 0.5497990555301094
atom 13.3365167191749823 0.2223810952775880 22.1527580569282101 Zr
    velocity 0.0167017829205918 -0.2187283324896699 0.1255513772210604
atom 18.4975167191749819 0.2223810952775880 22.1527580569282101 Zr
    velocity -0.1872729918953362 -0.0997732471535881 -0.0988260982300106
atom -2.1464832808250183 5.4353810952775881 22.1527580569282101 Zr
    velocity 0.4287585972809518 -0.0533526453862122 0.3551628865125424
atom 3.0145167191749844 5.4353810952775881 22.1527580569282101 Zr
    velocity 0.0978427501192304 -0.1982373573509564 -0.1690482650898913
atom 8.1755167191749827 5.4353810952775881 22.1527580569282101 Zr
    velocity -0.2941291651257107 0.8296353154153793 -0.2195045772628205
atom 13.3365167191749823 5.4353810952775881 22.1527580569282101 Zr
    velocity -0.3585918338844707 -0.4260949345839047 0.1513537659805642
atom 18.4975167191749819 5.4353810952775881 22.1527580569282101 Zr
    velocity 0.0685310378632823 -0.6004611455921770 0.3917759233664165
atom -2.1464832808250183 10.6483810952775908 22.1527580569282101 Zr
    velocity -0.2907745926151385 -0.2449101037120424 -0.1396186578699400
atom 3.0145167191749844 10.6483810952775908 22.1527580569282101 Zr
    velocity -0.4648451457144144 -0.3515026383356532 0.2673912637941842
atom 8.1755167191749827 10.6483810952775908 22.1527580569282101 Zr
    velocity 0.4550482387798533 0.0709539502759442 -0.0857099136009807
atom 13.3365167191749823 10.6483810952775908 22.1527580569282101 Zr
    velocity 0.2313916707615357 0.3456974901565133 0.9328371467042821
atom 18.4975167191749819 10.6483810952775908 22.1527580569282101 Zr
    velocity 0.3962593293342009 0.2046001196173703 0.2480355962992520
atom -2.1464832808250183 15.8613810952775900 22.1527580569282101 Zr
    velocity -0.4291606322032293 -0.1182643293452674 -0.2657179050279349
atom 3.0145167191749844 15.8613810952775900 22.1527580569282101 Zr
    velocity -0.1789111113926778 0.1810593539515032 0.4858703781170824
atom 8.1755167191749827 15.8613810952775900 22.1527580569282101 Zr
    velocity -0.2853663606146544 -0.0731992838403759 0.3954644671538960
atom 13.3365167191749823 15.8613810952775900 22.1527580569282101 Zr
    velocity -0.2198674348710308 0.0939136957884848 -0.0109320190891110
atom 18.4975167191749819 15.8613810952775900 22.1527580569282101 Zr
    velocity 0.0219629074454116 -0.5920987097979078 0.4062463906049989
atom -2.1464832808250183 21.0743810952775910 22.1527580569282101 Zr
    velocity -0.2202170103302525 0.1034693442490622 0.5332306319017845
atom 3.0145167191749844 21.0743810952775910 22.1527580569282101 Zr
    velocity -0.4990926411508286 0.2733327964754103 -0.0124386023763768
atom 8.1755167191749827 21.0743810952775910 22.1527580569282101 Zr
    velocity -0.2404727394294792 -0.0990597884490046 -0.2888545170547731
atom 13.3365167191749823 21.0743810952775910 22.1527580569282101 Zr
    velocity -0.4675946977419744 0.3681485521449485 -0.1942870229392053
atom 18.4975167191749819 21.0743810952775910 22.1527580569282101 Zr
    velocity -0.8631196294992608 0.1862905739903258 -0.2762379583971165
atom 3.0622610677959168 4.9906189047224121 4.1569472784978005 Zr
    velocity 0.4401522705195423 -0.1227852855318956 -0.5742562025573273
atom 8.2232610677959137 4.9906189047224121 4.1569472784978005 Zr
    velocity 0.3596460805432824 0.2216269843380934 -0.1465394976724377
atom 13.3842610677959133 4.9906189047224121 4.1569472784978005 Zr
    velocity -0.1717493335088102 -0.0699858066143961 -0.1528878743179599
atom 18.5452610677959129 4.9906189047224121 4.1569472784978005 Zr
    velocity 0.5515041052435444 0.3193004695842313 0.3780004137994762
atom 23.7062610677959178 4.9906189047224121 4.1569472784978005 Zr
    velocity 0.1147007834571902 0.3438223344318274 0.2680380537607285
atom 3.0622610677959168 10.2036189047224131 4.1569472784978005 Zr
    velocity 0.2345758445938395 0.2385196520857170 0.1096845980397541
atom 8.2232610677959137 10.2036189047224131 4.1569472784978005 Zr
    velocity 0.0909029626977664 0.3935135800595182 -0.3607027699396139
atom 13.3842610677959133 10.2036189047224131 4.1569472784978005 Zr
    velocity -0.0917446603627706 0.0894753585342815 -0.3810350054172137
atom 18.5452610677959129 10.2036189047224131 4.1569472784978005 Zr
    velocity 0.1522563635262305 -0.4349032666227702 -0.1342863313021535
atom 23.7062610677959178 10.2036189047224131 4.1569472784978005 Zr
    velocity -0.4396420353161421 0.1821968266454996 0.3467324348165853
atom 3.0622610677959168 15.4166189047224140 4.1569472784978005 Zr
    velocity -0.7284619771588413 0.0276645211732648 0.4415769322845366
atom 8.2232610677959137 15.4166189047224140 4.1569472784978005 Zr
    velocity -0.2042172814895002 -0.1018022077607644 -0.1997041317964492
atom 13.3842610677959133 15.4166189047224140 4.1569472784978005 Zr
    velocity -0.2701155619249195 -0.2941866927728647 -0.1635332059176061
atom 18.5452610677959129 15.4166189047224140 4.1569472784978005 Zr
    velocity -0.1488562221171644 0.1963334834373340 -0.1288786319578994
atom 23.7062610677959178 15.4166189047224140 4.1569472784978005 Zr
    velocity -0.2465869136169410 0.5033908314687640 0.1169615020948938
atom 3.0622610677959168 20.6296189047224168 4.1569472784978005 Zr
    velocity 0.0803953217464788 -0.4823246048084812 0.0333769134187987
atom 8.2232610677959137 20.6296189047224168 4.1569472784978005 Zr
    velocity -0.1671015288736432 0.7945943341534399 0.0824078583267559
atom 13.3842610677959133 20.6296189047224168 4.1569472784978005 Zr
    velocity 0.3935771174350565 0.4121799140819198 -0.0039117395583814
atom 18.5452610677959129 20.6296189047224168 4.1569472784978005 Zr
    velocity -0.0268774984958241 0.0742389887414035 -0.0043208044339285
atom 23.7062610677959178 20.6296189047224168 4.1569472784978005 Zr
    velocity -0.2301384182916199 0.2270874304474710 0.5061247959003052
atom 3.0622610677959168 25.8426189047224142 4.1569472784978005 Zr
    velocity 0.4270239974856935 -0.2217850686436995 -0.0490513211997425
atom 8.2232610677959137 25.8426189047224142 4.1569472784978005 Zr
    velocity -0.0799136584860772 0.0706862708801308 0.0185785354814199
atom 13.3842610677959133 25.8426189047224142 4.1569472784978005 Zr
    velocity -0.0521947743293624 -0.2986508708629488 -0.0861601142132724
atom 18.5452610677959129 25.8426189047224142 4.1569472784978005 Zr
    velocity 0.4869536234578892 -0.2381566413640647 0.0466796275552499
atom 23.7062610677959178 25.8426189047224142 4.1569472784978005 Zr
    velocity 0.3940795048518003 0.6128251604410793 0.1001559015002647
atom 2.2132166864028200 4.9906189047224121 9.4188883308495708 Zr
    velocity 0.5249800762038612 0.0648845095976575 0.2704438617667722
atom 7.3742166864028178 4.9906189047224121 9.4188883308495708 Zr
    velocity -0.0169678965102681 0.1617551019378805 -0.1473251118302324
atom 12.5352166864028174 4.9906189047224121 9.4188883308495708 Zr
    velocity 0.1358393848762446 0.1343453515799924 0.0074859826868076
atom 17.6962166864028170 4.9906189047224121 9.4188883308495708 Zr
    velocity 0.3059649985659880 0.1644772872216680 0.0717885697746229
atom 22.8572166864028219 4.9906189047224121 9.4188883308495708 Zr
    velocity 0.0818201868502333 0.1604805936423595 0.3907925388823915
atom 2.2132166864028200 10.2036189047224131 9.4188883308495708 Zr
    velocity -0.6150179905675108 -0.4016988163907534 -0.0681455247452455
atom 7.3742166864028178 10.2036189047224131 9.4188883308495708 Zr
    velocity -0.2994145364285417 0.1541422537903758 -0.1303162461446446
atom 12.5352166864028174 10.2036189047224131 9.4188883308495708 Zr
    velocity 0.2841572155489205 0.1285833318943681 0.1760956762421815
atom 17.6962166864028170 10.2036189047224131 9.4188883308495708 Zr
    velocity -0.2358837184570454 -0.1245640026611440 -0.1369848118534701
atom 22.8572166864028219 10.2036189047224131 9.4188883308495708 Zr
    velocity -0.0337433970378425 0.1945276696936471 0.1482197019680029
atom 2.2132166864028200 15.4166189047224140 9.4188883308495708 Zr
    velocity 0.4334728255631582 -0.0719344562479708 -0.1747954258601004
atom 7.3742166864028178 15.4166189047224140 9.4188883308495708 Zr
    velocity -0.2233208697939257 -0.2698937302679079 0.2009937041710214
atom 12.5352166864028174 15.4166189047224140 9.4188883308495708 Zr
    velocity 0.3600081895709876 -0.1157724731803470 0.1211665284231001
atom 17.6962166864028170 15.4166189047224140 9.4188883308495708 Zr
    velocity -0.0554315667338458 0.4292481626604301 0.1453494427030451
atom 22.8572166864028219 15.4166189047224140 9.4188883308495708 Zr
    velocity 0.0775722660468837 0.1553033646791402 -0.2250054191134869
atom 2.2132166864028200 20.6296189047224168 9.4188883308495708 Zr
    velocity 0.7464381732631290 0.5121285034561927 0.0033607369917618
atom 7.3742166864028178 20.6296189047224168 9.4188883308495708 Zr
    velocity 0.2004733812671704 -0.1169128293468507 -0.1790469006593147
atom 12.5352166864028174 20.6296189047224168 9.4188883308495708 Zr
    velocity 0.1195802511163096 -0.6875546747118577 -0.0730769775230066
atom 17.6962166864028170 20.6296189047224168 9.4188883308495708 Zr
    velocity -0.1898328280021175 -0.2187651691593474 -0.0197972204060161
atom 22.8572166864028219 20.6296189047224168 9.4188883308495708 Zr
    velocity 0.0918241471586698 0.3377049481112779 0.2651717663380893
atom 2.2132166864028200 25.8426189047224142 9.4188883308495708 Zr
    velocity 0.3393739969699053 0.4498341906309229 -0.0422056569630142
atom 7.3742166864028178 25.8426189047224142 9.4188883308495708 Zr
    velocity 0.0159489041701990 -0.2664777103509202 -0.2569332794668733
atom 12.5352166864028174 25.8426189047224142 9.4188883308495708 Zr
    velocity 0.0404309062631464 0.0416649401399687 0.6177943307782601
atom 17.6962166864028170 25.8426189047224142 9.4188883308495708 Zr
    velocity 0.0481627702686086 -0.3469430096763272 -0.1354905804731706
atom 22.8572166864028219 25.8426189047224142 9.4188883308495708 Zr
    velocity -0.8902701902775748 0.1615602018918915 -0.1215364882279476
atom 1.3641723050097234 4.9906189047224121 14.6808293832013366 Zr
    velocity -0.0301081351882251 -0.1850682755346556 -0.0908922191033326
atom 6.5251723050097210 4.9906189047224121 14.6808293832013366 Zr
    velocity -0.8312973013887804 -0.0587844941699238 -0.2163988650237808
atom 11.6861723050097233 4.9906189047224121 14.6808293832013366 Zr
    velocity 0.2523887875797831 -0.2164641035618431 0.1954121673784375
atom 16.8471723050097211 4.9906189047224121 14.6808293832013366 Zr
    velocity -0.4597833069430067 0.3898522408891334 0.3790898075845421
atom 22.0081723050097260 4.9906189047224121 14.6808293832013366 Zr
    velocity 0.1996476762724504 0.2758100217198371 -0.2560285326941599
atom 1.3641723050097234 10.2036189047224131 14.6808293832013366 Zr
    velocity 0.3928982545270530 0.1020183188694826 -0.2394653647803033
atom 6.5251723050097210 10.2036189047224131 14.6808293832013366 Zr
    velocity -0.3743509849313239 -0.4224822449138030 0.4833154233718545
atom 11.6861723050097233 10.2036189047224131 14.6808293832013366 Zr
    velocity 0.3952878728648674 -0.1654211224907997 -0.1874713298423469
atom 16.8471723050097211 10.2036189047224131 14.6808293832013366 Zr
    velocity 0.3517812345091722 0.0816559695544169 -0.2210158904886930
atom 22.0081723050097260 10.2036189047224131 14.6808293832013366 Zr
    velocity 0.0196026110538822 -0.4727398835820414 0.4353927650327642
atom 1.3641723050097234 15.4166189047224140 14.6808293832013366 Zr
    velocity 0.0079240277906452 -0.0178175205981258 0.0166502236290519
atom 6.5251723050097210 15.4166189047224140 14.6808293832013366 Zr
    velocity 0.2490330166187875 -0.0574844569466577 0.0929746968380838
atom 11.6861723050097233 15.4166189047224140 14.6808293832013366 Zr
    velocity 0.4407780639390412 -0.1266490715581954 -0.0963834508927540
atom 16.8471723050097211 15.4166189047224140 14.6808293832013366 Zr
    velocity 0.4222449932826347 -0.2166611808489793 -0.1111765795522247
atom 22.0081723050097260 15.4166189047224140 14.6808293832013366 Zr
    velocity -0.1486929499666556 0.0099240480787612 0.4599222492781075
atom 1.3641723050097234 20.6296189047224168 14.6808293832013366 Zr
    velocity 0.1054651950118886 0.1612461839361608 0.3098548761619305
atom 6.5251723050097210 20.6296189047224168 14.6808293832013366 Zr
    velocity -0.1652927750789832 0.3775694338258109 0.3787550838184067
atom 11.6861723050097233 20.6296189047224168 14.6808293832013366 Zr
    velocity -0.5676567661356829 -0.2139050982182527 0.0417619505864757
atom 16.8471723050097211 20.6296189047224168 14.6808293832013366 Zr
    velocity -0.4385840838286538 0.6589579008908675 -0.0108960503078683
atom 22.0081723050097260 20.6296189047224168 14.6808293832013366 Zr
    velocity 0.0010151357452869 0.1567213733925493 0.0325479735286251
atom 1.3641723050097234 25.8426189047224142 14.6808293832013366 Zr
    velocity 0.1065869867190186 0.1775115522985273 0.0160547013044389
atom 6.5251723050097210 25.8426189047224142 14.6808293832013366 Zr
    velocity -0.3820744353870175 0.4033081131459738 0.0155986484818771
atom 11.6861723050097233 25.8426189047224142 14.6808293832013366 Zr
    velocity -0.2311846218813196 -0.4785458577574514 -0.3295326955790814
atom 16.8471723050097211 25.8426189047224142 14.6808293832013366 Zr
    velocity -0.0292640429945159 -0.2327733372683564 -0.0038997912563473
atom 22.0081723050097260 25.8426189047224142 14.6808293832013366 Zr
    velocity -0.0392696664043432 0.1119910013839125 -0.7471044999353488
atom 0.5151279236166266 4.9906189047224121 19.9427704355531041 Zr
    velocity 0.2899252722877515 -0.0880218444817098 0.0865800842183006
atom 5.6761279236166242 4.9906189047224121 19.9427704355531041 Zr
    velocity 0.4672823906933302 -0.1414769891567518 -0.5445692043159304
atom 10.8371279236166238 4.9906189047224121 19.9427704355531041 Zr
    velocity -0.1030831295891555 -0.1132342134523918 -0.2528009560279028
atom 15.9981279236166234 4.9906189047224121 19.9427704355531041 Zr
    velocity -0.2434070825681329 0.0103865156020363 -0.0405887479243816
atom 21.1591279236166301 4.9906189047224121 19.9427704355531041 Zr
    velocity -0.3120106045317335 0.0246826718176283 0.0673676049428862
atom 0.5151279236166266 10.2036189047224131 19.9427704355531041 Zr
    velocity -0.0877439132062953 -0.4698910204042209 0.0448297740396655
atom 5.6761279236166242 10.2036189047224131 19.9427704355531041 Zr
    velocity 0.5417086341414272 -0.2194394054525753 0.2322746865344334
atom 10.8371279236166238 10.2036189047224131 19.9427704355531041 Zr
    velocity -0.1283324449326297 -0.0957742879016581 0.0499634958326526
atom 15.9981279236166234 10.2036189047224131 19.9427704355531041 Zr
    velocity 0.3907914554449748 0.5907195222643868 0.0289471651589331
atom 21.1591279236166301 10.2036189047224131 19.9427704355531041 Zr
    velocity -0.1290406973597050 -0.2460568566246668 0.3850320933667249
atom 0.5151279236166266 15.4166189047224140 19.9427704355531041 Zr
    velocity 0.1596922934902193 -0.4521387725309230 0.3605608307465870
atom 5.6761279236166242 15.4166189047224140 19.9427704355531041 Zr