#=======================================================
# FHI-aims file: geometry.in.primitive
# Created using the Atomic Simulation Environment (ASE)
# Tue Jan 31 09:58:04 2023

# Additional information:
#  Number of atoms:     6
#=======================================================
lattice_vector 3.5894222622520000 -0.0000000000000000 0.0000000000000000 
lattice_vector -0.0000000000000000 3.5894222622520000 -0.0000000000000000 
lattice_vector 0.0000000000000000 -0.0000000000000000 5.1808599097340000 
atom 1.7947111311260000 1.7947111311260000 0.0000000000000000 Zr
atom 0.0000000000000000 0.0000000000000000 2.5904299548670000 Zr
atom 1.7947111311260000 0.0000000000000000 1.0503885843533101 O
atom 1.7947111311260000 0.0000000000000000 3.6408185392203101 O
atom 0.0000000000000000 1.7947111311260000 4.1304713253806904 O
atom 0.0000000000000000 1.7947111311260000 1.5400413705136902 O
