#=======================================================
# FHI-aims file: ./geometry.in
# Created using the Atomic Simulation Environment (ASE)
# Fri Dec 18 19:06:57 2020
#=======================================================
lattice_vector 2.5378861399999999 2.5378861399999999 0.0000000000000000 
lattice_vector -2.5378861399999999 2.5378861399999999 0.0000000000000000 
lattice_vector 0.0000000000000000 0.0000000000000000 5.1867880599999996 
atom_frac 0.0000000000000000 0.0000000000000000 0.0000000000000000 Zr
atom_frac 0.5000000000000000 0.5000000000000000 0.5000000000000000 Zr
atom_frac 0.5000000000000000 0.0000000000000000 0.2023395800000000 O
atom_frac 0.5000000000000000 0.0000000000000000 0.7023395799999999 O
atom_frac 0.0000000000000000 0.5000000000000000 0.2976604200000000 O
atom_frac 0.0000000000000000 0.5000000000000000 0.7976604199999999 O
