#=======================================================
# FHI-aims file: 1400_geometry.in.primitive.supercell_96.0010K
# Created using the Atomic Simulation Environment (ASE)
# Wed Aug 24 14:05:20 2022

# Additional information:
#  created from MB distrubtion
#  T = 10.0 K
#  quantum:             False
#  deterministic:       False
#  plus_minus:          False
#  gauge_eigenvectors:  False
#  Random seed:         1628438566
#  Sample number:       1
#=======================================================
lattice_vector 10.3919999999999995 0.0000000000000000 0.0000000000000000 
lattice_vector 0.0000000000000000 10.4380000000000006 0.0000000000000000 
lattice_vector -1.6275696926165220 0.0000000000000000 10.6523796822905332 
atom 1.2667827658430271 0.2226370489648440 1.1184859249923944 Zr
    velocity -0.3749407223248836 0.1233791528387092 -0.2277628182018281
atom 6.4627827658430270 0.2226370489648440 1.1184859249923944 Zr
    velocity 0.2357858491085479 -0.1078581859628329 -0.3678184272508740
atom 1.2667827658430271 5.4416370489648447 1.1184859249923944 Zr
    velocity 0.2141981073673644 -0.5543784389410954 0.0875654818964334
atom 6.4627827658430270 5.4416370489648447 1.1184859249923944 Zr
    velocity -0.3058093971728766 -0.0576646326964497 -0.0931093955899585
atom 0.4529979195347661 0.2226370489648440 6.4446757661376619 Zr
    velocity 0.0644701285986724 -0.0454903633609550 0.0025460200217544
atom 5.6489979195347662 0.2226370489648440 6.4446757661376619 Zr
    velocity 0.2480896290099276 0.1235906551270001 0.1760288630437998
atom 0.4529979195347661 5.4416370489648447 6.4446757661376619 Zr
    velocity 0.5176699489163290 -0.4778756097054153 0.2641563294900665
atom 5.6489979195347662 5.4416370489648447 6.4446757661376619 Zr
    velocity 0.3268538956911201 0.1592241040280069 -0.0993411676679849
atom 3.1154320802837203 4.9963629510351577 4.2077039907195299 Zr
    velocity 0.0017209116740382 0.2424890762876903 0.1700833671865286
atom 8.3114320802837192 4.9963629510351577 4.2077039907195299 Zr
    velocity 0.4193494055107528 -0.6683645848570703 0.0108970950794786
atom 3.1154320802837203 10.2153629510351571 4.2077039907195299 Zr
    velocity -0.2956821943212352 -0.1825631690752207 0.0516316714799542
atom 8.3114320802837192 10.2153629510351571 4.2077039907195299 Zr
    velocity 0.0745899063746829 0.2957164158193085 -0.0627207661789307
atom 2.3016472339754595 4.9963629510351577 9.5338938318647966 Zr
    velocity -0.1678781380589743 -0.4461054801827689 0.3469533397644817
atom 7.4976472339754592 4.9963629510351577 9.5338938318647966 Zr
    velocity -0.3422111052941466 -0.0581868822468890 -0.4471840286115732
atom 2.3016472339754595 10.2153629510351571 9.5338938318647966 Zr
    velocity -0.3464345590590862 0.2690442809218950 -0.1138508919281741
atom 7.4976472339754592 10.2153629510351571 9.5338938318647966 Zr
    velocity 0.3198395285452815 0.2506411118242678 -0.0203616685562842
atom 3.5223245034378508 2.8321370489648454 1.5446090701468977 Zr
    velocity 0.1183413446209382 0.1766620958471667 0.1085653553381219
atom 8.7183245034378505 2.8321370489648454 1.5446090701468977 Zr
    velocity -0.0703053985173280 -0.1683997083591046 0.1642349744716021
atom 3.5223245034378508 8.0511370489648453 1.5446090701468977 Zr
    velocity -0.6918872895348556 -0.1291971925542240 0.2517146292379054
atom 8.7183245034378505 8.0511370489648453 1.5446090701468977 Zr
    velocity -0.3290784480550475 -0.3678588108452209 0.1799396322413483
atom 2.7085396571295899 2.8321370489648454 6.8707989112921641 Zr
    velocity -0.1223285330468969 -0.3050809137027840 -0.4606464094990244
atom 7.9045396571295887 2.8321370489648454 6.8707989112921641 Zr
    velocity 0.2558598799761043 0.3009953991837564 -0.4107544595712974
atom 2.7085396571295899 8.0511370489648453 6.8707989112921641 Zr
    velocity 0.4513618426699192 -0.2958965325715407 -0.3913522085516295
atom 7.9045396571295887 8.0511370489648453 6.8707989112921641 Zr
    velocity 0.2099500241673830 0.3701132105306256 -0.2523940558787991
atom 0.8598903426888980 2.3868629510351562 3.7815808455650277 Zr
    velocity 0.1263781297222080 0.2624667463901744 -0.4020026172055365
atom 6.0558903426888966 2.3868629510351562 3.7815808455650277 Zr
    velocity 0.1577270557959153 0.1287660270855496 -0.1248797712383022
atom 0.8598903426888980 7.6058629510351565 3.7815808455650277 Zr
    velocity -0.1062711945248628 -0.0923023762264701 0.0464237989858955
atom 6.0558903426888966 7.6058629510351565 3.7815808455650277 Zr
    velocity -0.4809713767941665 -0.3163087379886638 0.1495737866599819
atom 0.0461054963806371 2.3868629510351562 9.1077706867102943 Zr
    velocity -0.1886314149250584 0.4518277549204446 -0.1713425525986188
atom 5.2421054963806357 2.3868629510351562 9.1077706867102943 Zr
    velocity 1.0656398121629567 -0.0315391799420679 0.5559587734291817
atom 0.0461054963806371 7.6058629510351565 9.1077706867102943 Zr
    velocity 0.0988344313740128 0.5956261273574623 -0.3617112538555118
atom 5.2421054963806357 7.6058629510351565 9.1077706867102943 Zr
    velocity 0.2890436066329746 0.0683349325310100 0.4127980119892171
atom 0.0820762886134078 1.7478813168372840 1.8251706450056533 O
    velocity -0.1716960440389126 -0.4031525531696331 -0.1783215873429315
atom 5.2780762886134074 1.7478813168372840 1.8251706450056533 O
    velocity -0.9178904909553937 -0.1505992282179389 -0.8636715119787065
atom 0.0820762886134078 6.9668813168372843 1.8251706450056533 O
    velocity -0.8555770038417779 0.5649444426900333 1.0448511288424738
atom 5.2780762886134074 6.9668813168372843 1.8251706450056533 O
    velocity 0.1862482950037836 0.2547575687443819 -0.1068899632958633
atom -0.7317085576948533 1.7478813168372840 7.1513604861509208 O
    velocity 0.2903967023534106 0.7337558028389114 -1.0513254023264522
atom 4.4642914423051465 1.7478813168372840 7.1513604861509208 O
    velocity -0.2593364662474527 0.0802188904207084 0.1502925716473784
atom -0.7317085576948533 6.9668813168372843 7.1513604861509208 O
    velocity 1.1998651940883216 -0.6561370107260333 1.7172320450292757
atom 4.4642914423051465 6.9668813168372843 7.1513604861509208 O
    velocity 1.8894002895845907 -0.3159983717835128 0.5138681963914388
atom 4.3001385575133417 3.4711186831627177 3.5010192707062711 O
    velocity 0.7595748416834204 -0.3518901239872221 -0.9511580626814787
atom 9.4961385575133406 3.4711186831627177 3.5010192707062711 O
    velocity 1.5796812623935070 0.0258615469518041 0.4415412370211453
atom 4.3001385575133417 8.6901186831627157 3.5010192707062711 O
    velocity 0.0960628612682560 0.7308003141425921 0.1178281480595802
atom 9.4961385575133406 8.6901186831627157 3.5010192707062711 O
    velocity -0.2507881690812727 -0.0541818953007142 -0.7384117228584907
atom 3.4863537112050795 3.4711186831627177 8.8272091118515377 O
    velocity -1.2784883252402339 0.1032642770099100 0.9741246132526095
atom 8.6823537112050797 3.4711186831627177 8.8272091118515377 O
    velocity 0.5435234898574104 -0.1591018623535092 0.3494471907185648
atom 3.4863537112050795 8.6901186831627157 8.8272091118515377 O
    velocity 0.3106650602829620 0.9922919006218521 -0.3285977390137240
atom 8.6823537112050797 8.6901186831627157 8.8272091118515377 O
    velocity -0.7164278459372063 -0.8015082753526085 0.1612267779312900
atom 4.7070309806674739 4.3573813168372846 0.8379243501336380 O
    velocity 1.0223302297134349 -0.5802728189068813 -0.0666222440769713
atom 9.9030309806674719 4.3573813168372846 0.8379243501336380 O
    velocity 0.0223060235013735 -0.0877218119914200 -0.7343824545893906
atom 4.7070309806674739 9.5763813168372849 0.8379243501336380 O
    velocity -0.2454582881581478 -0.3639362995776050 -0.4413115484621941
atom 9.9030309806674719 9.5763813168372849 0.8379243501336380 O
    velocity -0.6838197743753386 1.4673874402151439 0.0371041910127748
atom 3.8932461343592126 4.3573813168372846 6.1641141912789053 O
    velocity 1.1522294866295881 -0.7194773434920416 -0.0904460148933903
atom 9.0892461343592110 4.3573813168372846 6.1641141912789053 O
    velocity -0.0061985427151981 -0.1412509324955449 0.1551396453696404
atom 3.8932461343592126 9.5763813168372849 6.1641141912789053 O
    velocity 0.5543170252637204 0.4587227455203450 0.2044610384368362
atom 9.0892461343592110 9.5763813168372849 6.1641141912789053 O
    velocity -0.6278456577136945 -0.6518271403851237 0.6705640269951811
atom -0.3248161345407228 0.8616186831627159 4.4882655655782875 O
    velocity 0.5144260679843669 0.9497708579708336 -1.8264513930260102
atom 4.8711838654592770 0.8616186831627159 4.4882655655782875 O
    velocity -0.3303008046539293 0.5170518410419007 0.2510365225404975
atom -0.3248161345407228 6.0806186831627160 4.4882655655782875 O
    velocity -0.5131584456785089 0.2143196797257229 -0.4855890405162917
atom 4.8711838654592770 6.0806186831627160 4.4882655655782875 O
    velocity -0.2139530972734784 0.4710787622212669 -0.8483389788102368
atom -1.1386009808489836 0.8616186831627159 9.8144554067235532 O
    velocity -1.5706140109922342 -0.2211713841428619 -0.6368596562454825
atom 4.0573990191510161 0.8616186831627159 9.8144554067235532 O
    velocity -0.3904933547448493 1.0649129105533381 -0.8235680407425001
atom -1.1386009808489836 6.0806186831627160 9.8144554067235532 O
    velocity -1.6902589789168303 0.8419879042604547 -0.0305556330392612
atom 4.0573990191510161 6.0806186831627160 9.8144554067235532 O
    velocity -0.1641570130328975 -0.8075310139221967 -0.4576343253628683
atom 1.9442174427486869 3.9530299298489524 2.5523591703147148 O
    velocity -0.4548750158531676 0.5018063327510007 0.1646110499890816
atom 7.1402174427486882 3.9530299298489524 2.5523591703147148 O
    velocity -1.0028007703454855 -1.1450735805649312 -0.5005211340380767
atom 1.9442174427486869 9.1720299298489518 2.5523591703147148 O
    velocity -0.3923030311729169 0.7909888491736703 0.8872175858027948
atom 7.1402174427486882 9.1720299298489518 2.5523591703147148 O
    velocity 1.0726838033985597 -0.5655236209355345 0.2680036742335538
atom 1.1304325964404260 3.9530299298489524 7.8785490114599801 O
    velocity 0.1369957862905199 -0.8263025512642409 -0.3254790326134555
atom 6.3264325964404273 3.9530299298489524 7.8785490114599801 O
    velocity -0.9233280016871513 1.0699397677204914 1.0244627279977936
atom 1.1304325964404260 9.1720299298489518 7.8785490114599801 O
    velocity -1.0774603738768613 -0.3672214796604159 0.0140789607706152
atom 6.3264325964404273 9.1720299298489518 7.8785490114599801 O
    velocity -0.1450476736431111 -1.5644397950501434 0.6536355417330282
atom 2.4379974033780627 1.2659700701510481 2.7738307453972091 O
    velocity -0.4037286416949606 0.1141454869991480 -0.9619470580927197
atom 7.6339974033780615 1.2659700701510481 2.7738307453972091 O
    velocity -0.2262957140397605 -0.2093705333194732 0.6823583156985963
atom 2.4379974033780627 6.4849700701510491 2.7738307453972091 O
    velocity -0.7854416721057063 0.8687687551658847 0.3099983586333971
atom 7.6339974033780615 6.4849700701510491 2.7738307453972091 O
    velocity 0.7940374601043333 0.3977870163854900 -1.2032439110512201
atom 1.6242125570698016 1.2659700701510481 8.1000205865424757 O
    velocity -0.3803596956206035 1.0589568121071387 0.7655656516385707
atom 6.8202125570698007 1.2659700701510481 8.1000205865424757 O
    velocity -1.1388286816134203 0.5023176607404689 0.6425065869791500
atom 1.6242125570698016 6.4849700701510491 8.1000205865424757 O
    velocity 0.4836555700083582 -0.4684049307674933 0.7549069217135647
atom 6.8202125570698007 6.4849700701510491 8.1000205865424757 O
    velocity 0.7352185238386245 0.9434461654117284 -0.6799076242417254
atom 2.8448898265321918 1.3435299298489520 0.1107358248245762 O
    velocity 0.7169729735384025 0.0223319492075531 -0.4489294286869536
atom 8.0408898265321920 1.3435299298489520 0.1107358248245762 O
    velocity 0.0546054377915677 -0.4829785072203917 0.8146656069709874
atom 2.8448898265321918 6.5625299298489521 0.1107358248245762 O
    velocity -0.9163551907988026 0.5797499241152310 0.7228344231514231
atom 8.0408898265321920 6.5625299298489521 0.1107358248245762 O
    velocity -0.3914078017307029 0.3797132197857974 0.2855601409055819
atom 2.0311049802239305 1.3435299298489520 5.4369256659698433 O
    velocity -0.6765551884631934 -0.2920116555454062 0.2881118563857388
atom 7.2271049802239311 1.3435299298489520 5.4369256659698433 O
    velocity 0.6301021049131084 0.2938376056277286 1.2555272415294245
atom 2.0311049802239305 6.5625299298489521 5.4369256659698433 O
    velocity -1.4202528480230832 -1.0809173360413975 0.0170881675302725
atom 7.2271049802239311 6.5625299298489521 5.4369256659698433 O
    velocity 0.0787549214128618 0.6608415586116397 0.8184702940076257
atom 1.5373250195945563 3.8754700701510494 5.2154540908873495 O
    velocity -1.2694408927158827 0.3525332748160112 1.4869180323864744
atom 6.7333250195945542 3.8754700701510494 5.2154540908873495 O
    velocity -0.3214207092432373 0.3725344382343317 -0.3590886337780220
atom 1.5373250195945563 9.0944700701510488 5.2154540908873495 O
    velocity -0.6387930802232205 -0.7373343722314444 0.5564316293107485
atom 6.7333250195945542 9.0944700701510488 5.2154540908873495 O
    velocity 0.8820147442831893 -0.3123868498983740 0.2801936617833918
atom 0.7235401732862954 3.8754700701510494 10.5416439320326152 O
    velocity 0.4541389155967791 -1.1469971608259590 -0.2094720938020158
atom 5.9195401732862942 3.8754700701510494 10.5416439320326152 O
    velocity -0.6317466961932419 -0.1490839807124632 0.9700409639200311
atom 0.7235401732862954 9.0944700701510488 10.5416439320326152 O
    velocity -0.0224491613928585 0.5042455780702150 -0.1921978118408753
atom 5.9195401732862942 9.0944700701510488 10.5416439320326152 O
    velocity 0.1149368868247176 -0.2990601679326459 0.9514457286962412
