#=======================================================
# FHI-aims file: /raven/u/mlang/gknet-aims/new_verdi_monoclinic/relaxation/k24_rho1e-7_tight/relaxation/geometry.in.next_step
# Created using the Atomic Simulation Environment (ASE)
# Mon Jan  9 19:00:08 2023

# Additional information:
#  Relaxed with BFGS, fmax=1.000 meV/AA
#  nsteps = 3
#  residual force  = 0.379167 meV/AA
#  residual stress = 0.889938 meV/AA
#=======================================================
lattice_vector 5.1277084110219997 0.0000000000000000 -0.0005858213520000 
lattice_vector 0.0000000000000000 5.2094770036779998 -0.0000000000000000 
lattice_vector -0.8838730495490000 -0.0000000000000000 5.2216215340590004 
atom_frac 0.2771742075760000 0.0434045570300000 0.2096057232280000 Zr
atom_frac 0.7228257354240000 0.9565954429699999 0.7903942907730001 Zr
atom_frac 0.7228257354240000 0.5434045570300000 0.2903942907730000 Zr
atom_frac 0.2771742075760000 0.4565954429700000 0.7096057232280000 Zr
atom_frac 0.0697224860720000 0.3359290978350000 0.3418727922520000 O
atom_frac 0.9302774569280000 0.6640709021650000 0.6581272217480000 O
atom_frac 0.9302774569280000 0.8359290978350000 0.1581272217480000 O
atom_frac 0.0697224860720000 0.1640709021650000 0.8418727922520000 O
atom_frac 0.4487160708840000 0.7576605041970000 0.4794604648110000 O
atom_frac 0.5512838721160001 0.2423394958030000 0.5205395491900000 O
atom_frac 0.5512838721160001 0.2576605041970000 0.0205395491900000 O
atom_frac 0.4487160708840000 0.7423394958030000 0.9794604648110000 O
