#=======================================================
# FHI-aims file: 2000_geometry.in.primitive.supercell_2592
# Created using the Atomic Simulation Environment (ASE)
# Thu Jan 26 12:10:13 2023

# Additional information:
#  Number of atoms:     2592
#  Spacegroup:          137
#  supercell:           True
#  supercell_matrix:    [6, 0, 0, 0, 6, 0, 0, 0, 6]
#  Supercell matrix:    [6 0 0 0 6 0 0 0 6]
#=======================================================
lattice_vector 31.1266483516483561 0.0000000000000000 0.0000000000000000 
lattice_vector 0.0000000000000000 31.1266483516483561 0.0000000000000000 
lattice_vector 0.0000000000000000 0.0000000000000000 31.9260989010989036 
atom_frac 0.0833333333333333 0.0000000000000000 0.0000000000000000 Zr
atom_frac 0.2500000000000000 0.0000000000000000 0.0000000000000000 Zr
atom_frac 0.4166666666666666 0.0000000000000000 0.0000000000000000 Zr
atom_frac 0.5833333333333333 0.0000000000000000 0.0000000000000000 Zr
atom_frac 0.7500000000000000 0.0000000000000000 0.0000000000000000 Zr
atom_frac 0.9166666666666666 0.0000000000000000 0.0000000000000000 Zr
atom_frac 0.0833333333333333 0.1666666666666667 0.0000000000000000 Zr
atom_frac 0.2500000000000000 0.1666666666666667 0.0000000000000000 Zr
atom_frac 0.4166666666666666 0.1666666666666667 0.0000000000000000 Zr
atom_frac 0.5833333333333333 0.1666666666666667 0.0000000000000000 Zr
atom_frac 0.7500000000000000 0.1666666666666667 0.0000000000000000 Zr
atom_frac 0.9166666666666666 0.1666666666666667 0.0000000000000000 Zr
atom_frac 0.0833333333333333 0.3333333333333333 0.0000000000000000 Zr
atom_frac 0.2500000000000000 0.3333333333333333 0.0000000000000000 Zr
atom_frac 0.4166666666666666 0.3333333333333333 0.0000000000000000 Zr
atom_frac 0.5833333333333333 0.3333333333333333 0.0000000000000000 Zr
atom_frac 0.7500000000000000 0.3333333333333333 0.0000000000000000 Zr
atom_frac 0.9166666666666666 0.3333333333333333 0.0000000000000000 Zr
atom_frac 0.0833333333333333 0.5000000000000000 0.0000000000000000 Zr
atom_frac 0.2500000000000000 0.5000000000000000 0.0000000000000000 Zr
atom_frac 0.4166666666666666 0.5000000000000000 0.0000000000000000 Zr
atom_frac 0.5833333333333333 0.5000000000000000 0.0000000000000000 Zr
atom_frac 0.7500000000000000 0.5000000000000000 0.0000000000000000 Zr
atom_frac 0.9166666666666666 0.5000000000000000 0.0000000000000000 Zr
atom_frac 0.0833333333333333 0.6666666666666666 0.0000000000000000 Zr
atom_frac 0.2500000000000000 0.6666666666666666 0.0000000000000000 Zr
atom_frac 0.4166666666666666 0.6666666666666666 0.0000000000000000 Zr
atom_frac 0.5833333333333333 0.6666666666666666 0.0000000000000000 Zr
atom_frac 0.7500000000000000 0.6666666666666666 0.0000000000000000 Zr
atom_frac 0.9166666666666666 0.6666666666666666 0.0000000000000000 Zr
atom_frac 0.0833333333333333 0.8333333333333333 0.0000000000000000 Zr
atom_frac 0.2500000000000000 0.8333333333333333 0.0000000000000000 Zr
atom_frac 0.4166666666666666 0.8333333333333333 0.0000000000000000 Zr
atom_frac 0.5833333333333333 0.8333333333333333 0.0000000000000000 Zr
atom_frac 0.7500000000000000 0.8333333333333333 0.0000000000000000 Zr
atom_frac 0.9166666666666666 0.8333333333333333 0.0000000000000000 Zr
atom_frac 0.0833333333333333 0.0000000000000000 0.1666666666666667 Zr
atom_frac 0.2500000000000000 0.0000000000000000 0.1666666666666667 Zr
atom_frac 0.4166666666666666 0.0000000000000000 0.1666666666666667 Zr
atom_frac 0.5833333333333333 0.0000000000000000 0.1666666666666667 Zr
atom_frac 0.7500000000000000 0.0000000000000000 0.1666666666666667 Zr
atom_frac 0.9166666666666666 0.0000000000000000 0.1666666666666667 Zr
atom_frac 0.0833333333333333 0.1666666666666667 0.1666666666666667 Zr
atom_frac 0.2500000000000000 0.1666666666666667 0.1666666666666667 Zr
atom_frac 0.4166666666666666 0.1666666666666667 0.1666666666666667 Zr
atom_frac 0.5833333333333333 0.1666666666666667 0.1666666666666667 Zr
atom_frac 0.7500000000000000 0.1666666666666667 0.1666666666666667 Zr
atom_frac 0.9166666666666666 0.1666666666666667 0.1666666666666667 Zr
atom_frac 0.0833333333333333 0.3333333333333333 0.1666666666666667 Zr
atom_frac 0.2500000000000000 0.3333333333333333 0.1666666666666667 Zr
atom_frac 0.4166666666666666 0.3333333333333333 0.1666666666666667 Zr
atom_frac 0.5833333333333333 0.3333333333333333 0.1666666666666667 Zr
atom_frac 0.7500000000000000 0.3333333333333333 0.1666666666666667 Zr
atom_frac 0.9166666666666666 0.3333333333333333 0.1666666666666667 Zr
atom_frac 0.0833333333333333 0.5000000000000000 0.1666666666666667 Zr
atom_frac 0.2500000000000000 0.5000000000000000 0.1666666666666667 Zr
atom_frac 0.4166666666666666 0.5000000000000000 0.1666666666666667 Zr
atom_frac 0.5833333333333333 0.5000000000000000 0.1666666666666667 Zr
atom_frac 0.7500000000000000 0.5000000000000000 0.1666666666666667 Zr
atom_frac 0.9166666666666666 0.5000000000000000 0.1666666666666667 Zr
atom_frac 0.0833333333333333 0.6666666666666666 0.1666666666666667 Zr
atom_frac 0.2500000000000000 0.6666666666666666 0.1666666666666667 Zr
atom_frac 0.4166666666666666 0.6666666666666666 0.1666666666666667 Zr
atom_frac 0.5833333333333333 0.6666666666666666 0.1666666666666667 Zr
atom_frac 0.7500000000000000 0.6666666666666666 0.1666666666666667 Zr
atom_frac 0.9166666666666666 0.6666666666666666 0.1666666666666667 Zr
atom_frac 0.0833333333333333 0.8333333333333333 0.1666666666666667 Zr
atom_frac 0.2500000000000000 0.8333333333333333 0.1666666666666667 Zr
atom_frac 0.4166666666666666 0.8333333333333333 0.1666666666666667 Zr
atom_frac 0.5833333333333333 0.8333333333333333 0.1666666666666667 Zr
atom_frac 0.7500000000000000 0.8333333333333333 0.1666666666666667 Zr
atom_frac 0.9166666666666666 0.8333333333333333 0.1666666666666667 Zr
atom_frac 0.0833333333333333 0.0000000000000000 0.3333333333333333 Zr
atom_frac 0.2500000000000000 0.0000000000000000 0.3333333333333333 Zr
atom_frac 0.4166666666666666 0.0000000000000000 0.3333333333333333 Zr
atom_frac 0.5833333333333333 0.0000000000000000 0.3333333333333333 Zr
atom_frac 0.7500000000000000 0.0000000000000000 0.3333333333333333 Zr
atom_frac 0.9166666666666666 0.0000000000000000 0.3333333333333333 Zr
atom_frac 0.0833333333333333 0.1666666666666667 0.3333333333333333 Zr
atom_frac 0.2500000000000000 0.1666666666666667 0.3333333333333333 Zr
atom_frac 0.4166666666666666 0.1666666666666667 0.3333333333333333 Zr
atom_frac 0.5833333333333333 0.1666666666666667 0.3333333333333333 Zr
atom_frac 0.7500000000000000 0.1666666666666667 0.3333333333333333 Zr
atom_frac 0.9166666666666666 0.1666666666666667 0.3333333333333333 Zr
atom_frac 0.0833333333333333 0.3333333333333333 0.3333333333333333 Zr
atom_frac 0.2500000000000000 0.3333333333333333 0.3333333333333333 Zr
atom_frac 0.4166666666666666 0.3333333333333333 0.3333333333333333 Zr
atom_frac 0.5833333333333333 0.3333333333333333 0.3333333333333333 Zr
atom_frac 0.7500000000000000 0.3333333333333333 0.3333333333333333 Zr
atom_frac 0.9166666666666666 0.3333333333333333 0.3333333333333333 Zr
atom_frac 0.0833333333333333 0.5000000000000000 0.3333333333333333 Zr
atom_frac 0.2500000000000000 0.5000000000000000 0.3333333333333333 Zr
atom_frac 0.4166666666666666 0.5000000000000000 0.3333333333333333 Zr
atom_frac 0.5833333333333333 0.5000000000000000 0.3333333333333333 Zr
atom_frac 0.7500000000000000 0.5000000000000000 0.3333333333333333 Zr
atom_frac 0.9166666666666666 0.5000000000000000 0.3333333333333333 Zr
atom_frac 0.0833333333333333 0.6666666666666666 0.3333333333333333 Zr
atom_frac 0.2500000000000000 0.6666666666666666 0.3333333333333333 Zr
atom_frac 0.4166666666666666 0.6666666666666666 0.3333333333333333 Zr
atom_frac 0.5833333333333333 0.6666666666666666 0.3333333333333333 Zr
atom_frac 0.7500000000000000 0.6666666666666666 0.3333333333333333 Zr
atom_frac 0.9166666666666666 0.6666666666666666 0.3333333333333333 Zr
atom_frac 0.0833333333333333 0.8333333333333333 0.3333333333333333 Zr
atom_frac 0.2500000000000000 0.8333333333333333 0.3333333333333333 Zr
atom_frac 0.4166666666666666 0.8333333333333333 0.3333333333333333 Zr
atom_frac 0.5833333333333333 0.8333333333333333 0.3333333333333333 Zr
atom_frac 0.7500000000000000 0.8333333333333333 0.3333333333333333 Zr
atom_frac 0.9166666666666666 0.8333333333333333 0.3333333333333333 Zr
atom_frac 0.0833333333333333 0.0000000000000000 0.4999999999999999 Zr
atom_frac 0.2500000000000000 0.0000000000000000 0.4999999999999999 Zr
atom_frac 0.4166666666666666 0.0000000000000000 0.4999999999999999 Zr
atom_frac 0.5833333333333333 0.0000000000000000 0.4999999999999999 Zr
atom_frac 0.7500000000000000 0.0000000000000000 0.4999999999999999 Zr
atom_frac 0.9166666666666666 0.0000000000000000 0.4999999999999999 Zr
atom_frac 0.0833333333333333 0.1666666666666667 0.4999999999999999 Zr
atom_frac 0.2500000000000000 0.1666666666666667 0.4999999999999999 Zr
atom_frac 0.4166666666666666 0.1666666666666667 0.4999999999999999 Zr
atom_frac 0.5833333333333333 0.1666666666666667 0.4999999999999999 Zr
atom_frac 0.7500000000000000 0.1666666666666667 0.4999999999999999 Zr
atom_frac 0.9166666666666666 0.1666666666666667 0.4999999999999999 Zr
atom_frac 0.0833333333333333 0.3333333333333333 0.4999999999999999 Zr
atom_frac 0.2500000000000000 0.3333333333333333 0.4999999999999999 Zr
atom_frac 0.4166666666666666 0.3333333333333333 0.4999999999999999 Zr
atom_frac 0.5833333333333333 0.3333333333333333 0.4999999999999999 Zr
atom_frac 0.7500000000000000 0.3333333333333333 0.4999999999999999 Zr
atom_frac 0.9166666666666666 0.3333333333333333 0.4999999999999999 Zr
atom_frac 0.0833333333333333 0.5000000000000000 0.4999999999999999 Zr
atom_frac 0.2500000000000000 0.5000000000000000 0.4999999999999999 Zr
atom_frac 0.4166666666666666 0.5000000000000000 0.4999999999999999 Zr
atom_frac 0.5833333333333333 0.5000000000000000 0.4999999999999999 Zr
atom_frac 0.7500000000000000 0.5000000000000000 0.4999999999999999 Zr
atom_frac 0.9166666666666666 0.5000000000000000 0.4999999999999999 Zr
atom_frac 0.0833333333333333 0.6666666666666666 0.4999999999999999 Zr
atom_frac 0.2500000000000000 0.6666666666666666 0.4999999999999999 Zr
atom_frac 0.4166666666666666 0.6666666666666666 0.4999999999999999 Zr
atom_frac 0.5833333333333333 0.6666666666666666 0.4999999999999999 Zr
atom_frac 0.7500000000000000 0.6666666666666666 0.4999999999999999 Zr
atom_frac 0.9166666666666666 0.6666666666666666 0.4999999999999999 Zr
atom_frac 0.0833333333333333 0.8333333333333333 0.4999999999999999 Zr
atom_frac 0.2500000000000000 0.8333333333333333 0.4999999999999999 Zr
atom_frac 0.4166666666666666 0.8333333333333333 0.4999999999999999 Zr
atom_frac 0.5833333333333333 0.8333333333333333 0.4999999999999999 Zr
atom_frac 0.7500000000000000 0.8333333333333333 0.4999999999999999 Zr
atom_frac 0.9166666666666666 0.8333333333333333 0.4999999999999999 Zr
atom_frac 0.0833333333333333 0.0000000000000000 0.6666666666666666 Zr
atom_frac 0.2500000000000000 0.0000000000000000 0.6666666666666666 Zr
atom_frac 0.4166666666666666 0.0000000000000000 0.6666666666666666 Zr
atom_frac 0.5833333333333333 0.0000000000000000 0.6666666666666666 Zr
atom_frac 0.7500000000000000 0.0000000000000000 0.6666666666666666 Zr
atom_frac 0.9166666666666666 0.0000000000000000 0.6666666666666666 Zr
atom_frac 0.0833333333333333 0.1666666666666667 0.6666666666666666 Zr
atom_frac 0.2500000000000000 0.1666666666666667 0.6666666666666666 Zr
atom_frac 0.4166666666666666 0.1666666666666667 0.6666666666666666 Zr
atom_frac 0.5833333333333333 0.1666666666666667 0.6666666666666666 Zr
atom_frac 0.7500000000000000 0.1666666666666667 0.6666666666666666 Zr
atom_frac 0.9166666666666666 0.1666666666666667 0.6666666666666666 Zr
atom_frac 0.0833333333333333 0.3333333333333333 0.6666666666666666 Zr
atom_frac 0.2500000000000000 0.3333333333333333 0.6666666666666666 Zr
atom_frac 0.4166666666666666 0.3333333333333333 0.6666666666666666 Zr
atom_frac 0.5833333333333333 0.3333333333333333 0.6666666666666666 Zr
atom_frac 0.7500000000000000 0.3333333333333333 0.6666666666666666 Zr
atom_frac 0.9166666666666666 0.3333333333333333 0.6666666666666666 Zr
atom_frac 0.0833333333333333 0.5000000000000000 0.6666666666666666 Zr
atom_frac 0.2500000000000000 0.5000000000000000 0.6666666666666666 Zr
atom_frac 0.4166666666666666 0.5000000000000000 0.6666666666666666 Zr
atom_frac 0.5833333333333333 0.5000000000000000 0.6666666666666666 Zr
atom_frac 0.7500000000000000 0.5000000000000000 0.6666666666666666 Zr
atom_frac 0.9166666666666666 0.5000000000000000 0.6666666666666666 Zr
atom_frac 0.0833333333333333 0.6666666666666666 0.6666666666666666 Zr
atom_frac 0.2500000000000000 0.6666666666666666 0.6666666666666666 Zr
atom_frac 0.4166666666666666 0.6666666666666666 0.6666666666666666 Zr
atom_frac 0.5833333333333333 0.6666666666666666 0.6666666666666666 Zr
atom_frac 0.7500000000000000 0.6666666666666666 0.6666666666666666 Zr
atom_frac 0.9166666666666666 0.6666666666666666 0.6666666666666666 Zr
atom_frac 0.0833333333333333 0.8333333333333333 0.6666666666666666 Zr
atom_frac 0.2500000000000000 0.8333333333333333 0.6666666666666666 Zr
atom_frac 0.4166666666666666 0.8333333333333333 0.6666666666666666 Zr
atom_frac 0.5833333333333333 0.8333333333333333 0.6666666666666666 Zr
atom_frac 0.7500000000000000 0.8333333333333333 0.6666666666666666 Zr
atom_frac 0.9166666666666666 0.8333333333333333 0.6666666666666666 Zr
atom_frac 0.0833333333333333 0.0000000000000000 0.8333333333333331 Zr
atom_frac 0.2500000000000000 0.0000000000000000 0.8333333333333331 Zr
atom_frac 0.4166666666666666 0.0000000000000000 0.8333333333333331 Zr
atom_frac 0.5833333333333333 0.0000000000000000 0.8333333333333331 Zr
atom_frac 0.7500000000000000 0.0000000000000000 0.8333333333333331 Zr
atom_frac 0.9166666666666666 0.0000000000000000 0.8333333333333331 Zr
atom_frac 0.0833333333333333 0.1666666666666667 0.8333333333333331 Zr
atom_frac 0.2500000000000000 0.1666666666666667 0.8333333333333331 Zr
atom_frac 0.4166666666666666 0.1666666666666667 0.8333333333333331 Zr
atom_frac 0.5833333333333333 0.1666666666666667 0.8333333333333331 Zr
atom_frac 0.7500000000000000 0.1666666666666667 0.8333333333333331 Zr
atom_frac 0.9166666666666666 0.1666666666666667 0.8333333333333331 Zr
atom_frac 0.0833333333333333 0.3333333333333333 0.8333333333333331 Zr
atom_frac 0.2500000000000000 0.3333333333333333 0.8333333333333331 Zr
atom_frac 0.4166666666666666 0.3333333333333333 0.8333333333333331 Zr
atom_frac 0.5833333333333333 0.3333333333333333 0.8333333333333331 Zr
atom_frac 0.7500000000000000 0.3333333333333333 0.8333333333333331 Zr
atom_frac 0.9166666666666666 0.3333333333333333 0.8333333333333331 Zr
atom_frac 0.0833333333333333 0.5000000000000000 0.8333333333333331 Zr
atom_frac 0.2500000000000000 0.5000000000000000 0.8333333333333331 Zr
atom_frac 0.4166666666666666 0.5000000000000000 0.8333333333333331 Zr
atom_frac 0.5833333333333333 0.5000000000000000 0.8333333333333331 Zr
atom_frac 0.7500000000000000 0.5000000000000000 0.8333333333333331 Zr
atom_frac 0.9166666666666666 0.5000000000000000 0.8333333333333331 Zr
atom_frac 0.0833333333333333 0.6666666666666666 0.8333333333333331 Zr
atom_frac 0.2500000000000000 0.6666666666666666 0.8333333333333331 Zr
atom_frac 0.4166666666666666 0.6666666666666666 0.8333333333333331 Zr
atom_frac 0.5833333333333333 0.6666666666666666 0.8333333333333331 Zr
atom_frac 0.7500000000000000 0.6666666666666666 0.8333333333333331 Zr
atom_frac 0.9166666666666666 0.6666666666666666 0.8333333333333331 Zr
atom_frac 0.0833333333333333 0.8333333333333333 0.8333333333333331 Zr
atom_frac 0.2500000000000000 0.8333333333333333 0.8333333333333331 Zr
atom_frac 0.4166666666666666 0.8333333333333333 0.8333333333333331 Zr
atom_frac 0.5833333333333333 0.8333333333333333 0.8333333333333331 Zr
atom_frac 0.7500000000000000 0.8333333333333333 0.8333333333333331 Zr
atom_frac 0.9166666666666666 0.8333333333333333 0.8333333333333331 Zr
atom_frac 0.0000000000000000 0.0833333333333333 0.0000000000000000 Zr
atom_frac 0.1666666666666667 0.0833333333333333 0.0000000000000000 Zr
atom_frac 0.3333333333333333 0.0833333333333333 0.0000000000000000 Zr
atom_frac 0.5000000000000000 0.0833333333333333 0.0000000000000000 Zr
atom_frac 0.6666666666666666 0.0833333333333333 0.0000000000000000 Zr
atom_frac 0.8333333333333333 0.0833333333333333 0.0000000000000000 Zr
atom_frac 0.0000000000000000 0.2500000000000000 0.0000000000000000 Zr
atom_frac 0.1666666666666667 0.2500000000000000 0.0000000000000000 Zr
atom_frac 0.3333333333333333 0.2500000000000000 0.0000000000000000 Zr
atom_frac 0.5000000000000000 0.2500000000000000 0.0000000000000000 Zr
atom_frac 0.6666666666666666 0.2500000000000000 0.0000000000000000 Zr
atom_frac 0.8333333333333333 0.2500000000000000 0.0000000000000000 Zr
atom_frac 0.0000000000000000 0.4166666666666666 0.0000000000000000 Zr
atom_frac 0.1666666666666667 0.4166666666666666 0.0000000000000000 Zr
atom_frac 0.3333333333333333 0.4166666666666666 0.0000000000000000 Zr
atom_frac 0.5000000000000000 0.4166666666666666 0.0000000000000000 Zr
atom_frac 0.6666666666666666 0.4166666666666666 0.0000000000000000 Zr
atom_frac 0.8333333333333333 0.4166666666666666 0.0000000000000000 Zr
atom_frac 0.0000000000000000 0.5833333333333333 0.0000000000000000 Zr
atom_frac 0.1666666666666667 0.5833333333333333 0.0000000000000000 Zr
atom_frac 0.3333333333333333 0.5833333333333333 0.0000000000000000 Zr
atom_frac 0.5000000000000000 0.5833333333333333 0.0000000000000000 Zr
atom_frac 0.6666666666666666 0.5833333333333333 0.0000000000000000 Zr
atom_frac 0.8333333333333333 0.5833333333333333 0.0000000000000000 Zr
atom_frac 0.0000000000000000 0.7500000000000000 0.0000000000000000 Zr
atom_frac 0.1666666666666667 0.7500000000000000 0.0000000000000000 Zr
atom_frac 0.3333333333333333 0.7500000000000000 0.0000000000000000 Zr
atom_frac 0.5000000000000000 0.7500000000000000 0.0000000000000000 Zr
atom_frac 0.6666666666666666 0.7500000000000000 0.0000000000000000 Zr
atom_frac 0.8333333333333333 0.7500000000000000 0.0000000000000000 Zr
atom_frac 0.0000000000000000 0.9166666666666666 0.0000000000000000 Zr
atom_frac 0.1666666666666667 0.9166666666666666 0.0000000000000000 Zr
atom_frac 0.3333333333333333 0.9166666666666666 0.0000000000000000 Zr
atom_frac 0.5000000000000000 0.9166666666666666 0.0000000000000000 Zr
atom_frac 0.6666666666666666 0.9166666666666666 0.0000000000000000 Zr
atom_frac 0.8333333333333333 0.9166666666666666 0.0000000000000000 Zr
atom_frac 0.0000000000000000 0.0833333333333333 0.1666666666666667 Zr
atom_frac 0.1666666666666667 0.0833333333333333 0.1666666666666667 Zr
atom_frac 0.3333333333333333 0.0833333333333333 0.1666666666666667 Zr
atom_frac 0.5000000000000000 0.0833333333333333 0.1666666666666667 Zr
atom_frac 0.6666666666666666 0.0833333333333333 0.1666666666666667 Zr
atom_frac 0.8333333333333333 0.0833333333333333 0.1666666666666667 Zr
atom_frac 0.0000000000000000 0.2500000000000000 0.1666666666666667 Zr
atom_frac 0.1666666666666667 0.2500000000000000 0.1666666666666667 Zr
atom_frac 0.3333333333333333 0.2500000000000000 0.1666666666666667 Zr
atom_frac 0.5000000000000000 0.2500000000000000 0.1666666666666667 Zr
atom_frac 0.6666666666666666 0.2500000000000000 0.1666666666666667 Zr
atom_frac 0.8333333333333333 0.2500000000000000 0.1666666666666667 Zr
atom_frac 0.0000000000000000 0.4166666666666666 0.1666666666666667 Zr
atom_frac 0.1666666666666667 0.4166666666666666 0.1666666666666667 Zr
atom_frac 0.3333333333333333 0.4166666666666666 0.1666666666666667 Zr
atom_frac 0.5000000000000000 0.4166666666666666 0.1666666666666667 Zr
atom_frac 0.6666666666666666 0.4166666666666666 0.1666666666666667 Zr
atom_frac 0.8333333333333333 0.4166666666666666 0.1666666666666667 Zr
atom_frac 0.0000000000000000 0.5833333333333333 0.1666666666666667 Zr
atom_frac 0.1666666666666667 0.5833333333333333 0.1666666666666667 Zr
atom_frac 0.3333333333333333 0.5833333333333333 0.1666666666666667 Zr
atom_frac 0.5000000000000000 0.5833333333333333 0.1666666666666667 Zr
atom_frac 0.6666666666666666 0.5833333333333333 0.1666666666666667 Zr
atom_frac 0.8333333333333333 0.5833333333333333 0.1666666666666667 Zr
atom_frac 0.0000000000000000 0.7500000000000000 0.1666666666666667 Zr
atom_frac 0.1666666666666667 0.7500000000000000 0.1666666666666667 Zr
atom_frac 0.3333333333333333 0.7500000000000000 0.1666666666666667 Zr
atom_frac 0.5000000000000000 0.7500000000000000 0.1666666666666667 Zr
atom_frac 0.6666666666666666 0.7500000000000000 0.1666666666666667 Zr
atom_frac 0.8333333333333333 0.7500000000000000 0.1666666666666667 Zr
atom_frac 0.0000000000000000 0.9166666666666666 0.1666666666666667 Zr
atom_frac 0.1666666666666667 0.9166666666666666 0.1666666666666667 Zr
atom_frac 0.3333333333333333 0.9166666666666666 0.1666666666666667 Zr
atom_frac 0.5000000000000000 0.9166666666666666 0.1666666666666667 Zr
atom_frac 0.6666666666666666 0.9166666666666666 0.1666666666666667 Zr
atom_frac 0.8333333333333333 0.9166666666666666 0.1666666666666667 Zr
atom_frac 0.0000000000000000 0.0833333333333333 0.3333333333333333 Zr
atom_frac 0.1666666666666667 0.0833333333333333 0.3333333333333333 Zr
atom_frac 0.3333333333333333 0.0833333333333333 0.3333333333333333 Zr
atom_frac 0.5000000000000000 0.0833333333333333 0.3333333333333333 Zr
atom_frac 0.6666666666666666 0.0833333333333333 0.3333333333333333 Zr
atom_frac 0.8333333333333333 0.0833333333333333 0.3333333333333333 Zr
atom_frac 0.0000000000000000 0.2500000000000000 0.3333333333333333 Zr
atom_frac 0.1666666666666667 0.2500000000000000 0.3333333333333333 Zr
atom_frac 0.3333333333333333 0.2500000000000000 0.3333333333333333 Zr
atom_frac 0.5000000000000000 0.2500000000000000 0.3333333333333333 Zr
atom_frac 0.6666666666666666 0.2500000000000000 0.3333333333333333 Zr
atom_frac 0.8333333333333333 0.2500000000000000 0.3333333333333333 Zr
atom_frac 0.0000000000000000 0.4166666666666666 0.3333333333333333 Zr
atom_frac 0.1666666666666667 0.4166666666666666 0.3333333333333333 Zr
atom_frac 0.3333333333333333 0.4166666666666666 0.3333333333333333 Zr
atom_frac 0.5000000000000000 0.4166666666666666 0.3333333333333333 Zr
atom_frac 0.6666666666666666 0.4166666666666666 0.3333333333333333 Zr
atom_frac 0.8333333333333333 0.4166666666666666 0.3333333333333333 Zr
atom_frac 0.0000000000000000 0.5833333333333333 0.3333333333333333 Zr
atom_frac 0.1666666666666667 0.5833333333333333 0.3333333333333333 Zr
atom_frac 0.3333333333333333 0.5833333333333333 0.3333333333333333 Zr
atom_frac 0.5000000000000000 0.5833333333333333 0.3333333333333333 Zr
atom_frac 0.6666666666666666 0.5833333333333333 0.3333333333333333 Zr
atom_frac 0.8333333333333333 0.5833333333333333 0.3333333333333333 Zr
atom_frac 0.0000000000000000 0.7500000000000000 0.3333333333333333 Zr
atom_frac 0.1666666666666667 0.7500000000000000 0.3333333333333333 Zr
atom_frac 0.3333333333333333 0.7500000000000000 0.3333333333333333 Zr
atom_frac 0.5000000000000000 0.7500000000000000 0.3333333333333333 Zr
atom_frac 0.6666666666666666 0.7500000000000000 0.3333333333333333 Zr
atom_frac 0.8333333333333333 0.7500000000000000 0.3333333333333333 Zr
atom_frac 0.0000000000000000 0.9166666666666666 0.3333333333333333 Zr
atom_frac 0.1666666666666667 0.9166666666666666 0.3333333333333333 Zr
atom_frac 0.3333333333333333 0.9166666666666666 0.3333333333333333 Zr
atom_frac 0.5000000000000000 0.9166666666666666 0.3333333333333333 Zr
atom_frac 0.6666666666666666 0.9166666666666666 0.3333333333333333 Zr
atom_frac 0.8333333333333333 0.9166666666666666 0.3333333333333333 Zr
atom_frac 0.0000000000000000 0.0833333333333333 0.4999999999999999 Zr
atom_frac 0.1666666666666667 0.0833333333333333 0.4999999999999999 Zr
atom_frac 0.3333333333333333 0.0833333333333333 0.4999999999999999 Zr
atom_frac 0.5000000000000000 0.0833333333333333 0.4999999999999999 Zr
atom_frac 0.6666666666666666 0.0833333333333333 0.4999999999999999 Zr
atom_frac 0.8333333333333333 0.0833333333333333 0.4999999999999999 Zr
atom_frac 0.0000000000000000 0.2500000000000000 0.4999999999999999 Zr
atom_frac 0.1666666666666667 0.2500000000000000 0.4999999999999999 Zr
atom_frac 0.3333333333333333 0.2500000000000000 0.4999999999999999 Zr
atom_frac 0.5000000000000000 0.2500000000000000 0.4999999999999999 Zr
atom_frac 0.6666666666666666 0.2500000000000000 0.4999999999999999 Zr
atom_frac 0.8333333333333333 0.2500000000000000 0.4999999999999999 Zr
atom_frac 0.0000000000000000 0.4166666666666666 0.4999999999999999 Zr
atom_frac 0.1666666666666667 0.4166666666666666 0.4999999999999999 Zr
atom_frac 0.3333333333333333 0.4166666666666666 0.4999999999999999 Zr
atom_frac 0.5000000000000000 0.4166666666666666 0.4999999999999999 Zr
atom_frac 0.6666666666666666 0.4166666666666666 0.4999999999999999 Zr
atom_frac 0.8333333333333333 0.4166666666666666 0.4999999999999999 Zr
atom_frac 0.0000000000000000 0.5833333333333333 0.4999999999999999 Zr
atom_frac 0.1666666666666667 0.5833333333333333 0.4999999999999999 Zr
atom_frac 0.3333333333333333 0.5833333333333333 0.4999999999999999 Zr
atom_frac 0.5000000000000000 0.5833333333333333 0.4999999999999999 Zr
atom_frac 0.6666666666666666 0.5833333333333333 0.4999999999999999 Zr
atom_frac 0.8333333333333333 0.5833333333333333 0.4999999999999999 Zr
atom_frac 0.0000000000000000 0.7500000000000000 0.4999999999999999 Zr
atom_frac 0.1666666666666667 0.7500000000000000 0.4999999999999999 Zr
atom_frac 0.3333333333333333 0.7500000000000000 0.4999999999999999 Zr
atom_frac 0.5000000000000000 0.7500000000000000 0.4999999999999999 Zr
atom_frac 0.6666666666666666 0.7500000000000000 0.4999999999999999 Zr
atom_frac 0.8333333333333333 0.7500000000000000 0.4999999999999999 Zr
atom_frac 0.0000000000000000 0.9166666666666666 0.4999999999999999 Zr
atom_frac 0.1666666666666667 0.9166666666666666 0.4999999999999999 Zr
atom_frac 0.3333333333333333 0.9166666666666666 0.4999999999999999 Zr
atom_frac 0.5000000000000000 0.9166666666666666 0.4999999999999999 Zr
atom_frac 0.6666666666666666 0.9166666666666666 0.4999999999999999 Zr
atom_frac 0.8333333333333333 0.9166666666666666 0.4999999999999999 Zr
atom_frac 0.0000000000000000 0.0833333333333333 0.6666666666666666 Zr
atom_frac 0.1666666666666667 0.0833333333333333 0.6666666666666666 Zr
atom_frac 0.3333333333333333 0.0833333333333333 0.6666666666666666 Zr
atom_frac 0.5000000000000000 0.0833333333333333 0.6666666666666666 Zr
atom_frac 0.6666666666666666 0.0833333333333333 0.6666666666666666 Zr
atom_frac 0.8333333333333333 0.0833333333333333 0.6666666666666666 Zr
atom_frac 0.0000000000000000 0.2500000000000000 0.6666666666666666 Zr
atom_frac 0.1666666666666667 0.2500000000000000 0.6666666666666666 Zr
atom_frac 0.3333333333333333 0.2500000000000000 0.6666666666666666 Zr
atom_frac 0.5000000000000000 0.2500000000000000 0.6666666666666666 Zr
atom_frac 0.6666666666666666 0.2500000000000000 0.6666666666666666 Zr
atom_frac 0.8333333333333333 0.2500000000000000 0.6666666666666666 Zr
atom_frac 0.0000000000000000 0.4166666666666666 0.6666666666666666 Zr
atom_frac 0.1666666666666667 0.4166666666666666 0.6666666666666666 Zr
atom_frac 0.3333333333333333 0.4166666666666666 0.6666666666666666 Zr
atom_frac 0.5000000000000000 0.4166666666666666 0.6666666666666666 Zr
atom_frac 0.6666666666666666 0.4166666666666666 0.6666666666666666 Zr
atom_frac 0.8333333333333333 0.4166666666666666 0.6666666666666666 Zr
atom_frac 0.0000000000000000 0.5833333333333333 0.6666666666666666 Zr
atom_frac 0.1666666666666667 0.5833333333333333 0.6666666666666666 Zr
atom_frac 0.3333333333333333 0.5833333333333333 0.6666666666666666 Zr
atom_frac 0.5000000000000000 0.5833333333333333 0.6666666666666666 Zr
atom_frac 0.6666666666666666 0.5833333333333333 0.6666666666666666 Zr
atom_frac 0.8333333333333333 0.5833333333333333 0.6666666666666666 Zr
atom_frac 0.0000000000000000 0.7500000000000000 0.6666666666666666 Zr
atom_frac 0.1666666666666667 0.7500000000000000 0.6666666666666666 Zr
atom_frac 0.3333333333333333 0.7500000000000000 0.6666666666666666 Zr
atom_frac 0.5000000000000000 0.7500000000000000 0.6666666666666666 Zr
atom_frac 0.6666666666666666 0.7500000000000000 0.6666666666666666 Zr
atom_frac 0.8333333333333333 0.7500000000000000 0.6666666666666666 Zr
atom_frac 0.0000000000000000 0.9166666666666666 0.6666666666666666 Zr
atom_frac 0.1666666666666667 0.9166666666666666 0.6666666666666666 Zr
atom_frac 0.3333333333333333 0.9166666666666666 0.6666666666666666 Zr
atom_frac 0.5000000000000000 0.9166666666666666 0.6666666666666666 Zr
atom_frac 0.6666666666666666 0.9166666666666666 0.6666666666666666 Zr
atom_frac 0.8333333333333333 0.9166666666666666 0.6666666666666666 Zr
atom_frac 0.0000000000000000 0.0833333333333333 0.8333333333333331 Zr
atom_frac 0.1666666666666667 0.0833333333333333 0.8333333333333331 Zr
atom_frac 0.3333333333333333 0.0833333333333333 0.8333333333333331 Zr
atom_frac 0.5000000000000000 0.0833333333333333 0.8333333333333331 Zr
atom_frac 0.6666666666666666 0.0833333333333333 0.8333333333333331 Zr
atom_frac 0.8333333333333333 0.0833333333333333 0.8333333333333331 Zr
atom_frac 0.0000000000000000 0.2500000000000000 0.8333333333333331 Zr
atom_frac 0.1666666666666667 0.2500000000000000 0.8333333333333331 Zr
atom_frac 0.3333333333333333 0.2500000000000000 0.8333333333333331 Zr
atom_frac 0.5000000000000000 0.2500000000000000 0.8333333333333331 Zr
atom_frac 0.6666666666666666 0.2500000000000000 0.8333333333333331 Zr
atom_frac 0.8333333333333333 0.2500000000000000 0.8333333333333331 Zr
atom_frac 0.0000000000000000 0.4166666666666666 0.8333333333333331 Zr
atom_frac 0.1666666666666667 0.4166666666666666 0.8333333333333331 Zr
atom_frac 0.3333333333333333 0.4166666666666666 0.8333333333333331 Zr
atom_frac 0.5000000000000000 0.4166666666666666 0.8333333333333331 Zr
atom_frac 0.6666666666666666 0.4166666666666666 0.8333333333333331 Zr
atom_frac 0.8333333333333333 0.4166666666666666 0.8333333333333331 Zr
atom_frac 0.0000000000000000 0.5833333333333333 0.8333333333333331 Zr
atom_frac 0.1666666666666667 0.5833333333333333 0.8333333333333331 Zr
atom_frac 0.3333333333333333 0.5833333333333333 0.8333333333333331 Zr
atom_frac 0.5000000000000000 0.5833333333333333 0.8333333333333331 Zr