#=======================================================
# FHI-aims file: 2000_geometry.in.primitive.supercell_2592.0010K
# Created using the Atomic Simulation Environment (ASE)
# Thu Jan 26 12:10:18 2023

# Additional information:
#  created from MB distrubtion
#  T = 10.0 K
#  quantum:             False
#  deterministic:       False
#  plus_minus:          False
#  gauge_eigenvectors:  False
#  Random seed:         639195577
#  Sample number:       1
#=======================================================
lattice_vector 31.1266483516483561 0.0000000000000000 0.0000000000000000 
lattice_vector 0.0000000000000000 31.1266483516483561 0.0000000000000000 
lattice_vector 0.0000000000000000 0.0000000000000000 31.9260989010989036 
atom 2.5938873626373620 0.0000000000000000 0.0000000000000000 Zr
    velocity 0.5704691510504265 0.2074614269408161 0.0163101639292873
atom 7.7816620879120890 0.0000000000000000 0.0000000000000000 Zr
    velocity -0.0231448829824756 0.3420664814682209 -0.0231474305160865
atom 12.9694368131868121 0.0000000000000000 0.0000000000000000 Zr
    velocity -0.0547096464618434 0.1091668640457898 -0.2224204086739937
atom 18.1572115384615387 0.0000000000000000 0.0000000000000000 Zr
    velocity -0.0704695593633189 -0.2334191438713311 -0.1789084188071110
atom 23.3449862637362671 0.0000000000000000 0.0000000000000000 Zr
    velocity 0.1726395503329892 0.1221233615170040 -0.0470169769511911
atom 28.5327609890109919 0.0000000000000000 0.0000000000000000 Zr
    velocity 0.0406892516014410 -0.0747642543459583 -0.4484576693495451
atom 2.5938873626373620 5.1877747252747275 0.0000000000000000 Zr
    velocity 0.1821061289489558 0.2540682219101198 0.1707317222296787
atom 7.7816620879120890 5.1877747252747275 0.0000000000000000 Zr
    velocity -0.1593176351993717 0.3750825255940347 -0.0120713359801907
atom 12.9694368131868121 5.1877747252747275 0.0000000000000000 Zr
    velocity -0.1548428726192239 -0.0069041543569207 0.0078770720444079
atom 18.1572115384615387 5.1877747252747275 0.0000000000000000 Zr
    velocity 0.1714560336395526 -0.3130133462398148 -0.2375710060289370
atom 23.3449862637362671 5.1877747252747275 0.0000000000000000 Zr
    velocity 0.0115327780067846 0.1165637822112825 -0.2261148443764137
atom 28.5327609890109919 5.1877747252747275 0.0000000000000000 Zr
    velocity -0.2021900204715351 0.3001204433491851 0.0327818415532823
atom 2.5938873626373620 10.3755494505494514 0.0000000000000000 Zr
    velocity 0.9163976477976666 0.4521588248155413 0.3705475377542085
atom 7.7816620879120890 10.3755494505494514 0.0000000000000000 Zr
    velocity 0.0622272331606868 -0.1220814336145638 0.3777946172956901
atom 12.9694368131868121 10.3755494505494514 0.0000000000000000 Zr
    velocity -0.2566777224181233 0.5708315207904313 0.0226189412561883
atom 18.1572115384615387 10.3755494505494514 0.0000000000000000 Zr
    velocity -0.8808086757498654 -0.1025113908984171 0.1553113368242109
atom 23.3449862637362671 10.3755494505494514 0.0000000000000000 Zr
    velocity 0.0924098654110192 0.0058414426492338 -0.1535333541263713
atom 28.5327609890109919 10.3755494505494514 0.0000000000000000 Zr
    velocity -0.0475082538199188 -0.0548643973501861 0.4557232601993398
atom 2.5938873626373620 15.5633241758241780 0.0000000000000000 Zr
    velocity 0.4874492270584257 0.0045847849263344 -0.4563930713445521
atom 7.7816620879120890 15.5633241758241780 0.0000000000000000 Zr
    velocity -0.0839230686900444 0.0036825188376255 0.0652449152890517
atom 12.9694368131868121 15.5633241758241780 0.0000000000000000 Zr
    velocity -0.0722103371582259 -0.0890520850644385 0.3516194322226157
atom 18.1572115384615387 15.5633241758241780 0.0000000000000000 Zr
    velocity -0.7204772349867472 0.1951852214518663 0.4101557485695676
atom 23.3449862637362671 15.5633241758241780 0.0000000000000000 Zr
    velocity -0.2863656145540964 -0.0652434069893190 -0.0383651067864027
atom 28.5327609890109919 15.5633241758241780 0.0000000000000000 Zr
    velocity 0.3342199135185580 -0.3056160163091634 0.4532282756133789
atom 2.5938873626373620 20.7510989010989029 0.0000000000000000 Zr
    velocity -0.1222354800951471 -0.0096840996700903 -0.1594275607109224
atom 7.7816620879120890 20.7510989010989029 0.0000000000000000 Zr
    velocity -0.4291355830095429 0.2875870674876436 -0.4078544034281833
atom 12.9694368131868121 20.7510989010989029 0.0000000000000000 Zr
    velocity 0.0163978398093196 0.4342255314883354 -0.2148025757607356
atom 18.1572115384615387 20.7510989010989029 0.0000000000000000 Zr
    velocity -0.1725995836758112 -0.3270590043712826 0.3262182330902074
atom 23.3449862637362671 20.7510989010989029 0.0000000000000000 Zr
    velocity 0.6711751559348579 -0.5419725234864823 -0.3760932374969578
atom 28.5327609890109919 20.7510989010989029 0.0000000000000000 Zr
    velocity -0.1135982642532021 0.1501391318800022 -0.1625337185152608
atom 2.5938873626373620 25.9388736263736277 0.0000000000000000 Zr
    velocity -0.2610133718139877 0.2448912018741648 -0.2859896827887896
atom 7.7816620879120890 25.9388736263736277 0.0000000000000000 Zr
    velocity -0.3125648631366855 0.0684490001721760 -0.3934611661662899
atom 12.9694368131868121 25.9388736263736277 0.0000000000000000 Zr
    velocity 0.1695200924243883 -0.4390961597515164 -0.1373088284901831
atom 18.1572115384615387 25.9388736263736277 0.0000000000000000 Zr
    velocity 0.1506272460459208 0.4524651850289564 0.1339491419086742
atom 23.3449862637362671 25.9388736263736277 0.0000000000000000 Zr
    velocity -0.1880662703799610 0.1165326525860575 0.1128102787887232
atom 28.5327609890109919 25.9388736263736277 0.0000000000000000 Zr
    velocity 0.0883448724241766 0.0074229148815721 -0.2154239007620292
atom 2.5938873626373620 0.0000000000000000 5.3210164835164857 Zr
    velocity 0.3130581398363274 0.0093685469205233 -0.0800674465595645
atom 7.7816620879120890 0.0000000000000000 5.3210164835164857 Zr
    velocity 0.2631481358075562 -0.2966698410721881 0.3104477225653731
atom 12.9694368131868121 0.0000000000000000 5.3210164835164857 Zr
    velocity -0.6431297827537019 0.0880617877647124 0.0955321118146851
atom 18.1572115384615387 0.0000000000000000 5.3210164835164857 Zr
    velocity -0.1738976061932863 0.0514644559631250 -0.0538247782991373
atom 23.3449862637362671 0.0000000000000000 5.3210164835164857 Zr
    velocity -0.6585631962761139 -0.4097351497451416 -0.1958279805643493
atom 28.5327609890109919 0.0000000000000000 5.3210164835164857 Zr
    velocity 0.1197689201590096 -0.0327343878888529 -0.0877378077036744
atom 2.5938873626373620 5.1877747252747275 5.3210164835164857 Zr
    velocity -0.4352745183505124 0.3806864762965124 -0.2695235057498096
atom 7.7816620879120890 5.1877747252747275 5.3210164835164857 Zr
    velocity -0.3086513976627173 -0.4861103456080953 -0.2251342337545420
atom 12.9694368131868121 5.1877747252747275 5.3210164835164857 Zr
    velocity -0.2949891147842053 -0.2567441570026645 -0.1095823062258575
atom 18.1572115384615387 5.1877747252747275 5.3210164835164857 Zr
    velocity 0.0866468737410254 -0.3569846200214593 -0.3331989477459855
atom 23.3449862637362671 5.1877747252747275 5.3210164835164857 Zr
    velocity -0.2107655718039521 -0.1267680422347832 -0.1487168730817589
atom 28.5327609890109919 5.1877747252747275 5.3210164835164857 Zr
    velocity 0.3769859467421766 -0.2629221462115615 -0.3083504457243573
atom 2.5938873626373620 10.3755494505494514 5.3210164835164857 Zr
    velocity -0.4852563096122674 0.0480056932347715 0.6207736547252389
atom 7.7816620879120890 10.3755494505494514 5.3210164835164857 Zr
    velocity 0.4332037026502911 0.2961073323930900 -0.0613874019074253
atom 12.9694368131868121 10.3755494505494514 5.3210164835164857 Zr
    velocity 0.1680455535119520 0.4907021053516307 -0.0475532507607590
atom 18.1572115384615387 10.3755494505494514 5.3210164835164857 Zr
    velocity 0.2130017334754916 -0.1256444903741247 -0.4609632398643349
atom 23.3449862637362671 10.3755494505494514 5.3210164835164857 Zr
    velocity 0.0311476245519052 -0.0407445494318750 -0.0061854409395659
atom 28.5327609890109919 10.3755494505494514 5.3210164835164857 Zr
    velocity 0.3665027932328804 0.0648069939531656 0.2167493693618661
atom 2.5938873626373620 15.5633241758241780 5.3210164835164857 Zr
    velocity 0.1222917189375602 0.4390532993436190 0.4410200482614327
atom 7.7816620879120890 15.5633241758241780 5.3210164835164857 Zr
    velocity 0.2423616263467563 -0.1171614821147426 -0.0012899130300044
atom 12.9694368131868121 15.5633241758241780 5.3210164835164857 Zr
    velocity 0.0531153340346951 0.4387341958875058 -0.2230344079401010
atom 18.1572115384615387 15.5633241758241780 5.3210164835164857 Zr
    velocity -0.2458627746061896 0.1285893582383110 0.3622410229592736
atom 23.3449862637362671 15.5633241758241780 5.3210164835164857 Zr
    velocity 0.4926141022456297 -0.0108302863826749 -0.2575531628006931
atom 28.5327609890109919 15.5633241758241780 5.3210164835164857 Zr
    velocity -0.4518799962441063 0.1498470182040642 0.2523846364656775
atom 2.5938873626373620 20.7510989010989029 5.3210164835164857 Zr
    velocity -0.2653803384977418 -0.1628586803697538 -0.1723201059284369
atom 7.7816620879120890 20.7510989010989029 5.3210164835164857 Zr
    velocity 0.3348575399505247 -0.2960937646892812 0.1650843842877505
atom 12.9694368131868121 20.7510989010989029 5.3210164835164857 Zr
    velocity 0.3910941142327403 -0.0049789884884372 0.5275863349479257
atom 18.1572115384615387 20.7510989010989029 5.3210164835164857 Zr
    velocity -0.0456529108231813 0.1316796016795168 -0.1671924678420006
atom 23.3449862637362671 20.7510989010989029 5.3210164835164857 Zr
    velocity 0.1390104649550694 -0.4884686352220017 0.0760960570948757
atom 28.5327609890109919 20.7510989010989029 5.3210164835164857 Zr
    velocity -0.2173442993756085 0.1650313437286161 -0.2733410154668463
atom 2.5938873626373620 25.9388736263736277 5.3210164835164857 Zr
    velocity 0.2836202986246628 0.1872253159326956 0.2413766509448678
atom 7.7816620879120890 25.9388736263736277 5.3210164835164857 Zr
    velocity 0.0084085679602869 0.1828916844791219 -0.0460268521001595
atom 12.9694368131868121 25.9388736263736277 5.3210164835164857 Zr
    velocity -0.3421376771611564 -0.4179963276427301 0.2174883258747595
atom 18.1572115384615387 25.9388736263736277 5.3210164835164857 Zr
    velocity 0.2527294660253603 -0.0315075765786113 -0.1769576184765603
atom 23.3449862637362671 25.9388736263736277 5.3210164835164857 Zr
    velocity -0.2960174692371039 0.5716815187388082 0.1143821864225057
atom 28.5327609890109919 25.9388736263736277 5.3210164835164857 Zr
    velocity 0.0992516088399820 0.7106140872996102 -0.7127404411966850
atom 2.5938873626373620 0.0000000000000000 10.6420329670329679 Zr
    velocity 0.1860869735500007 -0.3171338782046252 0.1335367254948507
atom 7.7816620879120890 0.0000000000000000 10.6420329670329679 Zr
    velocity 0.3208451654829579 0.1492792291340375 -0.0482482112281828
atom 12.9694368131868121 0.0000000000000000 10.6420329670329679 Zr
    velocity -0.2409306273456318 0.0260548789706209 0.1074475755901488
atom 18.1572115384615387 0.0000000000000000 10.6420329670329679 Zr
    velocity -0.5111485756318743 0.4392605832198677 0.0301737203036829
atom 23.3449862637362671 0.0000000000000000 10.6420329670329679 Zr
    velocity 0.3129505399644927 -0.3814599542340145 0.0539327644118366
atom 28.5327609890109919 0.0000000000000000 10.6420329670329679 Zr
    velocity -0.1293477662196284 0.0192529292104517 0.6707093920574330
atom 2.5938873626373620 5.1877747252747275 10.6420329670329679 Zr
    velocity -0.0366003789966593 -0.1900538064213456 0.2292023003584284
atom 7.7816620879120890 5.1877747252747275 10.6420329670329679 Zr
    velocity -0.4510922525007332 -0.2148824339179738 0.2467120963039088
atom 12.9694368131868121 5.1877747252747275 10.6420329670329679 Zr
    velocity -0.3111556565384796 0.3369851595829240 0.2803503042572839
atom 18.1572115384615387 5.1877747252747275 10.6420329670329679 Zr
    velocity -0.0809761252693157 0.5571202589450738 -0.1828497400496254
atom 23.3449862637362671 5.1877747252747275 10.6420329670329679 Zr
    velocity 0.0576466580740125 -0.0346994989121027 0.6982880133176907
atom 28.5327609890109919 5.1877747252747275 10.6420329670329679 Zr
    velocity 0.1896921328671171 0.3478569137817108 0.1801899622511983
atom 2.5938873626373620 10.3755494505494514 10.6420329670329679 Zr
    velocity 0.2264042751406743 0.1697734352741762 0.4275856032139628
atom 7.7816620879120890 10.3755494505494514 10.6420329670329679 Zr
    velocity -0.3672722522778410 -0.2502557215910474 0.0080505008103305
atom 12.9694368131868121 10.3755494505494514 10.6420329670329679 Zr
    velocity 0.5281875411999545 -0.5077856523298634 -0.1492112860798119
atom 18.1572115384615387 10.3755494505494514 10.6420329670329679 Zr
    velocity -0.2052700307947416 -0.3168107815493152 0.3831878015327361
atom 23.3449862637362671 10.3755494505494514 10.6420329670329679 Zr
    velocity -0.1912516274650321 -0.6007087526614090 0.1540628610495475
atom 28.5327609890109919 10.3755494505494514 10.6420329670329679 Zr
    velocity 0.0605386579725303 0.2554384948162735 0.0214158507146041
atom 2.5938873626373620 15.5633241758241780 10.6420329670329679 Zr
    velocity -0.6912950800585510 0.1485304990123716 0.4854621398403993
atom 7.7816620879120890 15.5633241758241780 10.6420329670329679 Zr
    velocity 0.2961347956870836 -0.1912323177329614 -0.2515909503028026
atom 12.9694368131868121 15.5633241758241780 10.6420329670329679 Zr
    velocity -0.3046909151629942 0.0287821283572822 0.3088444918431945
atom 18.1572115384615387 15.5633241758241780 10.6420329670329679 Zr
    velocity 0.3338798586475912 -0.1724705532624863 0.1020549513930550
atom 23.3449862637362671 15.5633241758241780 10.6420329670329679 Zr
    velocity 0.1219361725722737 -0.2603128373698190 -0.3480146641611170
atom 28.5327609890109919 15.5633241758241780 10.6420329670329679 Zr
    velocity 0.7100294367777427 0.0928284802895275 -0.8056673732469922
atom 2.5938873626373620 20.7510989010989029 10.6420329670329679 Zr
    velocity 0.4191965156490270 0.1688105264711245 -0.3002920048801070
atom 7.7816620879120890 20.7510989010989029 10.6420329670329679 Zr
    velocity 0.0946190801148955 -0.1709126773897494 -0.2505621512426994
atom 12.9694368131868121 20.7510989010989029 10.6420329670329679 Zr
    velocity 0.5080077514979758 -0.1621898650145843 0.4374034572684593
atom 18.1572115384615387 20.7510989010989029 10.6420329670329679 Zr
    velocity 0.2982553911270110 0.3694115852894562 0.2514661989420368
atom 23.3449862637362671 20.7510989010989029 10.6420329670329679 Zr
    velocity -0.4809196424950867 -0.1142947214553107 0.2975364179480329
atom 28.5327609890109919 20.7510989010989029 10.6420329670329679 Zr
    velocity -0.0356523686071980 -0.2122666459465175 -0.2122254217911149
atom 2.5938873626373620 25.9388736263736277 10.6420329670329679 Zr
    velocity 0.0620918986412480 0.1343162711010326 -0.1527547530219759
atom 7.7816620879120890 25.9388736263736277 10.6420329670329679 Zr
    velocity -0.2822489317162892 -0.0681126168024535 -0.0519917078336807
atom 12.9694368131868121 25.9388736263736277 10.6420329670329679 Zr
    velocity 0.4952633463845726 0.1728758250608578 -0.3451519404533522
atom 18.1572115384615387 25.9388736263736277 10.6420329670329679 Zr
    velocity -0.1921220738788050 -0.4362611377392370 -0.2955463564755561
atom 23.3449862637362671 25.9388736263736277 10.6420329670329679 Zr
    velocity -0.1647621833523109 -0.1989012018309007 -0.1862994300938823
atom 28.5327609890109919 25.9388736263736277 10.6420329670329679 Zr
    velocity -0.0299614962014846 0.5617668285570767 -0.3130527151845920
atom 2.5938873626373620 0.0000000000000000 15.9630494505494482 Zr
    velocity -0.4466888962570347 0.2082672859861507 0.0565296786730320
atom 7.7816620879120890 0.0000000000000000 15.9630494505494482 Zr
    velocity 0.1126376700689984 0.5086942891885861 -0.0031346314926060
atom 12.9694368131868121 0.0000000000000000 15.9630494505494482 Zr
    velocity -0.0856243719924406 -0.2571053083605361 -0.0436445072658767
atom 18.1572115384615387 0.0000000000000000 15.9630494505494482 Zr
    velocity -0.0657296319041581 -0.0280771400202085 0.4043713224700468
atom 23.3449862637362671 0.0000000000000000 15.9630494505494482 Zr
    velocity 0.9505245093020943 -0.3543292129418021 -0.0871453974997813
atom 28.5327609890109919 0.0000000000000000 15.9630494505494482 Zr
    velocity -0.5161753356950201 -0.2595363571277194 0.3201143378117399
atom 2.5938873626373620 5.1877747252747275 15.9630494505494482 Zr
    velocity -0.1347267486593682 -0.0745611249365968 -0.2485301100296848
atom 7.7816620879120890 5.1877747252747275 15.9630494505494482 Zr
    velocity -0.3336245569271692 -0.1149480506914913 -0.1072809698549661
atom 12.9694368131868121 5.1877747252747275 15.9630494505494482 Zr
    velocity 0.0946089985131075 -0.0056281789886745 -0.3219115595612765
atom 18.1572115384615387 5.1877747252747275 15.9630494505494482 Zr
    velocity -0.0203034641781819 -0.2469724503918398 -0.5643731994381320
atom 23.3449862637362671 5.1877747252747275 15.9630494505494482 Zr
    velocity -0.2757416431282839 0.1940632191925255 0.1261152232951398
atom 28.5327609890109919 5.1877747252747275 15.9630494505494482 Zr
    velocity 0.2938178213251116 -0.0445410215346991 0.0710016331153352
atom 2.5938873626373620 10.3755494505494514 15.9630494505494482 Zr
    velocity 0.2282440852835744 0.0616528360794242 0.0311539558802386
atom 7.7816620879120890 10.3755494505494514 15.9630494505494482 Zr
    velocity -0.4390254235892883 0.0318127404550865 -1.0209369290507502
atom 12.9694368131868121 10.3755494505494514 15.9630494505494482 Zr
    velocity -0.1839706628040704 -0.1133901069781761 0.5258983023883166
atom 18.1572115384615387 10.3755494505494514 15.9630494505494482 Zr
    velocity 0.1517419132120724 -0.4748894830650697 0.1136333111893362
atom 23.3449862637362671 10.3755494505494514 15.9630494505494482 Zr
    velocity 0.0510296261727733 -0.3487740000886990 -0.1762099251994080
atom 28.5327609890109919 10.3755494505494514 15.9630494505494482 Zr
    velocity -0.9204129820000866 -0.8214063736407720 -0.1250740925749021
atom 2.5938873626373620 15.5633241758241780 15.9630494505494482 Zr
    velocity 0.2337556840694925 0.1523681345380094 0.8146632358212513
atom 7.7816620879120890 15.5633241758241780 15.9630494505494482 Zr
    velocity -0.2324545117772925 0.5742274066233424 0.0070133954687517
atom 12.9694368131868121 15.5633241758241780 15.9630494505494482 Zr
    velocity 0.1337136712265847 0.2257053610767976 -0.2959580073898309
atom 18.1572115384615387 15.5633241758241780 15.9630494505494482 Zr
    velocity -0.0226327128043402 0.1431715586207282 -0.0223040436007684
atom 23.3449862637362671 15.5633241758241780 15.9630494505494482 Zr
    velocity 0.2110545602359724 -0.2577438745726746 -0.1391209849560290
atom 28.5327609890109919 15.5633241758241780 15.9630494505494482 Zr
    velocity 0.2698554008956676 -0.1267637592853495 0.2443091757922623
atom 2.5938873626373620 20.7510989010989029 15.9630494505494482 Zr
    velocity -0.0515840878046874 -0.0361616692423517 -0.3488811161666988
atom 7.7816620879120890 20.7510989010989029 15.9630494505494482 Zr
    velocity 0.4137927651951119 0.1868338201367268 0.2256236022704505
atom 12.9694368131868121 20.7510989010989029 15.9630494505494482 Zr
    velocity 0.1932480966731122 -0.1838891243537383 -0.2033025856418090
atom 18.1572115384615387 20.7510989010989029 15.9630494505494482 Zr
    velocity -0.1369348485103391 -0.4791452444453644 -0.0812778524441564
atom 23.3449862637362671 20.7510989010989029 15.9630494505494482 Zr
    velocity 0.1912539290204998 -0.1477543482336850 -0.0261431744800072
atom 28.5327609890109919 20.7510989010989029 15.9630494505494482 Zr
    velocity 0.4592333731432796 0.0856575823099813 -0.1321599262545356
atom 2.5938873626373620 25.9388736263736277 15.9630494505494482 Zr
    velocity 0.1959372099381660 0.0953494361050000 -0.0564973333446101
atom 7.7816620879120890 25.9388736263736277 15.9630494505494482 Zr
    velocity 0.3610404223188884 0.2840304645133024 0.1593827198677941
atom 12.9694368131868121 25.9388736263736277 15.9630494505494482 Zr
    velocity 0.0466392924134864 0.1175245146177117 -0.2902095794893151
atom 18.1572115384615387 25.9388736263736277 15.9630494505494482 Zr
    velocity -0.3989754841081822 -0.3789704742265154 0.7511938997776256
atom 23.3449862637362671 25.9388736263736277 15.9630494505494482 Zr
    velocity -0.3220262420749320 0.6068886753631861 0.2241658592512070
atom 28.5327609890109919 25.9388736263736277 15.9630494505494482 Zr
    velocity 0.3961676753028333 -0.1618686806096528 -0.2079915889620978
atom 2.5938873626373620 0.0000000000000000 21.2840659340659357 Zr
    velocity 0.2599714060196651 -0.5348580100904492 0.3966365001531763
atom 7.7816620879120890 0.0000000000000000 21.2840659340659357 Zr
    velocity 0.7597619363487181 -0.2122817055686503 -0.3328785804678005
atom 12.9694368131868121 0.0000000000000000 21.2840659340659357 Zr
    velocity -0.3567686482874209 0.1653887013091065 0.1043024895319459
atom 18.1572115384615387 0.0000000000000000 21.2840659340659357 Zr
    velocity -0.3995771137244105 0.1191535660254425 -0.3532999029362064
atom 23.3449862637362671 0.0000000000000000 21.2840659340659357 Zr
    velocity -0.2804782369117849 0.5796251488649995 -0.1166624026657019
atom 28.5327609890109919 0.0000000000000000 21.2840659340659357 Zr
    velocity 0.4922811144964412 0.0582672356479354 0.2421986028529076
atom 2.5938873626373620 5.1877747252747275 21.2840659340659357 Zr
    velocity -0.3960871193619198 -0.9662961612506638 0.4590574924791377
atom 7.7816620879120890 5.1877747252747275 21.2840659340659357 Zr
    velocity -0.0196396136916399 -0.4592217285751243 -0.4537216095532839
atom 12.9694368131868121 5.1877747252747275 21.2840659340659357 Zr
    velocity 0.4467126040421817 0.4677131223638405 -0.4311904174742189
atom 18.1572115384615387 5.1877747252747275 21.2840659340659357 Zr
    velocity -0.0947078915382548 -0.5725985572065787 0.3199115119444994
atom 23.3449862637362671 5.1877747252747275 21.2840659340659357 Zr
    velocity 0.3818552202286423 -0.2283937584496848 -0.7701006153656156
atom 28.5327609890109919 5.1877747252747275 21.2840659340659357 Zr
    velocity 0.1584959080040841 0.3283088116560640 -0.3698184799991019
atom 2.5938873626373620 10.3755494505494514 21.2840659340659357 Zr
    velocity 0.3533097155950786 0.1608829090545960 -0.2009996297490120
atom 7.7816620879120890 10.3755494505494514 21.2840659340659357 Zr
    velocity 0.0630394513283503 -0.0222437304202501 -0.2610410882358960
atom 12.9694368131868121 10.3755494505494514 21.2840659340659357 Zr
    velocity -0.1528746126632057 -0.1489679605856034 -0.0924440366979725
atom 18.1572115384615387 10.3755494505494514 21.2840659340659357 Zr
    velocity -0.2587806191171479 -0.3262040793894784 -0.2616661689525169
atom 23.3449862637362671 10.3755494505494514 21.2840659340659357 Zr
    velocity 0.1068162626869771 0.2223056816353644 0.6375339236314460
atom 28.5327609890109919 10.3755494505494514 21.2840659340659357 Zr
    velocity -0.0616678434121290 0.2132673239570166 0.0940084098674645
atom 2.5938873626373620 15.5633241758241780 21.2840659340659357 Zr
    velocity -0.2658480461527964 -0.1073735583236414 -0.5977993918467805
atom 7.7816620879120890 15.5633241758241780 21.2840659340659357 Zr
    velocity -0.1672978086337787 -0.5445566738700943 -0.2199459098718891
atom 12.9694368131868121 15.5633241758241780 21.2840659340659357 Zr
    velocity -0.1639877267760188 0.1495083854040213 0.1069247918817147
atom 18.1572115384615387 15.5633241758241780 21.2840659340659357 Zr
    velocity 0.4328206130013270 0.0612752663335028 0.0486224986300323
atom 23.3449862637362671 15.5633241758241780 21.2840659340659357 Zr
    velocity 0.2101311375466541 -0.0173282784169676 -0.2205662704458099
atom 28.5327609890109919 15.5633241758241780 21.2840659340659357 Zr
    velocity 0.1208650010832839 0.1689636037886981 -0.4185771928826456
atom 2.5938873626373620 20.7510989010989029 21.2840659340659357 Zr
    velocity -0.6626510528076184 -0.1779248164390655 -0.0354061203193779
atom 7.7816620879120890 20.7510989010989029 21.2840659340659357 Zr
    velocity -0.0013879683367136 -0.5407826479866289 -0.0951294665664414
atom 12.9694368131868121 20.7510989010989029 21.2840659340659357 Zr
    velocity -0.2663766431866347 0.1592923663967709 -0.3170424177744565
atom 18.1572115384615387 20.7510989010989029 21.2840659340659357 Zr
    velocity 0.4508102971168145 -0.0727780114652914 -0.0172751843978055
atom 23.3449862637362671 20.7510989010989029 21.2840659340659357 Zr
    velocity -0.3450262946194800 -0.1536238183904338 0.4365462757975969
atom 28.5327609890109919 20.7510989010989029 21.2840659340659357 Zr
    velocity 0.0466390288776719 0.2290177769017488 0.1042845704410899
atom 2.5938873626373620 25.9388736263736277 21.2840659340659357 Zr
    velocity 0.1810686649759689 -0.0641908828361338 0.2025912134885908
atom 7.7816620879120890 25.9388736263736277 21.2840659340659357 Zr
    velocity 0.3770642219103041 0.1594295197032406 -0.2035411422092565
atom 12.9694368131868121 25.9388736263736277 21.2840659340659357 Zr
    velocity 0.4147956537546312 0.5709919398027277 -0.4546362413135012
atom 18.1572115384615387 25.9388736263736277 21.2840659340659357 Zr
    velocity -0.2152787610764841 -0.4102631909573011 -0.1895309933243696
atom 23.3449862637362671 25.9388736263736277 21.2840659340659357 Zr
    velocity -0.3461292881237201 0.1988576281581238 -0.1965651937175656
atom 28.5327609890109919 25.9388736263736277 21.2840659340659357 Zr
    velocity -0.2675759321950937 -0.1363470660236215 0.1740129438245902
atom 2.5938873626373620 0.0000000000000000 26.6050824175824125 Zr
    velocity -0.2364959202612799 0.1398609977149219 0.2692499844326943
atom 7.7816620879120890 0.0000000000000000 26.6050824175824125 Zr
    velocity -0.5383441101824246 -0.3144870821370188 -0.0255065714680854
atom 12.9694368131868121 0.0000000000000000 26.6050824175824125 Zr
    velocity -0.2349586471194426 0.1815563687983322 -0.2365006387272777
atom 18.1572115384615387 0.0000000000000000 26.6050824175824125 Zr
    velocity -0.3905413282239220 0.7174885162542507 0.0221774218564326
atom 23.3449862637362671 0.0000000000000000 26.6050824175824125 Zr
    velocity 0.3379646159934347 0.0458522334241358 0.4988612543820619
atom 28.5327609890109919 0.0000000000000000 26.6050824175824125 Zr
    velocity -0.0281676085760857 0.0016468201486089 0.0787246057360441
atom 2.5938873626373620 5.1877747252747275 26.6050824175824125 Zr
    velocity 0.1092145895084616 -0.3163806688977280 -0.5536848227646927
atom 7.7816620879120890 5.1877747252747275 26.6050824175824125 Zr
    velocity -0.3847130393732177 -0.0271511049098448 -0.1886300871145944
atom 12.9694368131868121 5.1877747252747275 26.6050824175824125 Zr
    velocity 0.0251241236298763 -0.4027253265967640 0.9267485297851087
atom 18.1572115384615387 5.1877747252747275 26.6050824175824125 Zr
    velocity 0.0051553273443377 -0.1589934827519593 -0.5075131977204268
atom 23.3449862637362671 5.1877747252747275 26.6050824175824125 Zr
    velocity 0.1308365130868659 -0.1726011499433303 -0.1561640509341677
atom 28.5327609890109919 5.1877747252747275 26.6050824175824125 Zr
    velocity 0.1253979534195357 0.3473344545555140 -0.2659909903617896
atom 2.5938873626373620 10.3755494505494514 26.6050824175824125 Zr
    velocity 0.0855342526651640 -0.0484628247998467 0.3339524371446929
atom 7.7816620879120890 10.3755494505494514 26.6050824175824125 Zr
    velocity -0.1393115257179514 0.0151608654454655 -0.2357702138229040
atom 12.9694368131868121 10.3755494505494514 26.6050824175824125 Zr
    velocity -0.3245585039126714 -0.0003283578917171 0.3043614147833898
atom 18.1572115384615387 10.3755494505494514 26.6050824175824125 Zr
    velocity 0.1096889935011971 0.4278881614331998 -0.0563619884130592
atom 23.3449862637362671 10.3755494505494514 26.6050824175824125 Zr
    velocity 0.0940804262157025 0.2881770967193031 0.1206691211718805
atom 28.5327609890109919 10.3755494505494514 26.6050824175824125 Zr
    velocity -0.3521218118983829 -0.1835349721014061 -0.4005846996978553
atom 2.5938873626373620 15.5633241758241780 26.6050824175824125 Zr
    velocity -0.3824438791446403 -0.0866243584807443 0.0607064933345891
atom 7.7816620879120890 15.5633241758241780 26.6050824175824125 Zr
    velocity -0.2197888815775534 -0.3608606274535847 0.3626841502597603
atom 12.9694368131868121 15.5633241758241780 26.6050824175824125 Zr
    velocity 0.2096792106408608 -0.3539406791816462 -0.2154484526858956
atom 18.1572115384615387 15.5633241758241780 26.6050824175824125 Zr
    velocity 0.2526253070260362 0.6173776595074529 0.4149555733518882
atom 23.3449862637362671 15.5633241758241780 26.6050824175824125 Zr
    velocity -0.3768483144696209 0.2423918972445743 -0.0372441716684115
atom 28.5327609890109919 15.5633241758241780 26.6050824175824125 Zr
    velocity -0.0574737028511302 -0.2447890051831111 -0.2888048279755191
atom 2.5938873626373620 20.7510989010989029 26.6050824175824125 Zr
    velocity -0.5298076678280236 -0.1057091515880296 0.2043520182005593
atom 7.7816620879120890 20.7510989010989029 26.6050824175824125 Zr
    velocity -0.0833687778643199 -0.4103074040955652 -0.1898529753717551
atom 12.9694368131868121 20.7510989010989029 26.6050824175824125 Zr
    velocity -0.1230842779999835 -0.1018833087674727 -0.1675705115404833
atom 18.1572115384615387 20.7510989010989029 26.6050824175824125 Zr
    velocity -0.2727437088694243 0.0049930775537374 0.1792258040503237
atom 23.3449862637362671 20.7510989010989029 26.6050824175824125 Zr
    velocity -0.3163604598583499 -0.0915059978743760 0.1258276471291183
atom 28.5327609890109919 20.7510989010989029 26.6050824175824125 Zr
    velocity -0.0259721676568593 -0.4074094064474781 0.1919565627870139
atom 2.5938873626373620 25.9388736263736277 26.6050824175824125 Zr
    velocity -0.0049211856084980 -0.0755171016353738 0.4804451374147366