#=======================================================
# FHI-aims file: geometry.in.supercell.0010K
# Created using the Atomic Simulation Environment (ASE)
# Fri Jul 22 12:33:10 2022

# Additional information:
#  created from MB distrubtion
#  T = 10.0 K
#  quantum:             False
#  deterministic:       False
#  plus_minus:          False
#  gauge_eigenvectors:  False
#  Random seed:         703259129
#  Sample number:       1
#=======================================================
lattice_vector 25.6740568682199992 0.0000000000000000 0.0299636723050000 
lattice_vector 0.0000000000000000 26.0740309391150014 0.0000000000000000 
lattice_vector -4.3920128627950001 0.0000000000000000 26.1617056079549997 
atom 1.2362829995882334 0.2224581453497836 1.1004360625652794 Zr
    velocity -0.1351857630984767 -0.4121607254385379 0.0687429900361368
atom 6.3710943732322338 0.2224581453497836 1.1064287970262794 Zr
    velocity -0.0328126598940777 -0.4880899758158901 0.2293412387020233
atom 11.5059057468762340 0.2224581453497836 1.1124215314872794 Zr
    velocity 0.1101497802374556 -0.2086690710574204 -0.2114732950151089
atom 16.6407171205202324 0.2224581453497836 1.1184142659482794 Zr
    velocity -0.3195039108062924 -0.6393784524824571 0.0843013196183649
atom 21.7755284941642309 0.2224581453497836 1.1244070004092794 Zr
    velocity 0.4431012022508504 0.1899637933794253 -0.3724755067875541
atom 1.2362829995882334 5.4372643331727835 1.1004360625652794 Zr
    velocity 0.3265394071500842 -0.3265883993140748 0.0666694887014982
atom 6.3710943732322338 5.4372643331727835 1.1064287970262794 Zr
    velocity 0.2252317098225167 -0.3215953193051402 -0.2987932730508011
atom 11.5059057468762340 5.4372643331727835 1.1124215314872794 Zr
    velocity -0.0849416970392374 -0.4087249887753195 0.2509551641500406
atom 16.6407171205202324 5.4372643331727835 1.1184142659482794 Zr
    velocity -0.4684734730669406 -0.3888856429837417 -0.1241542806534952
atom 21.7755284941642309 5.4372643331727835 1.1244070004092794 Zr
    velocity 0.4195145771112473 0.3925280533738196 0.1925855889349657
atom 1.2362829995882334 10.6520705209957871 1.1004360625652794 Zr
    velocity 0.0027194449638275 -0.6170269557598007 0.0633416475984786
atom 6.3710943732322338 10.6520705209957871 1.1064287970262794 Zr
    velocity 0.0958233271917833 0.1229836784041179 0.2957884859608071
atom 11.5059057468762340 10.6520705209957871 1.1124215314872794 Zr
    velocity 0.3200567119671335 0.1392542782192037 0.6023299840481339
atom 16.6407171205202324 10.6520705209957871 1.1184142659482794 Zr
    velocity 0.0607403337352633 0.8308792611651622 0.0400331052297893
atom 21.7755284941642309 10.6520705209957871 1.1244070004092794 Zr
    velocity -0.1675608814334843 -0.1251075587008258 0.5313470785555684
atom 1.2362829995882334 15.8668767088187881 1.1004360625652794 Zr
    velocity 0.3458580513309806 0.4207434841948009 0.2999722291626684
atom 6.3710943732322338 15.8668767088187881 1.1064287970262794 Zr
    velocity 0.1650825565101930 -0.4477871671571622 -0.6275071601918704
atom 11.5059057468762340 15.8668767088187881 1.1124215314872794 Zr
    velocity -0.0120378510053248 0.3891583120410155 -0.4105888834478085
atom 16.6407171205202324 15.8668767088187881 1.1184142659482794 Zr
    velocity -0.2981629049157198 -0.5776116159301113 -0.1561170048126970
atom 21.7755284941642309 15.8668767088187881 1.1244070004092794 Zr
    velocity -0.3626114662842198 -0.0470790114314375 0.0098208705343150
atom 1.2362829995882334 21.0816828966417873 1.1004360625652794 Zr
    velocity 0.0136363269057924 0.0913823159240546 -0.1955447647238332
atom 6.3710943732322338 21.0816828966417873 1.1064287970262794 Zr
    velocity -0.1220779719225688 0.4965410011325274 0.2735891721161413
atom 11.5059057468762340 21.0816828966417873 1.1124215314872794 Zr
    velocity 0.4786127524713666 0.4846217455582004 -0.0580761848018876
atom 16.6407171205202324 21.0816828966417873 1.1184142659482794 Zr
    velocity 0.4001976687289902 -0.4347112514361703 1.1268892122035303
atom 21.7755284941642309 21.0816828966417873 1.1244070004092794 Zr
    velocity -0.3815841678262153 0.1825624978446496 -0.1954631018352860
atom 0.3578804270292334 0.2224581453497836 6.3327771841562788 Zr
    velocity 0.1544236939716180 -0.2829681005312101 0.6789994242602569
atom 5.4926918006732333 0.2224581453497836 6.3387699186172792 Zr
    velocity -0.3267594725555213 -0.1294706427170960 0.6605800239914043
atom 10.6275031743172335 0.2224581453497836 6.3447626530782788 Zr
    velocity -0.2205129798207314 -0.2910254559925605 -0.2765351183262195
atom 15.7623145479612337 0.2224581453497836 6.3507553875392793 Zr
    velocity 0.0219739381753233 0.5875046078253480 -0.0772612378907385
atom 20.8971259216052339 0.2224581453497836 6.3567481220002788 Zr
    velocity -0.1953189036051726 0.0813313285076665 -0.2704383742234470
atom 0.3578804270292334 5.4372643331727835 6.3327771841562788 Zr
    velocity 0.3157762473930756 0.1941107990406017 0.0705549098370039
atom 5.4926918006732333 5.4372643331727835 6.3387699186172792 Zr
    velocity -0.0094811747591100 0.0991047406811673 -0.0726584299825838
atom 10.6275031743172335 5.4372643331727835 6.3447626530782788 Zr
    velocity 0.1020152597079157 -0.1306373840582271 0.2583194742625582
atom 15.7623145479612337 5.4372643331727835 6.3507553875392793 Zr
    velocity -0.0552127446679090 0.0117894646294840 0.1236527925570508
atom 20.8971259216052339 5.4372643331727835 6.3567481220002788 Zr
    velocity -0.4384511627421149 0.3453866229343621 0.1493921580155985
atom 0.3578804270292334 10.6520705209957871 6.3327771841562788 Zr
    velocity -0.4187077931185078 -0.1029445937548802 -0.0522941567121465
atom 5.4926918006732333 10.6520705209957871 6.3387699186172792 Zr
    velocity -0.1018452467679588 0.2563259377801200 -0.2350701459090462
atom 10.6275031743172335 10.6520705209957871 6.3447626530782788 Zr
    velocity 0.1274297544090323 0.4160863215270509 0.1225985054630283
atom 15.7623145479612337 10.6520705209957871 6.3507553875392793 Zr
    velocity -0.2274761444558615 -0.1412897705581291 0.4175796965510703
atom 20.8971259216052339 10.6520705209957871 6.3567481220002788 Zr
    velocity -0.3910787155291111 -0.2951526757481912 0.0912777309337472
atom 0.3578804270292334 15.8668767088187881 6.3327771841562788 Zr
    velocity -0.2166038308949031 -0.2089081857618806 -0.2500202731162021
atom 5.4926918006732333 15.8668767088187881 6.3387699186172792 Zr
    velocity 0.1605892471958899 -0.3203160078232110 -0.2250968383817768
atom 10.6275031743172335 15.8668767088187881 6.3447626530782788 Zr
    velocity -0.5981533694209177 -0.4028906856852594 -0.0785206549579086
atom 15.7623145479612337 15.8668767088187881 6.3507553875392793 Zr
    velocity -0.4877608995147580 -0.1758200467257924 -0.0820366417225884
atom 20.8971259216052339 15.8668767088187881 6.3567481220002788 Zr
    velocity 0.1600234002964785 0.7252409238844508 0.3506190218785560
atom 0.3578804270292334 21.0816828966417873 6.3327771841562788 Zr
    velocity 0.4465197359551540 0.1362610378702731 -0.0850507063051267
atom 5.4926918006732333 21.0816828966417873 6.3387699186172792 Zr
    velocity 0.0036064038763518 -0.0851160581704103 0.8204264113999264
atom 10.6275031743172335 21.0816828966417873 6.3447626530782788 Zr
    velocity -0.0600787466630177 -0.7155888934880457 -0.2891944765662431
atom 15.7623145479612337 21.0816828966417873 6.3507553875392793 Zr
    velocity 0.3545450190810853 -0.2694273417616245 0.3365256484658439
atom 20.8971259216052339 21.0816828966417873 6.3567481220002788 Zr
    velocity 0.3812272418732978 -0.2381585040308904 -0.2077083395471168
atom -0.5205221455297666 0.2224581453497836 11.5651183057472799 Zr
    velocity 0.2406995586046858 -0.2156209367194250 0.1113289322538280
atom 4.6142892281142336 0.2224581453497836 11.5711110402082795 Zr
    velocity 0.5210925100916997 -0.0088162135004232 0.0080976026842564
atom 9.7491006017582329 0.2224581453497836 11.5771037746692791 Zr
    velocity 0.1159441819362831 -0.5382945391110998 0.1642115779955610
atom 14.8839119754022331 0.2224581453497836 11.5830965091302787 Zr
    velocity -0.0695620873963791 -0.3377915046605688 -0.3429542210501234
atom 20.0187233490462333 0.2224581453497836 11.5890892435912800 Zr
    velocity -0.1503228073623363 -0.4797175028339740 0.4961996897256647
atom -0.5205221455297666 5.4372643331727835 11.5651183057472799 Zr
    velocity 0.2755090956676670 -0.0526594451379830 0.1712107879852941
atom 4.6142892281142336 5.4372643331727835 11.5711110402082795 Zr
    velocity 0.0367781315414566 0.1620292904616943 1.0041155815663128
atom 9.7491006017582329 5.4372643331727835 11.5771037746692791 Zr
    velocity 0.2459937387888562 0.0629637035154378 -0.5346933947681739
atom 14.8839119754022331 5.4372643331727835 11.5830965091302787 Zr
    velocity 0.2537465033646187 0.1596387939840429 0.0184069499156594
atom 20.0187233490462333 5.4372643331727835 11.5890892435912800 Zr
    velocity 0.0693956024483133 0.3959469000904408 -0.2278203009137290
atom -0.5205221455297666 10.6520705209957871 11.5651183057472799 Zr
    velocity -0.1537571604802487 0.0133705673155305 0.8157390811152873
atom 4.6142892281142336 10.6520705209957871 11.5711110402082795 Zr
    velocity -0.1308424361665528 0.0410220878507611 0.2945884904526158
atom 9.7491006017582329 10.6520705209957871 11.5771037746692791 Zr
    velocity -0.1514437985484811 -0.4830263128480073 -0.0160507526511808
atom 14.8839119754022331 10.6520705209957871 11.5830965091302787 Zr
    velocity 0.7604564890755512 -0.1078537502326563 0.0213162950518264
atom 20.0187233490462333 10.6520705209957871 11.5890892435912800 Zr
    velocity -0.3237738322915213 0.0756469956483658 0.1737891165465996
atom -0.5205221455297666 15.8668767088187881 11.5651183057472799 Zr
    velocity 0.0487233635586883 -0.2126591426325238 -0.3271816917695202
atom 4.6142892281142336 15.8668767088187881 11.5711110402082795 Zr
    velocity -0.0873812172698515 -0.2341412966093327 -0.1000826118063805
atom 9.7491006017582329 15.8668767088187881 11.5771037746692791 Zr
    velocity 0.0396453046738779 -0.3741593279260666 0.4705579257677602
atom 14.8839119754022331 15.8668767088187881 11.5830965091302787 Zr
    velocity -0.1435219235904288 -0.1007965810929096 -0.0879178711154057
atom 20.0187233490462333 15.8668767088187881 11.5890892435912800 Zr
    velocity 0.0926537811934076 0.4582936473196574 0.5364307499405969
atom -0.5205221455297666 21.0816828966417873 11.5651183057472799 Zr
    velocity 0.3738886070642274 -0.2745941539549136 -0.2245926586195338
atom 4.6142892281142336 21.0816828966417873 11.5711110402082795 Zr
    velocity 0.0971597984733536 0.3602812119713626 0.1789067211141897
atom 9.7491006017582329 21.0816828966417873 11.5771037746692791 Zr
    velocity 0.2109717179634243 0.3430182109067731 0.3616382327792731
atom 14.8839119754022331 21.0816828966417873 11.5830965091302787 Zr
    velocity -0.1779581662610566 -0.1345248797605804 0.4460681435624664
atom 20.0187233490462333 21.0816828966417873 11.5890892435912800 Zr
    velocity -0.1215980479403450 0.3665620518928877 -0.2410507944341820
atom -1.3989247180887669 0.2224581453497836 16.7974594273382820 Zr
    velocity -0.4496474422547940 -0.1063853272540849 0.0594830897076321
atom 3.7358866555552330 0.2224581453497836 16.8034521617992816 Zr
    velocity -0.1355877733513726 -0.0115383213527253 -0.4632033474167269
atom 8.8706980291992341 0.2224581453497836 16.8094448962602812 Zr
    velocity -0.4391200161396864 0.0409060849180594 -0.1879497863981049
atom 14.0055094028432343 0.2224581453497836 16.8154376307212807 Zr
    velocity -0.2640526827636374 -0.3396490930273688 0.4788065481664388
atom 19.1403207764872327 0.2224581453497836 16.8214303651822803 Zr
    velocity 0.2496175143345896 -0.4819117076547582 0.1103665718002533
atom -1.3989247180887669 5.4372643331727835 16.7974594273382820 Zr
    velocity -0.5316510377966477 0.3567513218678386 -0.1541157886390159
atom 3.7358866555552330 5.4372643331727835 16.8034521617992816 Zr
    velocity -0.1594611048354299 0.3542783501583466 0.1137268049404594
atom 8.8706980291992341 5.4372643331727835 16.8094448962602812 Zr
    velocity 0.1656101335003946 0.1098439118679015 0.1456292890000006
atom 14.0055094028432343 5.4372643331727835 16.8154376307212807 Zr
    velocity 0.1894794549108827 -0.1283154083227165 -0.1465148143174117
atom 19.1403207764872327 5.4372643331727835 16.8214303651822803 Zr
    velocity 0.0174871345581567 -0.3207824396633721 -0.5091438624813954
atom -1.3989247180887669 10.6520705209957871 16.7974594273382820 Zr
    velocity -0.3916858505299425 -0.3263307717235581 -0.3442454499655211
atom 3.7358866555552330 10.6520705209957871 16.8034521617992816 Zr
    velocity 0.1012856526414100 -0.0351306343900327 -0.3248947699345219
atom 8.8706980291992341 10.6520705209957871 16.8094448962602812 Zr
    velocity 0.4001193837439346 -0.4425599946792743 0.1246765461368640
atom 14.0055094028432343 10.6520705209957871 16.8154376307212807 Zr
    velocity 0.4317453339440958 0.0084969584247105 0.0940607635009160
atom 19.1403207764872327 10.6520705209957871 16.8214303651822803 Zr
    velocity 0.2644519825749238 0.4460323405071679 0.1473232446729641
atom -1.3989247180887669 15.8668767088187881 16.7974594273382820 Zr
    velocity -0.3415145279639471 0.2182914822241667 0.5096112768957320
atom 3.7358866555552330 15.8668767088187881 16.8034521617992816 Zr
    velocity -0.2592889116447247 0.1134591097146058 -0.0796767885653049
atom 8.8706980291992341 15.8668767088187881 16.8094448962602812 Zr
    velocity 0.1478219166025548 0.0786496765462297 -0.1885913032611183
atom 14.0055094028432343 15.8668767088187881 16.8154376307212807 Zr
    velocity -0.3680946480498381 0.1562671995404992 -0.0093354700244137
atom 19.1403207764872327 15.8668767088187881 16.8214303651822803 Zr
    velocity -0.0045479684795889 0.3165060479151224 0.1753932423212159
atom -1.3989247180887669 21.0816828966417873 16.7974594273382820 Zr
    velocity 0.0732856602628786 0.4996001775640728 0.3781513956631669
atom 3.7358866555552330 21.0816828966417873 16.8034521617992816 Zr
    velocity -0.8919675194398655 -0.2617513708196536 -0.2025407773957574
atom 8.8706980291992341 21.0816828966417873 16.8094448962602812 Zr
    velocity -0.1060446637329241 0.3928172225417386 -0.0180064444998917
atom 14.0055094028432343 21.0816828966417873 16.8154376307212807 Zr
    velocity 0.5750204479026522 -0.1626118672885015 -0.0065028563564686
atom 19.1403207764872327 21.0816828966417873 16.8214303651822803 Zr
    velocity 0.0336816112147987 0.0482750178041211 0.1844393799705420
atom -2.2773272906477668 0.2224581453497836 22.0298005489292805 Zr
    velocity -0.1244154182029121 0.7670604954783098 -0.0596926236371833
atom 2.8574840829962338 0.2224581453497836 22.0357932833902765 Zr
    velocity 0.1930960929021951 0.0746400174748751 -0.4011556848883787
atom 7.9922954566402344 0.2224581453497836 22.0417860178512761 Zr
    velocity -0.5972187512470349 0.1831471166384934 -0.4037629437219917
atom 13.1271068302842338 0.2224581453497836 22.0477787523122757 Zr
    velocity -0.2260623437650407 0.0051087187737806 -0.1529353151043819
atom 18.2619182039282322 0.2224581453497836 22.0537714867732753 Zr
    velocity 0.0088579213860745 -0.0559918167584058 0.4372546337094851
atom -2.2773272906477668 5.4372643331727835 22.0298005489292805 Zr
    velocity 0.0072416613349430 -0.1394533097113592 -0.2857144522401884
atom 2.8574840829962338 5.4372643331727835 22.0357932833902765 Zr
    velocity 0.6639036886894393 0.5120420467566825 -0.2752699775616143
atom 7.9922954566402344 5.4372643331727835 22.0417860178512761 Zr
    velocity 0.7899576623645336 -0.0942320223938642 0.1465795282097709
atom 13.1271068302842338 5.4372643331727835 22.0477787523122757 Zr
    velocity 0.2447328737088734 0.2899671744974615 0.0863863014696126
atom 18.2619182039282322 5.4372643331727835 22.0537714867732753 Zr
    velocity -0.2521670020787448 -0.1306120642678570 0.0015151496024849
atom -2.2773272906477668 10.6520705209957871 22.0298005489292805 Zr
    velocity 0.0102431210521586 0.3081665249504162 -0.0081323535817459
atom 2.8574840829962338 10.6520705209957871 22.0357932833902765 Zr
    velocity -0.0571199584354850 0.0079648798353718 0.3420331202633532
atom 7.9922954566402344 10.6520705209957871 22.0417860178512761 Zr
    velocity 0.6314893146032026 -0.6524345390042641 -0.2865639350000450
atom 13.1271068302842338 10.6520705209957871 22.0477787523122757 Zr
    velocity 0.2201963796250757 0.1725122627722933 0.5820365773216751
atom 18.2619182039282322 10.6520705209957871 22.0537714867732753 Zr
    velocity 0.6296593476018845 0.0472390273985821 -0.1379738535037016
atom -2.2773272906477668 15.8668767088187881 22.0298005489292805 Zr
    velocity 0.1546727884859712 0.3893524194104457 0.3463626706315122
atom 2.8574840829962338 15.8668767088187881 22.0357932833902765 Zr
    velocity 0.3195699873157756 0.1250711248989035 0.0177817765220812
atom 7.9922954566402344 15.8668767088187881 22.0417860178512761 Zr
    velocity -0.5689346861087177 -0.1845532848334759 0.3727493982371567
atom 13.1271068302842338 15.8668767088187881 22.0477787523122757 Zr
    velocity 0.1914980768692261 -0.3703293444762476 0.2788392585702188
atom 18.2619182039282322 15.8668767088187881 22.0537714867732753 Zr
    velocity 0.2133270687230985 -0.0188153597150725 -0.1819382753069212
atom -2.2773272906477668 21.0816828966417873 22.0298005489292805 Zr
    velocity -0.2815083303224804 0.2459300535798135 0.9351680711529614
atom 2.8574840829962338 21.0816828966417873 22.0357932833902765 Zr
    velocity -0.1264652491466934 -0.2761804155037781 0.1662737253657950
atom 7.9922954566402344 21.0816828966417873 22.0417860178512761 Zr
    velocity 0.6143443910591091 0.1097066875812757 -0.1239584208737027
atom 13.1271068302842338 21.0816828966417873 22.0477787523122757 Zr
    velocity -0.3380851058222886 -0.1126398529032367 0.5936934476913648
atom 18.2619182039282322 21.0816828966417873 22.0537714867732753 Zr
    velocity 0.3397096335529334 -0.2732962262657344 -0.4283712991663353
atom 3.0201254965148823 4.9923480424732194 4.1378978663979105 Zr
    velocity 0.5462028008566776 -0.2172797832679230 0.1636149678494708
atom 8.1549368701588829 4.9923480424732194 4.1438906008589100 Zr
    velocity -0.0551066651052008 0.0233207114176438 0.2114069219614200
atom 13.2897482438028813 4.9923480424732194 4.1498833353199096 Zr
    velocity -0.3138660069308405 -0.3132943012943147 0.1664542132274733
atom 18.4245596174468815 4.9923480424732194 4.1558760697809101 Zr
    velocity -0.1651913184431755 0.4354690525099812 -0.4548655242513345
atom 23.5593709910908835 4.9923480424732194 4.1618688042419096 Zr
    velocity 0.0310348931596858 0.1337457183596469 0.1856425633264980
atom 3.0201254965148823 10.2071542302962204 4.1378978663979105 Zr
    velocity 0.0422118653314305 -0.1421311845761650 0.4515856669891626
atom 8.1549368701588829 10.2071542302962204 4.1438906008589100 Zr
    velocity -0.2905929848597055 -0.0901317068306366 -0.0872752713674537
atom 13.2897482438028813 10.2071542302962204 4.1498833353199096 Zr
    velocity -0.0650889450452514 -0.4331826215735317 0.4266723292945071
atom 18.4245596174468815 10.2071542302962204 4.1558760697809101 Zr
    velocity 0.0289207811991177 0.2920867573248472 0.5040808859845369
atom 23.5593709910908835 10.2071542302962204 4.1618688042419096 Zr
    velocity 0.0346710588786117 -0.2671686554705736 -0.1536676611342975
atom 3.0201254965148823 15.4219604181192178 4.1378978663979105 Zr
    velocity -0.2184926266859164 -0.0980270163914790 0.4329855340357408
atom 8.1549368701588829 15.4219604181192178 4.1438906008589100 Zr
    velocity 0.2680832275456725 -0.0923306765141479 -0.5080100184363622
atom 13.2897482438028813 15.4219604181192178 4.1498833353199096 Zr
    velocity 0.5200008188828398 0.0907425859877104 0.5090237679267473
atom 18.4245596174468815 15.4219604181192178 4.1558760697809101 Zr
    velocity -0.1262828757771966 0.0618769377652209 0.0936922021404177
atom 23.5593709910908835 15.4219604181192178 4.1618688042419096 Zr
    velocity -0.0397170440494636 0.0547943506435056 0.0516144355349824
atom 3.0201254965148823 20.6367666059422241 4.1378978663979105 Zr
    velocity 0.7046045737642525 0.4721086884012619 0.6251198250052489
atom 8.1549368701588829 20.6367666059422241 4.1438906008589100 Zr
    velocity 0.2874962184410533 -0.3110084699265575 -0.5352853022340859
atom 13.2897482438028813 20.6367666059422241 4.1498833353199096 Zr
    velocity -0.0071927413641761 0.3766124292043722 0.1106518854730052
atom 18.4245596174468815 20.6367666059422241 4.1558760697809101 Zr
    velocity -0.5201121194939936 -0.3890006958770398 0.1596845970687899
atom 23.5593709910908835 20.6367666059422241 4.1618688042419096 Zr
    velocity 0.0946606148674618 0.1245521910394962 -0.3147542531992278
atom 3.0201254965148823 25.8515727937652180 4.1378978663979105 Zr
    velocity -0.3671006376773014 -0.1044576551035863 -0.2010151081954236
atom 8.1549368701588829 25.8515727937652180 4.1438906008589100 Zr
    velocity 0.4363279757329579 -0.4156138094213036 0.2934044633131612
atom 13.2897482438028813 25.8515727937652180 4.1498833353199096 Zr
    velocity -0.1518281247651496 0.4528265965474141 -0.0821698612288439
atom 18.4245596174468815 25.8515727937652180 4.1558760697809101 Zr
    velocity 0.2304995155813588 -0.0574275393239778 0.0579410466254928
atom 23.5593709910908835 25.8515727937652180 4.1618688042419096 Zr
    velocity -0.0435757848414727 0.0785982501295000 -0.0430198586117911
atom 2.1417229239558817 4.9923480424732194 9.3702389879889125 Zr
    velocity 0.1201156883908554 0.0768606651231080 0.1573910508176976
atom 7.2765342975998824 4.9923480424732194 9.3762317224499139 Zr
    velocity -0.3260063780311988 0.1867913681586495 -0.2755734593747217
atom 12.4113456712438808 4.9923480424732194 9.3822244569109134 Zr
    velocity -0.2709470697655164 -0.1733244064959744 -0.0920625540186085
atom 17.5461570448878810 4.9923480424732194 9.3882171913719095 Zr
    velocity -0.7243447237266222 -0.4273800363179177 0.1048147705668367
atom 22.6809684185318829 4.9923480424732194 9.3942099258329126 Zr
    velocity 0.7999729921302050 0.4310877087547157 -0.0321890033596296
atom 2.1417229239558817 10.2071542302962204 9.3702389879889125 Zr
    velocity -0.2837433730528652 0.1142779112413574 -0.4481252802689745
atom 7.2765342975998824 10.2071542302962204 9.3762317224499139 Zr
    velocity 0.3442125385676294 -0.2741880799213975 0.0853452707768745
atom 12.4113456712438808 10.2071542302962204 9.3822244569109134 Zr
    velocity 0.8200795697386476 0.3312444256893193 -0.1725158872882475
atom 17.5461570448878810 10.2071542302962204 9.3882171913719095 Zr
    velocity 0.0389469279478136 -0.4789831203906019 -0.3166985163940057
atom 22.6809684185318829 10.2071542302962204 9.3942099258329126 Zr
    velocity -0.5250780556754988 0.2515251469917808 0.1021299675432735
atom 2.1417229239558817 15.4219604181192178 9.3702389879889125 Zr
    velocity 0.1868846227417396 -0.1703166558501583 -0.3834583338649751
atom 7.2765342975998824 15.4219604181192178 9.3762317224499139 Zr
    velocity -0.1590787134589921 0.0441323075089945 -0.2672857293143895
atom 12.4113456712438808 15.4219604181192178 9.3822244569109134 Zr
    velocity 0.3529666973429739 0.5486250097426770 -0.1006357176285905
atom 17.5461570448878810 15.4219604181192178 9.3882171913719095 Zr
    velocity 0.3428697402327487 0.1532760149002347 0.3796648709027318
atom 22.6809684185318829 15.4219604181192178 9.3942099258329126 Zr
    velocity 0.1617620379383269 0.1184400359974754 -0.0992597788760330
atom 2.1417229239558817 20.6367666059422241 9.3702389879889125 Zr
    velocity -0.2139117945622601 -0.0736622207740706 -0.2428624243202097
atom 7.2765342975998824 20.6367666059422241 9.3762317224499139 Zr
    velocity 0.2410416604893056 -0.0171223192784422 -0.1326169489254179
atom 12.4113456712438808 20.6367666059422241 9.3822244569109134 Zr
    velocity -0.2952446438867989 0.0173740762603369 -0.4734940993043597
atom 17.5461570448878810 20.6367666059422241 9.3882171913719095 Zr
    velocity -0.4466156720332290 -0.4582873798628612 0.1413766571413751
atom 22.6809684185318829 20.6367666059422241 9.3942099258329126 Zr
    velocity -0.2338296819115236 0.2101827897658807 0.3772468564157701
atom 2.1417229239558817 25.8515727937652180 9.3702389879889125 Zr
    velocity -0.0918981034247091 0.3361006899170104 0.0846899600045421
atom 7.2765342975998824 25.8515727937652180 9.3762317224499139 Zr
    velocity -0.0997477559333811 0.2829087429062930 -0.3150427735294226
atom 12.4113456712438808 25.8515727937652180 9.3822244569109134 Zr
    velocity 0.2556321798731867 0.5635035423411509 -0.0559483363431815
atom 17.5461570448878810 25.8515727937652180 9.3882171913719095 Zr
    velocity 0.2423147945903043 -0.1253924685821478 0.2274181930143145
atom 22.6809684185318829 25.8515727937652180 9.3942099258329126 Zr
    velocity -0.0636620132396205 -0.1621161275797448 -0.0395407544026646
atom 1.2633203513968823 4.9923480424732194 14.6025801095799110 Zr
    velocity -0.3708257709191780 0.5323396461794786 -0.2871131451784056
atom 6.3981317250408827 4.9923480424732194 14.6085728440409106 Zr
    velocity 0.4340528620503599 0.6759720330703178 -0.0485230125072213
atom 11.5329430986848820 4.9923480424732194 14.6145655785019084 Zr
    velocity -0.0989940825847759 0.1516220814052523 -0.0584251461046103
atom 16.6677544723288804 4.9923480424732194 14.6205583129629080 Zr
    velocity 0.0515579668281830 0.8564731658659032 0.6566681995577114
atom 21.8025658459728824 4.9923480424732194 14.6265510474239111 Zr
    velocity -0.2591406787967352 0.2573234971773210 -0.0806218951492878
atom 1.2633203513968823 10.2071542302962204 14.6025801095799110 Zr
    velocity 0.6016793885245526 0.1401838711231470 0.0416694700869897
atom 6.3981317250408827 10.2071542302962204 14.6085728440409106 Zr
    velocity 0.1974667215094058 0.2875025400761255 0.1247757499105040
atom 11.5329430986848820 10.2071542302962204 14.6145655785019084 Zr
    velocity 0.3127751729313150 0.2626335428674959 -0.2953933763266410
atom 16.6677544723288804 10.2071542302962204 14.6205583129629080 Zr
    velocity 0.2202220959357204 0.2046469812749072 -0.5630248030276152
atom 21.8025658459728824 10.2071542302962204 14.6265510474239111 Zr
    velocity -0.5531172095303626 -0.3013353942989557 -0.3945404994066399
atom 1.2633203513968823 15.4219604181192178 14.6025801095799110 Zr
    velocity 0.0949161933892272 0.1526998752360789 -0.3833470768851892
atom 6.3981317250408827 15.4219604181192178 14.6085728440409106 Zr
    velocity -0.1184827980645547 0.1128513676665287 0.5199116307935921
atom 11.5329430986848820 15.4219604181192178 14.6145655785019084 Zr
    velocity -0.2277383942227169 0.0019053043756317 0.2941237446807136
atom 16.6677544723288804 15.4219604181192178 14.6205583129629080 Zr
    velocity -0.2078207286144584 0.3867478002729576 -0.0874660910740740
atom 21.8025658459728824 15.4219604181192178 14.6265510474239111 Zr
    velocity 0.0994279710549518 0.0370818120551557 -0.0293946283385332
atom 1.2633203513968823 20.6367666059422241 14.6025801095799110 Zr
    velocity 0.0410541215122544 -0.2412054547238533 -0.3013571202208931
atom 6.3981317250408827 20.6367666059422241 14.6085728440409106 Zr
    velocity 0.1371854276185903 -0.1515517234524545 -0.2069662192492354
atom 11.5329430986848820 20.6367666059422241 14.6145655785019084 Zr
    velocity -0.1717011752009621 -0.2888439378185392 -0.0444912431288035
atom 16.6677544723288804 20.6367666059422241 14.6205583129629080 Zr
    velocity -0.2281707003088354 0.2774988880957467 -0.3360302403886671
atom 21.8025658459728824 20.6367666059422241 14.6265510474239111 Zr
    velocity -0.1478205180949055 -0.5480664619750484 -0.3617810554407112
atom 1.2633203513968823 25.8515727937652180 14.6025801095799110 Zr
    velocity 0.3898788185798281 -0.1145388440613389 -0.1373912078461624
atom 6.3981317250408827 25.8515727937652180 14.6085728440409106 Zr
    velocity 0.0148233529098075 -0.3402423672856045 0.0066080494775209
atom 11.5329430986848820 25.8515727937652180 14.6145655785019084 Zr
    velocity 0.1922898352462054 -0.0494722207480506 -0.0708162000868928
atom 16.6677544723288804 25.8515727937652180 14.6205583129629080 Zr
    velocity 0.1732072258335058 0.1432944829858775 -0.0910022922736902
atom 21.8025658459728824 25.8515727937652180 14.6265510474239111 Zr
    velocity -0.1270902855214334 -0.1068150370221163 0.1913525909628746
atom 0.3849177788378819 4.9923480424732194 19.8349212311709131 Zr
    velocity 0.2310246799264100 0.2480700071204251 -0.1680231603771387
atom 5.5197291524818821 4.9923480424732194 19.8409139656319127 Zr
    velocity -0.4185755402449746 -0.4972469273527128 -0.5118401769951219
atom 10.6545405261258850 4.9923480424732194 19.8469067000929122 Zr
    velocity 0.2942818250865747 -0.0106988930256005 -0.0636900207465758
atom 15.7893518997698816 4.9923480424732194 19.8528994345539083 Zr
    velocity -0.1598229238580072 0.1952446606081726 -0.2318938201175149
atom 20.9241632734138818 4.9923480424732194 19.8588921690149078 Zr
    velocity 0.5358827859724539 -0.2711559323628246 0.1361797402596607
atom 0.3849177788378819 10.2071542302962204 19.8349212311709131 Zr
    velocity -0.2473714785013006 -0.1739133076652254 -0.2365778657195032
atom 5.5197291524818821 10.2071542302962204 19.8409139656319127 Zr
    velocity -0.2029186889669131 0.3268139759719489 0.3808754659719978
atom 10.6545405261258850 10.2071542302962204 19.8469067000929122 Zr
    velocity 0.0901762399851271 0.3668754133719616 0.1088987145764222
atom 15.7893518997698816 10.2071542302962204 19.8528994345539083 Zr
    velocity -0.4234271748750817 0.8396882174633759 -0.0381092968561721
atom 20.9241632734138818 10.2071542302962204 19.8588921690149078 Zr
    velocity 0.0258734700628918 -0.4750226502693050 0.0330814850947582
atom 0.3849177788378819 15.4219604181192178 19.8349212311709131 Zr
    velocity 0.0930030978976069 0.0608361066480644 -0.0782587929654928
atom 5.5197291524818821 15.4219604181192178 19.8409139656319127 Zr