#=======================================================
# FHI-aims file: 300_new_geometry.in.primitive.supercell_4116.0010K
# Created using the Atomic Simulation Environment (ASE)
# Sat Nov 26 17:17:43 2022

# Additional information:
#  created from MB distrubtion
#  T = 10.0 K
#  quantum:             False
#  deterministic:       False
#  plus_minus:          False
#  gauge_eigenvectors:  False
#  Random seed:         1673687356
#  Sample number:       1
#=======================================================
lattice_vector 36.0290000000000035 0.0000000000000000 0.0000000000000000 
lattice_vector 0.0000000000000000 36.4629999999999939 0.0000000000000000 
lattice_vector -6.0079452571596512 0.0000000000000000 36.6883349688558766 
atom 1.2438815868856612 0.2222104594860824 1.1006363299083175 Zr
    velocity 0.3488410285963678 -0.3027464989965378 0.2739172896509642
atom 6.3908815868856594 0.2222104594860824 1.1006363299083175 Zr
    velocity 0.0949408965309380 -0.2992630929991879 -0.0974886445331456
atom 11.5378815868856570 0.2222104594860824 1.1006363299083175 Zr
    velocity -0.3033349378622764 -0.1493167412901090 -0.2940447493747323
atom 16.6848815868856555 0.2222104594860824 1.1006363299083175 Zr
    velocity 0.2577316545030244 -0.2799023741760475 0.3830408088877636
atom 21.8318815868856539 0.2222104594860824 1.1006363299083175 Zr
    velocity -0.0509693421134578 -0.3566233121912165 0.2595731083882575
atom 26.9788815868856560 0.2222104594860824 1.1006363299083175 Zr
    velocity -0.3624277770330668 0.2186709071980431 0.2832801329447419
atom 32.1258815868856615 0.2222104594860824 1.1006363299083175 Zr
    velocity 0.3955132871587888 0.3220715257276637 -0.1197173776497517
atom 1.2438815868856612 5.4312104594860831 1.1006363299083175 Zr
    velocity 0.2032677756421338 0.5990001720278383 -0.2479801286925176
atom 6.3908815868856594 5.4312104594860831 1.1006363299083175 Zr
    velocity 0.0371261970105611 0.2566858414771238 0.0701885867836444
atom 11.5378815868856570 5.4312104594860831 1.1006363299083175 Zr
    velocity -0.1956156634086713 -0.1968120256939115 0.1915743677589696
atom 16.6848815868856555 5.4312104594860831 1.1006363299083175 Zr
    velocity -0.0628053184079695 0.6510915949895765 -0.3473895854331507
atom 21.8318815868856539 5.4312104594860831 1.1006363299083175 Zr
    velocity -0.1357731511549771 0.2745616125538431 -0.3453482646862369
atom 26.9788815868856560 5.4312104594860831 1.1006363299083175 Zr
    velocity 0.2404083800954594 -0.3704076251988156 0.5833698387258826
atom 32.1258815868856615 5.4312104594860831 1.1006363299083175 Zr
    velocity 0.0102167532011266 -0.5177134461968511 0.1216111691218024
atom 1.2438815868856612 10.6402104594860827 1.1006363299083175 Zr
    velocity -0.1597430364408771 0.3053836032419965 0.2805222974090002
atom 6.3908815868856594 10.6402104594860827 1.1006363299083175 Zr
    velocity 0.2475483611072666 0.2689526280368625 -0.6376161730380200
atom 11.5378815868856570 10.6402104594860827 1.1006363299083175 Zr
    velocity 0.0131740785888660 -0.1497709474505199 -0.4880203491790032
atom 16.6848815868856555 10.6402104594860827 1.1006363299083175 Zr
    velocity 0.0077507305984453 -0.0267758804338987 0.0806667200856311
atom 21.8318815868856539 10.6402104594860827 1.1006363299083175 Zr
    velocity 0.5791430852971267 -0.0997660856408706 -0.1544715085431367
atom 26.9788815868856560 10.6402104594860827 1.1006363299083175 Zr
    velocity -0.2846701140332426 0.0235371453663332 -0.3366339530800385
atom 32.1258815868856615 10.6402104594860827 1.1006363299083175 Zr
    velocity 0.1105098798102448 -0.0532847359263092 0.3051286213568375
atom 1.2438815868856612 15.8492104594860805 1.1006363299083175 Zr
    velocity 0.3192059529999570 0.2613505076187422 0.1631519268222892
atom 6.3908815868856594 15.8492104594860805 1.1006363299083175 Zr
    velocity 0.0972537606640389 -0.3223601219230690 -0.3108944070206219
atom 11.5378815868856570 15.8492104594860805 1.1006363299083175 Zr
    velocity 0.3849186994840070 0.1177828662248081 0.0454293377351302
atom 16.6848815868856555 15.8492104594860805 1.1006363299083175 Zr
    velocity 0.1859079396340216 -0.2598176938077601 -0.2941927979908746
atom 21.8318815868856539 15.8492104594860805 1.1006363299083175 Zr
    velocity -0.1477009710515466 -0.4020753036582664 0.4665557096126275
atom 26.9788815868856560 15.8492104594860805 1.1006363299083175 Zr
    velocity 0.0712100360240611 0.5728335528060468 0.1426476756286947
atom 32.1258815868856615 15.8492104594860805 1.1006363299083175 Zr
    velocity 0.1013623802375963 0.2035429164632549 -0.0421090120591913
atom 1.2438815868856612 21.0582104594860802 1.1006363299083175 Zr
    velocity -0.4690205334501176 -0.0359248517686603 -0.4487678537190354
atom 6.3908815868856594 21.0582104594860802 1.1006363299083175 Zr
    velocity 0.1017516581198348 0.2219307239965936 0.0992835995433848
atom 11.5378815868856570 21.0582104594860802 1.1006363299083175 Zr
    velocity 0.0653804474280011 -0.2009621783375964 0.2729724719176136
atom 16.6848815868856555 21.0582104594860802 1.1006363299083175 Zr
    velocity 0.4237669086082158 -0.5968424704630915 0.0687341605493532
atom 21.8318815868856539 21.0582104594860802 1.1006363299083175 Zr
    velocity 0.1445862298707235 -0.0332820827995450 0.1117378247590734
atom 26.9788815868856560 21.0582104594860802 1.1006363299083175 Zr
    velocity -0.1541339611633649 0.1393638173311724 0.3146779822547485
atom 32.1258815868856615 21.0582104594860802 1.1006363299083175 Zr
    velocity -0.0756760333073430 0.0020096988395808 0.0114188680946633
atom 1.2438815868856612 26.2672104594860798 1.1006363299083175 Zr
    velocity -0.2536553079376722 0.3917945823909418 0.5740141110620761
atom 6.3908815868856594 26.2672104594860798 1.1006363299083175 Zr
    velocity 0.0057780271429702 -0.2401576185929437 -0.0673387611595460
atom 11.5378815868856570 26.2672104594860798 1.1006363299083175 Zr
    velocity -0.2652042149851832 0.2215357094820996 -0.6831896156451274
atom 16.6848815868856555 26.2672104594860798 1.1006363299083175 Zr
    velocity 0.3955011146423174 0.3138016366735504 -0.0826972449051042
atom 21.8318815868856539 26.2672104594860798 1.1006363299083175 Zr
    velocity -0.1340988250155143 -0.1466895995253303 -0.3813929705452745
atom 26.9788815868856560 26.2672104594860798 1.1006363299083175 Zr
    velocity 0.3756226166529895 -0.1320075802920419 0.5108266610140777
atom 32.1258815868856615 26.2672104594860798 1.1006363299083175 Zr
    velocity 0.0321398101608439 -0.1685122382330621 -0.1858917381674511
atom 1.2438815868856612 31.4762104594860759 1.1006363299083175 Zr
    velocity -0.4349785546822479 0.2319506637312569 0.5145117752064454
atom 6.3908815868856594 31.4762104594860759 1.1006363299083175 Zr
    velocity -0.2427381251858004 -0.8508081039880887 -0.7097694925753258
atom 11.5378815868856570 31.4762104594860759 1.1006363299083175 Zr
    velocity 0.2322410973999557 0.0767092062172424 -0.6733119771912387
atom 16.6848815868856555 31.4762104594860759 1.1006363299083175 Zr
    velocity 0.0550948356666520 -0.2948863172839874 -0.2852781922736853
atom 21.8318815868856539 31.4762104594860759 1.1006363299083175 Zr
    velocity -0.4306155981225344 0.0811540643612190 -0.2043837857396092
atom 26.9788815868856560 31.4762104594860759 1.1006363299083175 Zr
    velocity 0.0185395313330105 -0.2363551238684286 0.2038279968024276
atom 32.1258815868856615 31.4762104594860759 1.1006363299083175 Zr
    velocity 0.1286589585492258 -0.2257625399028088 -0.3584657140446069
atom 0.3856036930057113 0.2222104594860824 6.3418270397448691 Zr
    velocity -0.1982179515646418 0.1129041549859283 -0.1252934491377939
atom 5.5326036930057096 0.2222104594860824 6.3418270397448691 Zr
    velocity -0.0114682217141227 0.0581359178745137 0.2980782435614353
atom 10.6796036930057081 0.2222104594860824 6.3418270397448691 Zr
    velocity 0.3263670874851564 -0.2094765179604532 0.0813939389605164
atom 15.8266036930057048 0.2222104594860824 6.3418270397448691 Zr
    velocity 0.1464414601366930 0.5028356613103375 -0.4684046378647451
atom 20.9736036930057033 0.2222104594860824 6.3418270397448691 Zr
    velocity -0.4900133393642828 -0.2930331643530768 -0.0768023806897478
atom 26.1206036930057053 0.2222104594860824 6.3418270397448691 Zr
    velocity 0.3450130079289503 0.1558255050691644 0.3992490163128007
atom 31.2676036930057109 0.2222104594860824 6.3418270397448691 Zr
    velocity -0.2441289287916901 -0.1416168466729980 -0.0115716390948024
atom 0.3856036930057113 5.4312104594860831 6.3418270397448691 Zr
    velocity -0.1198301915133661 0.1006506544436078 -0.1796043702753044
atom 5.5326036930057096 5.4312104594860831 6.3418270397448691 Zr
    velocity 0.4618105942587792 0.3366459448911200 -0.7010865285554967
atom 10.6796036930057081 5.4312104594860831 6.3418270397448691 Zr
    velocity 0.5468616103014943 -0.0072040081277398 0.5189862557821842
atom 15.8266036930057048 5.4312104594860831 6.3418270397448691 Zr
    velocity -0.2348660586212557 0.2658251779249983 0.1596517681485036
atom 20.9736036930057033 5.4312104594860831 6.3418270397448691 Zr
    velocity -0.2686806940959608 -0.2990657582855641 0.5625388973427551
atom 26.1206036930057053 5.4312104594860831 6.3418270397448691 Zr
    velocity 0.1262099674907532 -0.2638464889668700 0.2975964009396999
atom 31.2676036930057109 5.4312104594860831 6.3418270397448691 Zr
    velocity 0.3745993886051184 -0.1608878997304772 0.2156481194186645
atom 0.3856036930057113 10.6402104594860827 6.3418270397448691 Zr
    velocity 0.3639088648450896 -0.7201618904704128 -0.3682043280318851
atom 5.5326036930057096 10.6402104594860827 6.3418270397448691 Zr
    velocity -0.0837764949675818 0.8184621596973929 0.6020601128494797
atom 10.6796036930057081 10.6402104594860827 6.3418270397448691 Zr
    velocity 0.2498458552739657 0.3047408909339175 -0.0931131269717753
atom 15.8266036930057048 10.6402104594860827 6.3418270397448691 Zr
    velocity -0.1952311191708990 -0.2596942964765757 -0.1484306801754704
atom 20.9736036930057033 10.6402104594860827 6.3418270397448691 Zr
    velocity 0.0548627606368952 0.2735093559559460 -0.4095948439850093
atom 26.1206036930057053 10.6402104594860827 6.3418270397448691 Zr
    velocity -0.4559227297256629 -0.4942437725374320 -0.3260335529589048
atom 31.2676036930057109 10.6402104594860827 6.3418270397448691 Zr
    velocity 0.1808487808399710 0.0496750117989715 0.0499466388561163
atom 0.3856036930057113 15.8492104594860805 6.3418270397448691 Zr
    velocity 0.0733959250120379 0.7093915544898978 -0.3869765644590377
atom 5.5326036930057096 15.8492104594860805 6.3418270397448691 Zr
    velocity -0.0587910827661294 0.0250715236448780 -0.3477901887697235
atom 10.6796036930057081 15.8492104594860805 6.3418270397448691 Zr
    velocity -0.3466083371770204 0.1418412210833191 -0.1451748548301376
atom 15.8266036930057048 15.8492104594860805 6.3418270397448691 Zr
    velocity 0.0241000777197140 -0.3464543971671115 0.0236093511793863
atom 20.9736036930057033 15.8492104594860805 6.3418270397448691 Zr
    velocity 0.3858818539246307 -0.2563990155527966 -0.0876567584787369
atom 26.1206036930057053 15.8492104594860805 6.3418270397448691 Zr
    velocity -0.4435637995853822 0.1736311537468776 -0.2266131477003350
atom 31.2676036930057109 15.8492104594860805 6.3418270397448691 Zr
    velocity -0.2423469340759739 -0.3060659882397574 -0.0256399711208491
atom 0.3856036930057113 21.0582104594860802 6.3418270397448691 Zr
    velocity 0.3110910031374534 0.1162810855087379 -0.7770517014508711
atom 5.5326036930057096 21.0582104594860802 6.3418270397448691 Zr
    velocity -0.2204824080527678 0.8334317852266324 0.2137912443603596
atom 10.6796036930057081 21.0582104594860802 6.3418270397448691 Zr
    velocity -0.0569183150471177 0.1565857108858766 0.1663905006192856
atom 15.8266036930057048 21.0582104594860802 6.3418270397448691 Zr
    velocity 0.2747626278597619 0.1062525669485254 -0.4142303352427727
atom 20.9736036930057033 21.0582104594860802 6.3418270397448691 Zr
    velocity 0.0311997545559930 0.1089813662265481 0.1495522690293411
atom 26.1206036930057053 21.0582104594860802 6.3418270397448691 Zr
    velocity -0.6100372368307269 0.0296745963235031 0.0638754050855958
atom 31.2676036930057109 21.0582104594860802 6.3418270397448691 Zr
    velocity 0.2271739510091088 0.5782539148010183 0.0320259030912343
atom 0.3856036930057113 26.2672104594860798 6.3418270397448691 Zr
    velocity -0.1434540404603475 0.2686143051241671 -0.1242760499829220
atom 5.5326036930057096 26.2672104594860798 6.3418270397448691 Zr
    velocity 0.2804877361685928 0.3510233614484430 0.1766985085049861
atom 10.6796036930057081 26.2672104594860798 6.3418270397448691 Zr
    velocity -0.2525489335416021 0.0502356957777366 0.0033025526701079
atom 15.8266036930057048 26.2672104594860798 6.3418270397448691 Zr
    velocity 0.3325799756090613 0.3380225620541497 -0.2797955195044511
atom 20.9736036930057033 26.2672104594860798 6.3418270397448691 Zr
    velocity 0.5428910524068953 -0.3545058569886085 -0.2737000938190401
atom 26.1206036930057053 26.2672104594860798 6.3418270397448691 Zr
    velocity -0.2616057483076250 -0.2953274553006559 -0.1122042425658740
atom 31.2676036930057109 26.2672104594860798 6.3418270397448691 Zr
    velocity 0.2714195282058762 -0.3247657380807719 -0.5104218780120119
atom 0.3856036930057113 31.4762104594860759 6.3418270397448691 Zr
    velocity 0.1016867103225905 0.4573991969312441 -0.5924445282814013
atom 5.5326036930057096 31.4762104594860759 6.3418270397448691 Zr
    velocity 0.0039263370936932 0.3804502948892625 0.3764161202675579
atom 10.6796036930057081 31.4762104594860759 6.3418270397448691 Zr
    velocity 0.1175691204885794 -0.0214440442245135 0.4016296095063840
atom 15.8266036930057048 31.4762104594860759 6.3418270397448691 Zr
    velocity 0.2389487692052939 -0.2444461008888635 -0.2333283279256364
atom 20.9736036930057033 31.4762104594860759 6.3418270397448691 Zr
    velocity 0.6381501355009566 0.0245430258597215 0.1720191815004986
atom 26.1206036930057053 31.4762104594860759 6.3418270397448691 Zr
    velocity -0.2705534408234071 0.2631729659685113 -0.5203143092181429
atom 31.2676036930057109 31.4762104594860759 6.3418270397448691 Zr
    velocity -0.5640475613593602 -0.2645272063567947 -0.1936128490144738
atom -0.4726742008742385 0.2222104594860824 11.5830177495814208 Zr
    velocity 0.0878573878578570 -0.0784732505834671 0.2755482196387430
atom 4.6743257991257599 0.2222104594860824 11.5830177495814208 Zr
    velocity 0.0628883011462915 0.0191861039311105 -0.2421200451367684
atom 9.8213257991257574 0.2222104594860824 11.5830177495814208 Zr
    velocity -0.2913309393939959 -0.2131050807161424 -0.3434296344300080
atom 14.9683257991257541 0.2222104594860824 11.5830177495814208 Zr
    velocity -0.4171987375032987 -0.5276233762906114 -0.4722005595896306
atom 20.1153257991257526 0.2222104594860824 11.5830177495814208 Zr
    velocity -0.0726595283220148 -0.5489588038546728 -0.0327270514685590
atom 25.2623257991257546 0.2222104594860824 11.5830177495814208 Zr
    velocity 0.1932687002068283 0.2810397032299302 -0.2705701431662559
atom 30.4093257991257602 0.2222104594860824 11.5830177495814208 Zr
    velocity 0.4263890249197076 -0.1043789231546227 0.2693687839250405
atom -0.4726742008742385 5.4312104594860831 11.5830177495814208 Zr
    velocity -0.0663541591661951 0.1443366837032583 0.4851346740342115
atom 4.6743257991257599 5.4312104594860831 11.5830177495814208 Zr
    velocity -0.6506469457255164 -0.0411510905630821 -0.2125471926565386
atom 9.8213257991257574 5.4312104594860831 11.5830177495814208 Zr
    velocity -0.0612540902724556 0.2174436015229391 -0.2572154682208366
atom 14.9683257991257541 5.4312104594860831 11.5830177495814208 Zr
    velocity -0.3603080999905079 -0.0203402648738904 -0.3332538508393727
atom 20.1153257991257526 5.4312104594860831 11.5830177495814208 Zr
    velocity 0.0989919942082513 0.3953927914243832 0.5951087534020340
atom 25.2623257991257546 5.4312104594860831 11.5830177495814208 Zr
    velocity 0.2600401665413274 0.3020196662154004 -0.1869253967788342
atom 30.4093257991257602 5.4312104594860831 11.5830177495814208 Zr
    velocity -0.2721354280509578 -0.2507981360867980 -0.4087331914691007
atom -0.4726742008742385 10.6402104594860827 11.5830177495814208 Zr
    velocity 0.1595163518792999 0.0554742487278667 0.3947272982658871
atom 4.6743257991257599 10.6402104594860827 11.5830177495814208 Zr
    velocity 0.2614515210159382 -0.1650708962453966 0.1690150503401380
atom 9.8213257991257574 10.6402104594860827 11.5830177495814208 Zr
    velocity 0.0177763137862806 0.1492275278689589 0.2544818651329550
atom 14.9683257991257541 10.6402104594860827 11.5830177495814208 Zr
    velocity -0.0536558612165211 0.0278331188170799 0.2618382512963673
atom 20.1153257991257526 10.6402104594860827 11.5830177495814208 Zr
    velocity 0.0847573114015181 -0.3750808548207550 -0.0584332172519724
atom 25.2623257991257546 10.6402104594860827 11.5830177495814208 Zr
    velocity -0.2921631997058011 -0.2504403157469671 0.3462288133943885
atom 30.4093257991257602 10.6402104594860827 11.5830177495814208 Zr
    velocity -0.4520008416661106 -0.0235034759084987 0.2051149181432562
atom -0.4726742008742385 15.8492104594860805 11.5830177495814208 Zr
    velocity 0.1863123250753031 0.3483786660142912 0.1307645917445881
atom 4.6743257991257599 15.8492104594860805 11.5830177495814208 Zr
    velocity 0.2368524084317969 -0.4118205680952751 -0.2016439618102688
atom 9.8213257991257574 15.8492104594860805 11.5830177495814208 Zr
    velocity 0.1777355238573994 0.3087795750133258 -0.2374636376951265
atom 14.9683257991257541 15.8492104594860805 11.5830177495814208 Zr
    velocity -0.1418111318913811 -0.6498284060135141 0.1071076082797597
atom 20.1153257991257526 15.8492104594860805 11.5830177495814208 Zr
    velocity -0.4292573113990996 -0.0723171109679271 -0.3286974521864472
atom 25.2623257991257546 15.8492104594860805 11.5830177495814208 Zr
    velocity 0.2780091079662737 -0.5378498532121602 -0.3922207004403040
atom 30.4093257991257602 15.8492104594860805 11.5830177495814208 Zr
    velocity 0.4647478412281943 -0.2561357319492548 -0.3520884907954103
atom -0.4726742008742385 21.0582104594860802 11.5830177495814208 Zr
    velocity -0.4143820074261996 0.4902965268218996 -0.0667118368475857
atom 4.6743257991257599 21.0582104594860802 11.5830177495814208 Zr
    velocity 0.2104542784368724 -0.4290503976313694 0.3171590033850413
atom 9.8213257991257574 21.0582104594860802 11.5830177495814208 Zr
    velocity 0.3294753856182933 0.2719929998590240 -0.0797480940620480
atom 14.9683257991257541 21.0582104594860802 11.5830177495814208 Zr
    velocity -0.1630468575219009 0.0969008717577124 0.2638747457151889
atom 20.1153257991257526 21.0582104594860802 11.5830177495814208 Zr
    velocity -0.4452927704102867 0.0692348489950835 -0.0011622623854305
atom 25.2623257991257546 21.0582104594860802 11.5830177495814208 Zr
    velocity -0.2880058025983764 -0.0326992518408883 0.0854038712991212
atom 30.4093257991257602 21.0582104594860802 11.5830177495814208 Zr
    velocity 0.2384939774195991 0.1301923509561104 0.5141846427911513
atom -0.4726742008742385 26.2672104594860798 11.5830177495814208 Zr
    velocity -0.1741220502842563 -0.0039311780160783 0.1318613370841032
atom 4.6743257991257599 26.2672104594860798 11.5830177495814208 Zr
    velocity -0.0872534216105720 -0.6715147900674536 -0.2592505684171363
atom 9.8213257991257574 26.2672104594860798 11.5830177495814208 Zr
    velocity 0.4939167105370529 -0.3474571706532402 -0.0454012407223722
atom 14.9683257991257541 26.2672104594860798 11.5830177495814208 Zr
    velocity -0.2360698302038701 -0.0999681490771329 0.0046626959602182
atom 20.1153257991257526 26.2672104594860798 11.5830177495814208 Zr
    velocity 0.3578435199010797 0.1580879876063106 0.0241280391072759
atom 25.2623257991257546 26.2672104594860798 11.5830177495814208 Zr
    velocity 0.4671915139528098 -0.3087001328666353 -0.0339812240610870
atom 30.4093257991257602 26.2672104594860798 11.5830177495814208 Zr
    velocity 0.3523894323933590 0.6679233414151651 -0.0889366138761782
atom -0.4726742008742385 31.4762104594860759 11.5830177495814208 Zr
    velocity -0.4635138355082642 -0.3846459814641375 0.2844621748137547
atom 4.6743257991257599 31.4762104594860759 11.5830177495814208 Zr
    velocity -0.3175289201127589 -0.3111259928359667 0.0391566534673420
atom 9.8213257991257574 31.4762104594860759 11.5830177495814208 Zr
    velocity 0.2544752756429222 0.5391021722576914 -0.1254403055263513
atom 14.9683257991257541 31.4762104594860759 11.5830177495814208 Zr
    velocity -0.1582881610725669 -0.1013562061540959 0.0646109022699437
atom 20.1153257991257526 31.4762104594860759 11.5830177495814208 Zr
    velocity -0.0697872470053783 -0.1737129095733999 -0.1041048872280038
atom 25.2623257991257546 31.4762104594860759 11.5830177495814208 Zr
    velocity -0.0903920723397326 -0.4555992284644356 0.0014351859804857
atom 30.4093257991257602 31.4762104594860759 11.5830177495814208 Zr
    velocity -0.2977963867210714 -0.4535722895437194 -0.5933464787052360
atom -1.3309520947541917 0.2222104594860824 16.8242084594179708 Zr
    velocity 0.6025075025729933 -0.0617935692044681 0.5194996825224107
atom 3.8160479052458101 0.2222104594860824 16.8242084594179708 Zr
    velocity 0.0067138234611784 0.4238395071220604 -0.4821505574981603
atom 8.9630479052458085 0.2222104594860824 16.8242084594179708 Zr
    velocity -0.2031600992572782 0.3812102944330545 -0.1418503872350149
atom 14.1100479052458052 0.2222104594860824 16.8242084594179708 Zr
    velocity 0.0423791153110748 0.0357230660629574 -0.2089918887559162
atom 19.2570479052458019 0.2222104594860824 16.8242084594179708 Zr
    velocity -0.8433143743465922 -0.4501310106320631 0.0480518315660143
atom 24.4040479052458039 0.2222104594860824 16.8242084594179708 Zr
    velocity -0.2867944683867261 -0.1383750514544070 -0.6703443607386630
atom 29.5510479052458095 0.2222104594860824 16.8242084594179708 Zr
    velocity -0.1693635284811260 -0.3449598707955072 0.0703202460645217
atom -1.3309520947541917 5.4312104594860831 16.8242084594179708 Zr
    velocity 0.1957980117624621 0.2509019343952283 0.7692686577450807
atom 3.8160479052458101 5.4312104594860831 16.8242084594179708 Zr
    velocity 0.2548443197806670 -0.3169395872254280 -0.0435117563167962
atom 8.9630479052458085 5.4312104594860831 16.8242084594179708 Zr
    velocity -0.5366368961320944 0.4785229722236538 0.2648771403882888
atom 14.1100479052458052 5.4312104594860831 16.8242084594179708 Zr
    velocity 0.3691015842767723 -0.1557731006485354 0.2403175792138890
atom 19.2570479052458019 5.4312104594860831 16.8242084594179708 Zr
    velocity -0.2228593686927110 -0.0517165444923336 -0.4360589847804470
atom 24.4040479052458039 5.4312104594860831 16.8242084594179708 Zr
    velocity -0.0867426855218810 0.5497216861022115 0.1965330307878702
atom 29.5510479052458095 5.4312104594860831 16.8242084594179708 Zr
    velocity 0.4755262075669437 -0.1604024608837815 0.5053646176262537
atom -1.3309520947541917 10.6402104594860827 16.8242084594179708 Zr
    velocity -0.0386868792061648 0.2382764027681021 -0.2834889685385845
atom 3.8160479052458101 10.6402104594860827 16.8242084594179708 Zr
    velocity 0.0282307205232911 -0.1183280429832573 -0.2398361083006738
atom 8.9630479052458085 10.6402104594860827 16.8242084594179708 Zr
    velocity -0.4411720116294304 0.9471741721903905 -0.0471403344530395
atom 14.1100479052458052 10.6402104594860827 16.8242084594179708 Zr
    velocity 0.1430505044194454 0.1879988784215586 0.2463378114977306
atom 19.2570479052458019 10.6402104594860827 16.8242084594179708 Zr
    velocity -0.1190693748674589 0.0556241826224077 -0.3195902626029787
atom 24.4040479052458039 10.6402104594860827 16.8242084594179708 Zr
    velocity 0.2129720605676469 0.5103606243828456 0.1672988960007323
atom 29.5510479052458095 10.6402104594860827 16.8242084594179708 Zr
    velocity -0.3152603780790751 -0.3660711451334439 -0.0147505134313444
atom -1.3309520947541917 15.8492104594860805 16.8242084594179708 Zr
    velocity -0.2386226563626563 0.2534036459218812 -0.2450439503850708
atom 3.8160479052458101 15.8492104594860805 16.8242084594179708 Zr
    velocity -0.1688908641296913 0.1532938574377420 -0.3924668091378641
atom 8.9630479052458085 15.8492104594860805 16.8242084594179708 Zr
    velocity 0.7485246782073466 -0.0371593100591640 -0.6239564814796271
atom 14.1100479052458052 15.8492104594860805 16.8242084594179708 Zr
    velocity -0.1031519906786450 0.0755112863837079 0.2799203192141297
atom 19.2570479052458019 15.8492104594860805 16.8242084594179708 Zr
    velocity -0.5644241917425860 0.4310080498290430 0.1950802052552125
atom 24.4040479052458039 15.8492104594860805 16.8242084594179708 Zr
    velocity -0.0033237544691274 0.3468239402857115 0.2976768401221835
atom 29.5510479052458095 15.8492104594860805 16.8242084594179708 Zr
    velocity -0.0758542495490553 0.3958198109661953 -0.0493838818915171
atom -1.3309520947541917 21.0582104594860802 16.8242084594179708 Zr
    velocity 0.2089848259484567 -0.0867296838603977 0.2735078189553480
atom 3.8160479052458101 21.0582104594860802 16.8242084594179708 Zr
    velocity 0.0032363759925714 -0.0565176366896265 0.3321828567246261
atom 8.9630479052458085 21.0582104594860802 16.8242084594179708 Zr
    velocity -0.6021686948360480 -0.1885533482690457 0.3253022251829814
atom 14.1100479052458052 21.0582104594860802 16.8242084594179708 Zr
    velocity -0.0678035888559996 -0.1645219091033946 -0.0699361637657389
atom 19.2570479052458019 21.0582104594860802 16.8242084594179708 Zr
    velocity -0.1608063654246713 -0.0915657012160256 -0.1219412631008753
atom 24.4040479052458039 21.0582104594860802 16.8242084594179708 Zr
    velocity -0.1570198533787693 -0.4720669251757916 0.3224758513905631
atom 29.5510479052458095 21.0582104594860802 16.8242084594179708 Zr
    velocity -0.4025344840328547 0.3662437543428237 -0.0098066724970255
atom -1.3309520947541917 26.2672104594860798 16.8242084594179708 Zr
    velocity -0.1705150842393155 0.2272874796472542 0.4385946012296914
atom 3.8160479052458101 26.2672104594860798 16.8242084594179708 Zr
    velocity 0.2398641443102125 0.4511695683240970 0.0064702690763721
atom 8.9630479052458085 26.2672104594860798 16.8242084594179708 Zr
    velocity 0.0802792976198885 0.1978994533893356 0.2360992011731510
atom 14.1100479052458052 26.2672104594860798 16.8242084594179708 Zr
    velocity -0.0778523682992290 -0.1304425862882901 -0.1105517368773980
atom 19.2570479052458019 26.2672104594860798 16.8242084594179708 Zr
    velocity -0.2777276497842662 0.3271581411863257 -0.3204837116322205
atom 24.4040479052458039 26.2672104594860798 16.8242084594179708 Zr
    velocity -0.3026453307020721 0.2553747627025659 0.1336040535780910
atom 29.5510479052458095 26.2672104594860798 16.8242084594179708 Zr
    velocity -0.5136376814818788 -0.4456367740753673 0.2745963000233648
atom -1.3309520947541917 31.4762104594860759 16.8242084594179708 Zr
    velocity -0.3572494206843684 0.0629552586816248 -0.0810133151902851
atom 3.8160479052458101 31.4762104594860759 16.8242084594179708 Zr
    velocity 0.5009079469016352 -0.3590145190786925 -0.1073863772183548
atom 8.9630479052458085 31.4762104594860759 16.8242084594179708 Zr
    velocity 0.0442151589200598 0.0715581502296501 0.3039989210111606
atom 14.1100479052458052 31.4762104594860759 16.8242084594179708 Zr
    velocity 0.0147080421676076 0.2135832824492468 -0.3858280138796439
atom 19.2570479052458019 31.4762104594860759 16.8242084594179708 Zr
    velocity -0.1615055193008939 -0.0198231015875016 -0.2804835353394619
atom 24.4040479052458039 31.4762104594860759 16.8242084594179708 Zr
    velocity 0.2086621704934040 -0.2892718512167045 -0.3866339057168502
atom 29.5510479052458095 31.4762104594860759 16.8242084594179708 Zr
    velocity -0.1673885579885770 -0.2184628452964731 0.2514509492650043
atom -2.1892299886341395 0.2222104594860824 22.0653991692545333 Zr
    velocity 0.1366295383478136 0.3751680054903484 -0.1557806469730988
atom 2.9577700113658589 0.2222104594860824 22.0653991692545333 Zr
    velocity 0.0286494370944844 0.3453730143266548 -0.0146059137390599
atom 8.1047700113658578 0.2222104594860824 22.0653991692545333 Zr
    velocity -0.0621766839614521 0.3463301175939658 0.1172066164435264
atom 13.2517700113658545 0.2222104594860824 22.0653991692545333 Zr
    velocity -0.3543546613957947 0.4456092303667118 -0.0455266390732063
atom 18.3987700113658512 0.2222104594860824 22.0653991692545333 Zr
    velocity -0.5437458190090251 -0.3341592778413744 -0.3110365306685376
atom 23.5457700113658532 0.2222104594860824 22.0653991692545333 Zr
    velocity 0.6809947264910203 0.0985201737691659 0.0998865654025261
atom 28.6927700113658588 0.2222104594860824 22.0653991692545333 Zr
    velocity 0.1833854638231628 0.1027449384959036 -0.1034533864872934
atom -2.1892299886341395 5.4312104594860831 22.0653991692545333 Zr
    velocity 0.7023708719287137 0.1137282159813367 -0.2589712969316332
atom 2.9577700113658589 5.4312104594860831 22.0653991692545333 Zr
    velocity -0.0022774554153268 -0.0781642211919004 0.1932541532614390
atom 8.1047700113658578 5.4312104594860831 22.0653991692545333 Zr
    velocity -0.0882450652509099 -0.0883613506927968 -0.2351229698876303
atom 13.2517700113658545 5.4312104594860831 22.0653991692545333 Zr
    velocity -0.0367018180654061 0.1287710698521689 0.2821037087268984
atom 18.3987700113658512 5.4312104594860831 22.0653991692545333 Zr
    velocity 0.0979123802541214 -0.0842906790268189 0.1601516130959288
atom 23.5457700113658532 5.4312104594860831 22.0653991692545333 Zr
    velocity 0.2281138081491184 -0.0009182367372782 -0.0948495165770803
atom 28.6927700113658588 5.4312104594860831 22.0653991692545333 Zr
    velocity 0.4711246552089255 0.0627650153276564 -0.0781124132812894
atom -2.1892299886341395 10.6402104594860827 22.0653991692545333 Zr
    velocity -0.0751845502199391 -0.1972838038457090 0.3499367217620106