#=======================================================
# FHI-aims file: 750_geometry.in.primitive.supercell_1500.0010K
# Created using the Atomic Simulation Environment (ASE)
# Tue Nov 15 14:18:23 2022

# Additional information:
#  created from MB distrubtion
#  T = 10.0 K
#  quantum:             False
#  deterministic:       False
#  plus_minus:          False
#  gauge_eigenvectors:  False
#  Random seed:         1467493264
#  Sample number:       1
#=======================================================
lattice_vector 25.8249999999999993 0.0000000000000000 0.0000000000000000 
lattice_vector 0.0000000000000000 26.0650000000000013 0.0000000000000000 
lattice_vector -4.2103962091767322 0.0000000000000000 26.3659356701360039 
atom 1.2522636613681579 0.2223810952775880 1.1073554952356317 Zr
    velocity 0.0704415501573523 -0.0704180296480645 -0.1964519762684290
atom 6.4172636613681586 0.2223810952775880 1.1073554952356317 Zr
    velocity 0.0686357598333042 -0.6466488006029978 -0.4317186035258736
atom 11.5822636613681542 0.2223810952775880 1.1073554952356317 Zr
    velocity -0.3425085752183820 0.1896264714534006 0.1320692162239668
atom 16.7472636613681587 0.2223810952775880 1.1073554952356317 Zr
    velocity 0.2574820914631614 0.3005427938001502 -0.2115061875902568
atom 21.9122636613681578 0.2223810952775880 1.1073554952356317 Zr
    velocity 0.3522796970583004 0.1595150942284266 0.0543281328213915
atom 1.2522636613681579 5.4353810952775881 1.1073554952356317 Zr
    velocity 0.3923132563597337 0.3177925376793883 0.2550892400812466
atom 6.4172636613681586 5.4353810952775881 1.1073554952356317 Zr
    velocity 0.1875817719620929 -0.0807103477451787 0.4821504778246281
atom 11.5822636613681542 5.4353810952775881 1.1073554952356317 Zr
    velocity 0.4758453819995592 -0.0338263168877573 -0.2242489202415922
atom 16.7472636613681587 5.4353810952775881 1.1073554952356317 Zr
    velocity 0.0564574581020715 0.3873781324334392 -0.0419760187873738
atom 21.9122636613681578 5.4353810952775881 1.1073554952356317 Zr
    velocity 0.3169691643936931 -0.6001026945847934 -0.1370600821969382
atom 1.2522636613681579 10.6483810952775908 1.1073554952356317 Zr
    velocity 0.4279524255055263 -0.1814300872217257 0.1111138640900600
atom 6.4172636613681586 10.6483810952775908 1.1073554952356317 Zr
    velocity 0.1156300538831936 -0.3236067438108305 -0.1263300581645912
atom 11.5822636613681542 10.6483810952775908 1.1073554952356317 Zr
    velocity -0.3236803847159861 0.2784196877565311 -0.3837030323347117
atom 16.7472636613681587 10.6483810952775908 1.1073554952356317 Zr
    velocity -0.1763882414075703 0.3650785454005093 -0.0995541074856328
atom 21.9122636613681578 10.6483810952775908 1.1073554952356317 Zr
    velocity -0.1560950833878089 0.2167122808658831 0.0435194389184754
atom 1.2522636613681579 15.8613810952775900 1.1073554952356317 Zr
    velocity -0.0537354715675413 -0.0414261333138515 -0.2810198623184453
atom 6.4172636613681586 15.8613810952775900 1.1073554952356317 Zr
    velocity -0.0465566923877208 -0.6328147692142032 -0.1728854599117459
atom 11.5822636613681542 15.8613810952775900 1.1073554952356317 Zr
    velocity -0.1006964772007793 -0.0697019366142027 -0.0040715984749225
atom 16.7472636613681587 15.8613810952775900 1.1073554952356317 Zr
    velocity 0.5452813209110308 0.0945070141649016 -0.4407663335412643
atom 21.9122636613681578 15.8613810952775900 1.1073554952356317 Zr
    velocity 0.1125594189682492 0.1355179727017068 -0.2989655828806409
atom 1.2522636613681579 21.0743810952775910 1.1073554952356317 Zr
    velocity -0.0199089612422454 -0.0822175377734777 -0.2143688568834659
atom 6.4172636613681586 21.0743810952775910 1.1073554952356317 Zr
    velocity 0.0847569649268289 -0.4007871416177123 -0.2991289946924945
atom 11.5822636613681542 21.0743810952775910 1.1073554952356317 Zr
    velocity 0.2828141537329741 -0.0928830775358500 0.1839911155710268
atom 16.7472636613681587 21.0743810952775910 1.1073554952356317 Zr
    velocity -0.0568934265834357 -0.3134276832461044 0.1862498413287904
atom 21.9122636613681578 21.0743810952775910 1.1073554952356317 Zr
    velocity -0.1782192246546531 0.0204275372931605 0.1769829414147797
atom 0.4101844195328111 0.2223810952775880 6.3805426292628349 Zr
    velocity -0.2581471876199760 0.0797830948792858 -0.3441805310493773
atom 5.5751844195328113 0.2223810952775880 6.3805426292628349 Zr
    velocity -0.3210496567305730 -0.1413829008158112 -0.6259943130916558
atom 10.7401844195328078 0.2223810952775880 6.3805426292628349 Zr
    velocity 0.2693066714094059 0.1903266798804435 0.0058596736467204
atom 15.9051844195328123 0.2223810952775880 6.3805426292628349 Zr
    velocity 0.0079394565481520 -0.2405067802639027 -0.1418716179966330
atom 21.0701844195328114 0.2223810952775880 6.3805426292628349 Zr
    velocity -0.2190097562057868 0.4170511887271220 -0.1426282978633019
atom 0.4101844195328111 5.4353810952775881 6.3805426292628349 Zr
    velocity -0.0810322468731571 -0.2052359081073346 -0.1145989070055121
atom 5.5751844195328113 5.4353810952775881 6.3805426292628349 Zr
    velocity 0.1115846506719800 0.2310132802341428 -0.8409216238050390
atom 10.7401844195328078 5.4353810952775881 6.3805426292628349 Zr
    velocity -0.0571838783877640 0.1017933236542131 -0.1154573163490218
atom 15.9051844195328123 5.4353810952775881 6.3805426292628349 Zr
    velocity 0.0010561461881290 -0.0930495214050040 -0.1943444842083949
atom 21.0701844195328114 5.4353810952775881 6.3805426292628349 Zr
    velocity -0.6073882190722532 -0.3698533954709246 0.0258137826543332
atom 0.4101844195328111 10.6483810952775908 6.3805426292628349 Zr
    velocity -0.3070289639451391 -0.5220963082143292 0.4189595869876541
atom 5.5751844195328113 10.6483810952775908 6.3805426292628349 Zr
    velocity 0.5332010467280215 -0.1880146224823533 0.2465918865493762
atom 10.7401844195328078 10.6483810952775908 6.3805426292628349 Zr
    velocity 0.0607218813246404 -0.6433276726572714 0.1086914725986782
atom 15.9051844195328123 10.6483810952775908 6.3805426292628349 Zr
    velocity 0.0790583191903802 -0.0383723135915331 -0.4267791838505650
atom 21.0701844195328114 10.6483810952775908 6.3805426292628349 Zr
    velocity 0.0364660952421151 -0.3571226883001776 0.5456627565705212
atom 0.4101844195328111 15.8613810952775900 6.3805426292628349 Zr
    velocity -0.1560656197996852 0.4206106218764935 0.3061325472931261
atom 5.5751844195328113 15.8613810952775900 6.3805426292628349 Zr
    velocity 0.1233805688753572 -0.0730780229906869 0.0911279301070244
atom 10.7401844195328078 15.8613810952775900 6.3805426292628349 Zr
    velocity -0.1967083049928419 0.2757424316203259 1.1642433948193061
atom 15.9051844195328123 15.8613810952775900 6.3805426292628349 Zr
    velocity -0.3684009714603855 0.3917525893286031 0.5256323378829100
atom 21.0701844195328114 15.8613810952775900 6.3805426292628349 Zr
    velocity 0.4676605777141016 0.4739537637576643 -0.3599583264303886
atom 0.4101844195328111 21.0743810952775910 6.3805426292628349 Zr
    velocity 0.2771236406317601 -0.1371712767060801 -0.1824371062570784
atom 5.5751844195328113 21.0743810952775910 6.3805426292628349 Zr
    velocity -0.1204247696767079 -0.3905053480373216 -0.0000101846141562
atom 10.7401844195328078 21.0743810952775910 6.3805426292628349 Zr
    velocity 0.1296714424956215 0.0417766759587229 0.0421383070091761
atom 15.9051844195328123 21.0743810952775910 6.3805426292628349 Zr
    velocity -0.3770443911307235 0.1358876244985159 0.3289135944770372
atom 21.0701844195328114 21.0743810952775910 6.3805426292628349 Zr
    velocity -0.4825703525885259 -0.0475361183845064 0.0090018736905156
atom -0.4318948223025354 0.2223810952775880 11.6537297632900358 Zr
    velocity 0.0205039173666381 0.5592071289196444 -0.1205058116628318
atom 4.7331051776974649 0.2223810952775880 11.6537297632900358 Zr
    velocity -0.4640805300663697 0.0929548839488055 0.0206053149118956
atom 9.8981051776974613 0.2223810952775880 11.6537297632900358 Zr
    velocity -0.2696392915527792 0.3276067246802485 0.3216134124931683
atom 15.0631051776974658 0.2223810952775880 11.6537297632900358 Zr
    velocity 0.0152642180532428 -0.0242560470980792 -0.4476985069198905
atom 20.2281051776974650 0.2223810952775880 11.6537297632900358 Zr
    velocity 0.0416141837528958 -0.1080460897423755 0.1634856700750836
atom -0.4318948223025354 5.4353810952775881 11.6537297632900358 Zr
    velocity -0.2315545669016174 -0.8431424304523599 -0.1935328517431166
atom 4.7331051776974649 5.4353810952775881 11.6537297632900358 Zr
    velocity 0.1262174176864963 -0.0276567678563242 -0.0071722884113024
atom 9.8981051776974613 5.4353810952775881 11.6537297632900358 Zr
    velocity -0.0311693718381359 -0.0181381164020672 0.2974210683080893
atom 15.0631051776974658 5.4353810952775881 11.6537297632900358 Zr
    velocity 0.0508485645503921 -0.5818641603482866 0.0878601065987001
atom 20.2281051776974650 5.4353810952775881 11.6537297632900358 Zr
    velocity -0.5150355246504892 0.3771831296109071 -0.0130250570905937
atom -0.4318948223025354 10.6483810952775908 11.6537297632900358 Zr
    velocity 0.5947714556607457 -0.2183427378693859 0.4133388181731483
atom 4.7331051776974649 10.6483810952775908 11.6537297632900358 Zr
    velocity -0.0432942084607418 0.0096080792762886 -0.1935395831596815
atom 9.8981051776974613 10.6483810952775908 11.6537297632900358 Zr
    velocity -0.2529132571531018 -0.0741504039665691 -0.2568416014941385
atom 15.0631051776974658 10.6483810952775908 11.6537297632900358 Zr
    velocity -0.3300393166320006 -0.2790810191400471 -0.2866562069660462
atom 20.2281051776974650 10.6483810952775908 11.6537297632900358 Zr
    velocity -0.7506641393710675 0.2855924457924006 -0.0873209995584294
atom -0.4318948223025354 15.8613810952775900 11.6537297632900358 Zr
    velocity 0.0261212391344446 0.0577664588081764 -0.1941058176355419
atom 4.7331051776974649 15.8613810952775900 11.6537297632900358 Zr
    velocity -0.1998255962950748 0.2159803371620951 0.0688584233280030
atom 9.8981051776974613 15.8613810952775900 11.6537297632900358 Zr
    velocity 0.0103199595367872 -0.2329121811598649 0.0937909015787828
atom 15.0631051776974658 15.8613810952775900 11.6537297632900358 Zr
    velocity 0.3294075931770833 -0.8099861076766122 0.1350116185993941
atom 20.2281051776974650 15.8613810952775900 11.6537297632900358 Zr
    velocity 0.2006761779634193 0.3613469666710348 -0.4597024923397590
atom -0.4318948223025354 21.0743810952775910 11.6537297632900358 Zr
    velocity -0.0838990579280453 -0.3043720510732915 0.0979542037045214
atom 4.7331051776974649 21.0743810952775910 11.6537297632900358 Zr
    velocity -0.5585643721518658 -0.3135594660430816 0.3995306518631167
atom 9.8981051776974613 21.0743810952775910 11.6537297632900358 Zr
    velocity -0.0293017960657727 -0.2243343496416709 -0.0926508626834711
atom 15.0631051776974658 21.0743810952775910 11.6537297632900358 Zr
    velocity -0.1178375442978474 0.1015156087928587 0.0144771169526343
atom 20.2281051776974650 21.0743810952775910 11.6537297632900358 Zr
    velocity -0.3134589445831765 0.1779990601125035 0.0434384846963177
atom -1.2739740641378816 0.2223810952775880 16.9269168973172341 Zr
    velocity 0.0774834921300213 0.1688579728033604 -0.0993639105685672
atom 3.8910259358621184 0.2223810952775880 16.9269168973172341 Zr
    velocity 0.5118514242103264 0.2786027202583319 -0.3057326852511457
atom 9.0560259358621149 0.2223810952775880 16.9269168973172341 Zr
    velocity -0.0005678416619002 0.2041512597313362 0.2508736271127682
atom 14.2210259358621194 0.2223810952775880 16.9269168973172341 Zr
    velocity -0.3519248226598575 -0.1635233818002347 -0.2041198414312420
atom 19.3860259358621185 0.2223810952775880 16.9269168973172341 Zr
    velocity 0.0634453214116784 0.2854158270958149 -0.5189668453576485
atom -1.2739740641378816 5.4353810952775881 16.9269168973172341 Zr
    velocity 0.1727208955911538 0.0109675172057491 0.1365547074419339
atom 3.8910259358621184 5.4353810952775881 16.9269168973172341 Zr
    velocity -0.1998694543206800 0.4342377697513778 -0.1785438414086431
atom 9.0560259358621149 5.4353810952775881 16.9269168973172341 Zr
    velocity -0.0497785621279142 -0.2365817161168636 -0.2149094055549181
atom 14.2210259358621194 5.4353810952775881 16.9269168973172341 Zr
    velocity -0.3359808665519939 0.0587069460526410 -0.0455153584872829
atom 19.3860259358621185 5.4353810952775881 16.9269168973172341 Zr
    velocity 0.1561207768712368 -0.3022536755896158 0.3958905595686810
atom -1.2739740641378816 10.6483810952775908 16.9269168973172341 Zr
    velocity -0.1991360750389581 0.0524240340674122 -0.3028313525750078
atom 3.8910259358621184 10.6483810952775908 16.9269168973172341 Zr
    velocity -0.1155775217291112 0.2311793717461152 -0.4537379129854249
atom 9.0560259358621149 10.6483810952775908 16.9269168973172341 Zr
    velocity 0.3563252348555626 -0.4772322179167289 -0.0010813481480762
atom 14.2210259358621194 10.6483810952775908 16.9269168973172341 Zr
    velocity 0.0624132246711814 0.0550068323905364 0.1863830390410363
atom 19.3860259358621185 10.6483810952775908 16.9269168973172341 Zr
    velocity -0.1126099037218520 -0.0256409742469814 -0.0373097758006404
atom -1.2739740641378816 15.8613810952775900 16.9269168973172341 Zr
    velocity 0.1047436952524370 0.2010258744928897 0.0899034260208571
atom 3.8910259358621184 15.8613810952775900 16.9269168973172341 Zr
    velocity -0.2954107216182645 0.1634118348518175 0.2899362303943276
atom 9.0560259358621149 15.8613810952775900 16.9269168973172341 Zr
    velocity -0.1911144631446834 -0.3193268655108460 0.2599869858499871
atom 14.2210259358621194 15.8613810952775900 16.9269168973172341 Zr
    velocity 0.7055228997111702 -0.2830158442241182 -0.4204962246664655
atom 19.3860259358621185 15.8613810952775900 16.9269168973172341 Zr
    velocity 0.2274699261962945 0.0092151941000729 0.4159010098639196
atom -1.2739740641378816 21.0743810952775910 16.9269168973172341 Zr
    velocity -0.1608259083702555 0.6214121140191413 -0.2727056786309211
atom 3.8910259358621184 21.0743810952775910 16.9269168973172341 Zr
    velocity -0.4114613819475554 0.3686066682349627 0.0656569884493168
atom 9.0560259358621149 21.0743810952775910 16.9269168973172341 Zr
    velocity 0.0315582289220653 -0.3888864860925882 0.1556285391538064
atom 14.2210259358621194 21.0743810952775910 16.9269168973172341 Zr
    velocity 0.1349470702928560 0.3178906158734403 0.3489917793871901
atom 19.3860259358621185 21.0743810952775910 16.9269168973172341 Zr
    velocity -0.2799169220554195 -0.8777054747540072 -0.4933728857532514
atom -2.1160533059732280 0.2223810952775880 22.2001040313444342 Zr
    velocity 0.2485026256609175 -0.4925800302724217 0.2908948453650656
atom 3.0489466940267724 0.2223810952775880 22.2001040313444342 Zr
    velocity 0.3580352209773864 0.0768765581015500 0.5745855355523455
atom 8.2139466940267685 0.2223810952775880 22.2001040313444342 Zr
    velocity -0.3922058540152379 -0.0094280392777796 0.3438783490023140
atom 13.3789466940267729 0.2223810952775880 22.2001040313444342 Zr
    velocity -0.3590012552685894 -0.2424688716452253 0.1654939588550897
atom 18.5439466940267721 0.2223810952775880 22.2001040313444342 Zr
    velocity 0.6957527734901358 0.1405993791613995 -0.0678281961556961
atom -2.1160533059732280 5.4353810952775881 22.2001040313444342 Zr
    velocity -0.0214562569600814 -0.2574533142719119 -0.1364663955683732
atom 3.0489466940267724 5.4353810952775881 22.2001040313444342 Zr
    velocity 0.2191542734158975 -0.3530008721648295 0.2279786284203766
atom 8.2139466940267685 5.4353810952775881 22.2001040313444342 Zr
    velocity 0.0809395528338687 0.1580104886995747 0.3113597796739416
atom 13.3789466940267729 5.4353810952775881 22.2001040313444342 Zr
    velocity -0.2334600331535659 -0.1692235859262131 0.2681871795982916
atom 18.5439466940267721 5.4353810952775881 22.2001040313444342 Zr
    velocity -0.1527599016292940 -0.4110576642407784 -0.4011824921952501
atom -2.1160533059732280 10.6483810952775908 22.2001040313444342 Zr
    velocity -0.4739829927002274 -0.1952093626835528 -0.8903943769052893
atom 3.0489466940267724 10.6483810952775908 22.2001040313444342 Zr
    velocity -0.7751444286095572 -0.2535773795860921 -0.3954294941856785
atom 8.2139466940267685 10.6483810952775908 22.2001040313444342 Zr
    velocity -0.2675227686159494 0.2856901669598622 0.1671181278254495
atom 13.3789466940267729 10.6483810952775908 22.2001040313444342 Zr
    velocity 0.2982640849967519 -0.3356686228002304 -0.3010702735438279
atom 18.5439466940267721 10.6483810952775908 22.2001040313444342 Zr
    velocity -0.2168775016124244 -0.3351153221430396 0.3127141232440633
atom -2.1160533059732280 15.8613810952775900 22.2001040313444342 Zr
    velocity 0.3240653938955790 -0.4813409406167746 0.1514015278290720
atom 3.0489466940267724 15.8613810952775900 22.2001040313444342 Zr
    velocity 0.0775950529883408 -0.0043531540172236 -0.0638840571853375
atom 8.2139466940267685 15.8613810952775900 22.2001040313444342 Zr
    velocity 0.5530054218868846 -0.0758721706481589 -0.8364665069332371
atom 13.3789466940267729 15.8613810952775900 22.2001040313444342 Zr
    velocity -0.0255903142132525 -0.0387705399911144 -0.0374648206912183
atom 18.5439466940267721 15.8613810952775900 22.2001040313444342 Zr
    velocity -0.1332192916645347 -0.3623523186724666 0.4938307593577827
atom -2.1160533059732280 21.0743810952775910 22.2001040313444342 Zr
    velocity -0.1256904019983292 0.5703029962566396 -0.3253140451206333
atom 3.0489466940267724 21.0743810952775910 22.2001040313444342 Zr
    velocity 0.2956942158053182 0.1281434341476538 0.0666585239110515
atom 8.2139466940267685 21.0743810952775910 22.2001040313444342 Zr
    velocity -0.1114439427434007 0.1447336439568530 0.1385600044628580
atom 13.3789466940267729 21.0743810952775910 22.2001040313444342 Zr
    velocity -0.1821952426847528 -0.0482735185941082 -0.4552028531429682
atom 18.5439466940267721 21.0743810952775910 22.2001040313444342 Zr
    velocity 0.2691064856619775 0.1913043069655432 -0.0835333160718259
atom 3.0706567906023867 4.9906189047224121 4.1658317126161890 Zr
    velocity 0.4166743583461083 -0.0609528522151757 -0.3481690992920213
atom 8.2356567906023859 4.9906189047224121 4.1658317126161890 Zr
    velocity 0.0055145613510438 0.4661687256778374 0.4057524722801015
atom 13.4006567906023850 4.9906189047224121 4.1658317126161890 Zr
    velocity 0.3280744689080164 -0.3227660032593181 -0.4183642292116978
atom 18.5656567906023895 4.9906189047224121 4.1658317126161890 Zr
    velocity 0.3204983769366301 -0.2367889908753940 0.5118804601747750
atom 23.7306567906023886 4.9906189047224121 4.1658317126161890 Zr
    velocity 0.4109788680669705 0.0365369982799053 -0.0645877092704045
atom 3.0706567906023867 10.2036189047224131 4.1658317126161890 Zr
    velocity -0.2862967702061245 -0.0056102001928711 -0.1329990647124099
atom 8.2356567906023859 10.2036189047224131 4.1658317126161890 Zr
    velocity -0.2749267369389260 -0.3500195485271833 -0.8166222251552664
atom 13.4006567906023850 10.2036189047224131 4.1658317126161890 Zr
    velocity -0.3964822032033818 0.6329757028182488 -0.0457640928822148
atom 18.5656567906023895 10.2036189047224131 4.1658317126161890 Zr
    velocity -0.0691715188382080 0.0280225981489807 0.3219194837785742
atom 23.7306567906023886 10.2036189047224131 4.1658317126161890 Zr
    velocity -0.2128017215429285 0.3007563426275874 1.2422874631405574
atom 3.0706567906023867 15.4166189047224140 4.1658317126161890 Zr
    velocity 0.2359928030508016 0.1270311248985251 0.1128524261528677
atom 8.2356567906023859 15.4166189047224140 4.1658317126161890 Zr
    velocity -0.0891811954231653 0.0062870395166851 -0.1502796101176432
atom 13.4006567906023850 15.4166189047224140 4.1658317126161890 Zr
    velocity 0.1226687994070113 -0.0357945278461307 -0.0161414092364683
atom 18.5656567906023895 15.4166189047224140 4.1658317126161890 Zr
    velocity -0.0548973732882736 0.2800908272931646 0.6072609762882125
atom 23.7306567906023886 15.4166189047224140 4.1658317126161890 Zr
    velocity 0.1480215508722253 -0.0530116177795987 -0.1026439700046809
atom 3.0706567906023867 20.6296189047224168 4.1658317126161890 Zr
    velocity -0.2473054854621687 0.2939859268270989 -0.0705356286228812
atom 8.2356567906023859 20.6296189047224168 4.1658317126161890 Zr
    velocity 0.0707158032746002 0.1570346015736288 -0.3657115954233521
atom 13.4006567906023850 20.6296189047224168 4.1658317126161890 Zr
    velocity 0.1291030332778446 -0.1133262389655238 0.0231282140494193
atom 18.5656567906023895 20.6296189047224168 4.1658317126161890 Zr
    velocity -0.0779248429450596 0.0618827441797990 -0.3379391813610871
atom 23.7306567906023886 20.6296189047224168 4.1658317126161890 Zr
    velocity -0.0077753576497276 -0.5065821503255984 -0.1289968677741108
atom 3.0706567906023867 25.8426189047224142 4.1658317126161890 Zr
    velocity 0.6979283880052390 -0.0584556651539281 0.3193883381253894
atom 8.2356567906023859 25.8426189047224142 4.1658317126161890 Zr
    velocity 0.3340392923762850 -0.0098865896692000 0.1570115304073772
atom 13.4006567906023850 25.8426189047224142 4.1658317126161890 Zr
    velocity 0.1742533398198862 0.1260466099976948 -0.1593605849972684
atom 18.5656567906023895 25.8426189047224142 4.1658317126161890 Zr
    velocity 0.0478307016969699 -0.3959719015724740 -0.0544973955766451
atom 23.7306567906023886 25.8426189047224142 4.1658317126161890 Zr
    velocity 0.1555603499997719 0.0904852177786711 -0.0294018668223894
atom 2.2285775487670398 4.9906189047224121 9.4390188466433926 Zr
    velocity -0.1185646485631443 0.1130091667368150 0.1607129850381418
atom 7.3935775487670394 4.9906189047224121 9.4390188466433926 Zr
    velocity 0.0305058440980257 -0.5429633020324620 0.0187243259865252
atom 12.5585775487670386 4.9906189047224121 9.4390188466433926 Zr
    velocity -0.4823564705282244 0.2665022371389782 -0.0364778361337951
atom 17.7235775487670395 4.9906189047224121 9.4390188466433926 Zr
    velocity -0.0878200316365676 -0.0771535854849864 0.1439777362038939
atom 22.8885775487670386 4.9906189047224121 9.4390188466433926 Zr
    velocity 0.3609826375760274 0.2059528393517805 -0.3704962724694543
atom 2.2285775487670398 10.2036189047224131 9.4390188466433926 Zr
    velocity 0.3290490760406293 -0.0935126243878028 -0.1557223896911712
atom 7.3935775487670394 10.2036189047224131 9.4390188466433926 Zr
    velocity 0.3317615620748048 -0.1400112601967324 0.0420072090337955
atom 12.5585775487670386 10.2036189047224131 9.4390188466433926 Zr
    velocity -0.2762774135689590 0.0892471518514176 -0.1221499060698868
atom 17.7235775487670395 10.2036189047224131 9.4390188466433926 Zr
    velocity -0.5717291941521466 -0.2498853211843998 -0.1591333613727726
atom 22.8885775487670386 10.2036189047224131 9.4390188466433926 Zr
    velocity 0.2586702369100261 -0.1298928000564742 -0.0608504401874090
atom 2.2285775487670398 15.4166189047224140 9.4390188466433926 Zr
    velocity -0.4837454105821961 -0.1835921068233490 -0.0100873778110074
atom 7.3935775487670394 15.4166189047224140 9.4390188466433926 Zr
    velocity 0.2941620716057850 -0.0822899765101775 0.9271109575046059
atom 12.5585775487670386 15.4166189047224140 9.4390188466433926 Zr
    velocity 0.2018578284805279 0.7204599826261050 0.2466748085167136
atom 17.7235775487670395 15.4166189047224140 9.4390188466433926 Zr
    velocity -0.0964245787678233 0.0278028895664742 0.1327197606954953
atom 22.8885775487670386 15.4166189047224140 9.4390188466433926 Zr
    velocity 0.1016112685165425 -0.0035191022634236 -0.3605210728577704
atom 2.2285775487670398 20.6296189047224168 9.4390188466433926 Zr
    velocity -0.1993360617409984 0.2350619736951150 -0.2872557859707805
atom 7.3935775487670394 20.6296189047224168 9.4390188466433926 Zr
    velocity 0.0761706086978610 -0.6711204632737668 -0.1638050943212120
atom 12.5585775487670386 20.6296189047224168 9.4390188466433926 Zr
    velocity 0.1084741380321059 0.3144121058467096 0.2544976757181331
atom 17.7235775487670395 20.6296189047224168 9.4390188466433926 Zr
    velocity -0.3658200898816339 0.2862949820187308 0.0482165956032195
atom 22.8885775487670386 20.6296189047224168 9.4390188466433926 Zr
    velocity -0.2501601580988761 -0.4230750630016633 0.4316724184448884
atom 2.2285775487670398 25.8426189047224142 9.4390188466433926 Zr
    velocity -0.3631496693298804 0.4378719563327261 0.2987433142919176
atom 7.3935775487670394 25.8426189047224142 9.4390188466433926 Zr
    velocity -0.1070147931149189 -0.4176771334430754 -0.0096094508158304
atom 12.5585775487670386 25.8426189047224142 9.4390188466433926 Zr
    velocity 0.1663411499858121 -0.6028800608585480 0.1358777955230233
atom 17.7235775487670395 25.8426189047224142 9.4390188466433926 Zr
    velocity -0.4282701799887662 -0.0080348683655275 0.1284656350316249
atom 22.8885775487670386 25.8426189047224142 9.4390188466433926 Zr
    velocity -0.2832185951185280 -0.6935059462082888 -0.6171993840898974
atom 1.3864983069316936 4.9906189047224121 14.7122059806705909 Zr
    velocity -0.4299197849890060 0.2635048570077873 -0.0457042592978130
atom 6.5514983069316930 4.9906189047224121 14.7122059806705909 Zr
    velocity -0.3184415582410560 -0.4212116298088562 0.0043929151230279
atom 11.7164983069316921 4.9906189047224121 14.7122059806705909 Zr
    velocity 0.0210450250203392 -0.1197359578003169 0.5483418577069319
atom 16.8814983069316966 4.9906189047224121 14.7122059806705909 Zr
    velocity -0.3950068630092241 0.0013771968506762 0.0925734168576254
atom 22.0464983069316958 4.9906189047224121 14.7122059806705909 Zr
    velocity -0.3858969183914842 0.1710747981630149 0.6638759610522890
atom 1.3864983069316936 10.2036189047224131 14.7122059806705909 Zr
    velocity -0.3663112552915234 -0.4405813079942033 0.3978910562655736
atom 6.5514983069316930 10.2036189047224131 14.7122059806705909 Zr
    velocity -0.0483022992994761 0.5944755926065224 0.2972891417776183
atom 11.7164983069316921 10.2036189047224131 14.7122059806705909 Zr
    velocity 0.1596341038245443 0.1201682808180200 -0.4877575783635416
atom 16.8814983069316966 10.2036189047224131 14.7122059806705909 Zr
    velocity -0.1959436140134492 -0.2930833963867454 -0.0765064190765607
atom 22.0464983069316958 10.2036189047224131 14.7122059806705909 Zr
    velocity 0.1178587469456601 0.2094686325962944 0.0700944265033870
atom 1.3864983069316936 15.4166189047224140 14.7122059806705909 Zr
    velocity -0.1775841920984132 0.1613966100225800 -0.1439310502206248
atom 6.5514983069316930 15.4166189047224140 14.7122059806705909 Zr
    velocity -0.0347197670125678 -0.3521240498347559 -0.1179497586687926
atom 11.7164983069316921 15.4166189047224140 14.7122059806705909 Zr
    velocity 0.2334212143118481 -0.0255396042173672 -0.0737745118967590
atom 16.8814983069316966 15.4166189047224140 14.7122059806705909 Zr
    velocity 0.3624280309809993 0.3774222619972607 -0.0858830343805967
atom 22.0464983069316958 15.4166189047224140 14.7122059806705909 Zr
    velocity -0.1172813973593106 0.2597534450706014 -0.7202482839790475
atom 1.3864983069316936 20.6296189047224168 14.7122059806705909 Zr
    velocity -0.2534085638923695 0.3462795199531341 -0.1433751423728434
atom 6.5514983069316930 20.6296189047224168 14.7122059806705909 Zr
    velocity 0.1438937672116244 -0.2241918112718791 -0.0075532769953245
atom 11.7164983069316921 20.6296189047224168 14.7122059806705909 Zr
    velocity -0.0155822111612723 0.2666737639525735 -0.3902220611187670
atom 16.8814983069316966 20.6296189047224168 14.7122059806705909 Zr
    velocity -0.3863727725947776 0.3529501781649652 0.3132780157412181
atom 22.0464983069316958 20.6296189047224168 14.7122059806705909 Zr
    velocity 0.1275973995168799 0.3319138382436289 0.4212135620828130
atom 1.3864983069316936 25.8426189047224142 14.7122059806705909 Zr
    velocity -0.0154668556189683 0.0814693677416654 0.3438130208488767
atom 6.5514983069316930 25.8426189047224142 14.7122059806705909 Zr
    velocity -0.2447108247941496 -0.1449020769402570 0.0409376877871564
atom 11.7164983069316921 25.8426189047224142 14.7122059806705909 Zr
    velocity -0.0824007851855049 0.4218476409048294 0.0325476575734211
atom 16.8814983069316966 25.8426189047224142 14.7122059806705909 Zr
    velocity 0.5587841478280275 -0.2553596237512723 0.1126912336072834
atom 22.0464983069316958 25.8426189047224142 14.7122059806705909 Zr
    velocity -0.0946096131064239 -0.3917958769906733 0.2408568559899172
atom 0.5444190650963469 4.9906189047224121 19.9853931146977928 Zr
    velocity 0.2345671497771243 -0.1130784588519920 -0.1391929777856956
atom 5.7094190650963466 4.9906189047224121 19.9853931146977928 Zr
    velocity -0.1097592436603359 0.0730315270228210 -0.2790269651035729
atom 10.8744190650963457 4.9906189047224121 19.9853931146977928 Zr
    velocity -0.3618195686829954 -0.1605991188115390 0.1601116641834160
atom 16.0394190650963466 4.9906189047224121 19.9853931146977928 Zr
    velocity -0.0387400948775887 0.3230234845720221 -0.0413807367724909
atom 21.2044190650963458 4.9906189047224121 19.9853931146977928 Zr
    velocity -0.2767530637281166 -0.2366601011445234 0.1161483538697179
atom 0.5444190650963469 10.2036189047224131 19.9853931146977928 Zr
    velocity 0.3936523819001885 0.1592147953119666 -0.5224466612149121
atom 5.7094190650963466 10.2036189047224131 19.9853931146977928 Zr
    velocity 0.1417995723133333 0.6843140627657477 0.0635187588485060
atom 10.8744190650963457 10.2036189047224131 19.9853931146977928 Zr
    velocity -0.3936612867790426 0.4693455087564772 0.3784462943294149
atom 16.0394190650963466 10.2036189047224131 19.9853931146977928 Zr
    velocity -0.0524192790428677 0.1355298479445671 -0.2167776675364599
atom 21.2044190650963458 10.2036189047224131 19.9853931146977928 Zr
    velocity -0.4897379540815186 0.0832397015712469 0.5233244891195974
atom 0.5444190650963469 15.4166189047224140 19.9853931146977928 Zr
    velocity -0.1524151060772924 0.4166930833324942 -0.4698099252344092
atom 5.7094190650963466 15.4166189047224140 19.9853931146977928 Zr