#=======================================================
# FHI-aims file: geometry.in.supercell.0010K
# Created using the Atomic Simulation Environment (ASE)
# Thu Jun 24 11:23:08 2021

# Additional information:
#  created from MB distrubtion
#  T = 10.0 K
#  quantum:             False
#  deterministic:       False
#  plus_minus:          False
#  gauge_eigenvectors:  False
#  Random seed:         985322985
#  Sample number:       1
#=======================================================
lattice_vector 10.1952194790879993 0.0000002312840000 0.0000001149100000 
lattice_vector 0.0000002312840000 10.1952585700719993 -0.0000000817060000 
lattice_vector 0.0000001174240000 -0.0000000834940000 10.4472499926080005 
atom 10.1952195705575175 0.0000001715475008 10.4472500947462379 Zr
    velocity -0.5403392892312736 -0.4642344178271230 -0.0720296333573178
atom 2.5488050190625202 2.5488146406025010 10.4472499881372372 Zr
    velocity 0.4521727782316493 -0.1639283986954592 0.1831111088537619
atom 5.0976099466555187 5.0976293409414994 10.4472499964382379 Zr
    velocity -0.4940057134625387 0.2429174312448334 0.3131415225637458
atom 7.6464148742485190 7.6464440412804997 10.4472500047392298 Zr
    velocity 0.4610570121519326 -0.0057814199532999 -0.4954895022301157
atom 7.6464147586065190 2.5488147562445009 10.4472500455922379 Zr
    velocity -0.1533121450310194 -0.2685251578273062 -0.2428411531786113
atom 10.1952196861995183 5.0976294565834994 10.4472500538932298 Zr
    velocity -0.0656706653127890 0.6801191366085649 -0.4308273576721383
atom 2.5488051347045202 7.6464439256384997 10.4472499472842379 Zr
    velocity 0.0586942576370105 -0.0233271632396683 0.2121832689930264
atom 5.0976098310135187 0.0000000559055008 10.4472500372912371 Zr
    velocity -0.0878695666829537 0.1687770136365184 0.1229846600610087
atom 10.1952195118455187 0.0000002132945008 5.2236250984422368 Zr
    velocity 0.1208151450414870 0.0083697788916767 -0.1577710587025478
atom 2.5488049603505201 2.5488146823495006 5.2236249918332369 Zr
    velocity 0.0159862217289461 -0.0761501465385577 0.6032544784477121
atom 5.0976098879435190 5.0976293826885000 5.2236250001342368 Zr
    velocity -0.2085180638286572 0.1972473186219346 -0.1454874734342370
atom 7.6464148155365192 7.6464440830275002 5.2236250084352367 Zr
    velocity 0.4888795056662491 -0.0365414618009121 0.1459054376169327
atom 7.6464146998945193 2.5488147979915006 5.2236250492882368 Zr
    velocity 0.4332612076721327 0.0975985526359525 0.1088266147381129
atom 10.1952196274875195 5.0976294983304999 5.2236250575892367 Zr
    velocity 0.2186223789491417 -0.7153483984258557 0.1774873446581950
atom 2.5488050759925200 7.6464439673855003 5.2236249509802368 Zr
    velocity -0.0190044390735644 -0.3428227716479978 -0.4091224408218181
atom 5.0976097723015190 0.0000000976525008 5.2236250409872369 Zr
    velocity 0.2799719632038889 0.0356787102807897 -0.1872137368283047
atom 0.0000001020416280 2.5488145286739372 2.6118124866735704 Zr
    velocity -0.2770944302486332 0.4293163329123741 -0.0370114896423076
atom 2.5488050296346265 5.0976292290129370 2.6118124949745698 Zr
    velocity 0.2259507206778518 0.1257165373896012 0.1094240626590935
atom 5.0976099572276272 7.6464439293519364 2.6118125032755706 Zr
    velocity -0.2230765325772446 0.3074723004376031 0.1863457987705847
atom 7.6464148848206275 10.1952586296909367 2.6118125115765705 Zr
    velocity -0.1179724922059089 0.3331209979753880 0.0752039798151332
atom 7.6464147691786275 5.0976293446549370 2.6118125524295706 Zr
    velocity -0.2540544224564434 -0.2455670977710777 0.1185077574482915
atom 0.0000002176836270 7.6464438137099364 2.6118124458205703 Zr
    velocity -0.0943873221345097 -0.9261973598599438 -0.3243342400149987
atom 2.5488051452766265 10.1952585140489322 2.6118124541215706 Zr
    velocity -0.1573807602317164 -0.1254226836278439 0.4736182364238844
atom 5.0976098415856272 2.5488146443159372 2.6118125441285698 Zr
    velocity 0.1055840510484446 0.4712127093902742 0.2061645528126734
atom 0.0000001607536280 2.5488144869269385 7.8354374829775715 Zr
    velocity -0.3333525319273667 -0.2154522076248109 0.5107759653020683
atom 2.5488050883466262 5.0976291872659374 7.8354374912785714 Zr
    velocity 0.0870985145506302 0.2471356436089756 -0.2512302252954828
atom 5.0976100159396269 7.6464438876049368 7.8354374995795686 Zr
    velocity -0.0774479923045502 0.3077629388904077 0.2019366121922366
atom 7.6464149435326272 10.1952585879439361 7.8354375078805685 Zr
    velocity 0.1273200665642603 0.1800365805211956 -0.3401164351113676
atom 7.6464148278906272 5.0976293029079374 7.8354375487335686 Zr
    velocity 0.1025879062789390 -0.0773484875931782 0.2514217144160175
atom 0.0000002763956270 7.6464437719629368 7.8354374421245714 Zr
    velocity -0.1979762804317139 0.3219949363533947 0.2018719603151164
atom 2.5488052039886262 10.1952584723019317 7.8354374504255713 Zr
    velocity -0.1067830842147134 0.0681544716341609 0.0072837841708026
atom 5.0976099002976270 2.5488146025689384 7.8354375404325713 Zr
    velocity -0.2535258928693052 -0.0898819531062593 -0.1455675763275099
atom 1.2744024515736083 1.2744073718773858 1.0024190245136309 O
    velocity 0.9741847677014541 0.7626638515869453 0.4344847755229432
atom 3.8232073791666079 3.8232220722163857 1.0024190328146307 O
    velocity -0.5713127740659357 -0.1642574929821218 0.1691685278098765
atom 6.3720123067596077 6.3720367725553873 1.0024190411156308 O
    velocity -1.9498269230791101 1.2879541104890642 0.2204899322519979
atom 8.9208172343526080 8.9208514728943840 1.0024190494166310 O
    velocity 0.6524730138785187 -0.3756414751334849 1.5085905252251748
atom 8.9208171187106071 3.8232221878583856 1.0024190902696308 O
    velocity 0.0582973976183600 -0.3709941328760797 -0.1271199706383287
atom 1.2744025672156083 6.3720366569133882 1.0024189836606308 O
    velocity 0.9358111505734935 -0.2232709652748875 -0.5064820177286816
atom 3.8232074948086079 8.9208513572523884 1.0024189919616309 O
    velocity -0.2276832300858034 1.1426003916102401 0.1698511641696511
atom 6.3720121911176069 1.2744074875193858 1.0024190819686309 O
    velocity -0.2319372235559772 -0.2528681330324030 -0.1483882798196114
atom 1.2744025102856082 1.2744073301303858 6.2260440208176311 O
    velocity -0.2446693009472645 -1.4299848036559635 0.5279408443613380
atom 3.8232074378786081 3.8232220304693860 6.2260440291186310 O
    velocity -0.2812138352107587 0.4108251875163438 -0.1395289496675756
atom 6.3720123654716074 6.3720367308083850 6.2260440374196282 O
    velocity -0.0638416160975469 -0.5397214222855297 -0.2937539245834950
atom 8.9208172930646086 8.9208514311473852 6.2260440457206281 O
    velocity 0.4795936831141971 -0.1177831989000088 0.1710349774188840
atom 8.9208171774226077 3.8232221461113864 6.2260440865736282 O
    velocity -0.6432400380676753 -1.1760947103158730 1.2181080385917837
atom 1.2744026259276082 6.3720366151663859 6.2260439799646310 O
    velocity -0.1511446703784007 -0.2713037815288369 -0.9050217347210278
atom 3.8232075535206080 8.9208513155053897 6.2260439882656282 O
    velocity 0.1618862438952060 0.9385473531512591 -0.8518911203345944
atom 6.3720122498296066 1.2744074457723857 6.2260440782726310 O
    velocity -0.0388312759504699 0.3548388009584851 0.4899575827244708
atom 1.2744025328003397 1.2744073262829310 3.6142318818368628 O
    velocity 0.8104815897269705 -1.2944092280950839 -1.2129836742535385
atom 3.8232074603933399 3.8232220266219321 3.6142318901378605 O
    velocity 0.5681598026289801 0.3358033466398203 -0.3734225232914007
atom 6.3720123879863388 6.3720367269609302 3.6142318984388604 O
    velocity 1.5569914057030554 -0.7959669271831403 -0.1713306097389435
atom 8.9208173155793382 8.9208514272999331 3.6142319067398629 O
    velocity -0.6203866355965707 0.5784369567452978 0.7966347625737266
atom 8.9208171999373391 3.8232221422639325 3.6142319475928604 O
    velocity -1.1870398292321029 0.6802020741502116 -0.6549230052490894
atom 1.2744026484423396 6.3720366113189302 3.6142318409838605 O
    velocity 0.3836520659527822 -0.1473155968185345 -1.4485292144017516
atom 3.8232075760353399 8.9208513116579322 3.6142318492848604 O
    velocity 0.8453470570662582 0.2520720275653064 0.2657703416733861
atom 6.3720122723443389 1.2744074419249318 3.6142319392918605 O
    velocity -0.6420073229546950 0.4872127333669619 0.7553097312025920
atom 1.2744025915123398 1.2744072845359309 8.8378568781408617 O
    velocity 0.2332559190210446 0.8022773304112047 0.1926850783827411
atom 3.8232075191053396 3.8232219848749307 8.8378568864418625 O
    velocity -1.1073221274849314 0.5628502283299498 1.4361659551344808
atom 6.3720124466983394 6.3720366852139296 8.8378568947428615 O
    velocity -0.5109757471317083 -0.5074431806080155 -0.5025556900595367
atom 8.9208173742913388 8.9208513855529308 8.8378569030438623 O
    velocity 0.9371511599364616 -0.3789281088876489 -0.2165793000128659
atom 8.9208172586493397 3.8232221005169307 8.8378569438968615 O
    velocity -0.7333038893138725 -0.0888434965214274 -0.7893282104890910
atom 1.2744027071543398 6.3720365695719297 8.8378568372878608 O
    velocity 1.5705222194459927 0.2607349442704150 0.2157854626662335
atom 3.8232076347473396 8.9208512699109299 8.8378568455888615 O
    velocity -0.2261672481052305 -0.1913456387282626 -0.2659858253726465
atom 6.3720123310563395 1.2744074001779317 8.8378569355958625 O
    velocity 0.0150424183757642 -0.7810359585558634 0.3681943262453668
atom 8.9208170733548702 1.2744075145374427 1.6093931900202194 O
    velocity -0.6672885037356284 -0.3138656736467437 -0.4568592096252220
atom 1.2744025218598707 3.8232219835924428 1.6093930834112193 O
    velocity 0.8943434332344639 0.0483201104758672 -0.0856109928361143
atom 3.8232074494528705 6.3720366839314417 1.6093930917122194 O
    velocity 0.4481477410512000 0.8985727458287469 0.2576744363631336
atom 6.3720123770458708 8.9208513842704420 1.6093931000132193 O
    velocity -0.9382303416574688 1.7120565764342450 -0.5131075555172353
atom 6.3720122614038708 3.8232220992344428 1.6093931408662194 O
    velocity 1.5731921113268961 -1.4130802642592422 -0.8177874209645754
atom 8.9208171889968693 6.3720367995734417 1.6093931491672195 O
    velocity 1.4287998846729597 0.2171481051003349 0.5836883906537038
atom 1.2744026375018709 8.9208512686284411 1.6093930425582195 O
    velocity -0.3955362723705977 -0.0382672625313691 -0.3213764222110945
atom 3.8232073338108705 1.2744073988954427 1.6093931325652195 O
    velocity -1.2359328733591277 -1.3072971019085378 -1.7881013431299768
atom 8.9208171320668708 1.2744074727904426 6.8330181863242210 O
    velocity 0.6894958768150656 0.1092833882830723 0.4474447727278313
atom 1.2744025805718706 3.8232219418454427 6.8330180797152211 O
    velocity -0.7012381032881398 0.6944804172109378 -0.5099867998378874
atom 3.8232075081648702 6.3720366421844421 6.8330180880162210 O
    velocity -0.7206405236417976 0.2501071283453308 -1.3389348545061548
atom 6.3720124357578705 8.9208513425234468 6.8330180963172182 O
    velocity 0.6988114108624586 0.0017482225306107 -0.5585149158151002
atom 6.3720123201158705 3.8232220574874427 6.8330181371702210 O
    velocity 0.3592283563208853 0.0347907320870132 -0.7887951572999160
atom 8.9208172477088699 6.3720367578264421 6.8330181454712182 O
    velocity -1.6444782842396672 0.4988298870745914 -1.0960894620521529
atom 1.2744026962138708 8.9208512268814424 6.8330180388622210 O
    velocity -1.1884658038248566 -0.1410871441588718 1.0839210864782007
atom 3.8232073925228702 1.2744073571484427 6.8330181288692211 O
    velocity 0.8758496384962031 -0.8646188132527052 -0.3428136866703277
atom 8.9208171446055804 1.2744075206278507 4.2212060890279766 O
    velocity -0.4794636521311481 0.4664580338009220 0.6965448806447900
atom 1.2744025931105816 3.8232219896828519 4.2212059824189767 O
    velocity 0.1804888063692883 0.6149636244980431 -1.2323166350528316
atom 3.8232075207035812 6.3720366900218508 4.2212059907199766 O
    velocity 1.3042585652586018 -0.3618272225586994 0.1826756897314588
atom 6.3720124482965810 8.9208513903608502 4.2212059990209765 O
    velocity 0.1929913940375965 -0.3669441281526488 -0.6723357694802592
atom 6.3720123326545810 3.8232221053248518 4.2212060398739766 O
    velocity -0.4012041863475468 -1.6150288756443913 0.7327524588917903
atom 8.9208172602475813 6.3720368056638508 4.2212060481749765 O
    velocity 0.3112589280020072 -0.2961983337566614 1.1197966077349399
atom 1.2744027087525815 8.9208512747188546 4.2212059415659766 O
    velocity -0.2250266435479943 -0.8771023244048374 0.0567025027930955
atom 3.8232074050615812 1.2744074049858531 4.2212060315729767 O
    velocity 0.2530104123885193 0.1503974957256270 -0.3578621649834509
atom 8.9208172033175792 1.2744074788808506 9.4448310853319768 O
    velocity -0.5174905531476847 -0.4091381252415512 -1.3674212414741955
atom 1.2744026518225815 3.8232219479358527 9.4448309787229778 O
    velocity 0.9642178646349979 0.1685933093318164 -0.0072522632432249
atom 3.8232075794155813 6.3720366482748485 9.4448309870239768 O
    velocity 0.5503859105463914 0.0376802000388601 0.7279068289291697
atom 6.3720125070085816 8.9208513486138497 9.4448309953249776 O
    velocity 0.5865752007791696 -0.5213782721208831 0.5358806681813985
atom 6.3720123913665816 3.8232220635778527 9.4448310361779768 O
    velocity 0.5626372375040286 0.1735432080148314 0.7781719182999115
atom 8.9208173189595801 6.3720367639168485 9.4448310444789776 O
    velocity -0.6736425524350863 0.6800721907169565 0.2331476558541926
atom 1.2744027674645815 8.9208512329718506 9.4448309378699769 O
    velocity -0.1923813087810274 -0.3466634215549297 0.0381961990573464
atom 3.8232074637735813 1.2744073632388531 9.4448310278769778 O
    velocity 0.1137670773095209 -0.1779705401202661 -1.0848048715159184
