#=======================================================
# FHI-aims file: geometry.in.supercell.0010K
# Created using the Atomic Simulation Environment (ASE)
# Mon Dec 28 22:31:54 2020

# Additional information:
#  created from MB distrubtion
#  T = 10.0 K
#  quantum:             False
#  deterministic:       False
#  plus_minus:          False
#  gauge_eigenvectors:  False
#  Random seed:         1208874818
#  Sample number:       1
#=======================================================
lattice_vector 10.1952194790879993 0.0000002312840000 0.0000001149100000 
lattice_vector 0.0000002312840000 10.1952585700719993 -0.0000000817060000 
lattice_vector 0.0000001174240000 -0.0000000834940000 10.4472499926080005 
atom 10.1952195705575175 0.0000001715475008 10.4472500947462343 Zr
    velocity 0.1874519221764552 0.1049482611103743 0.3279503564967180
atom 2.5488050190625202 2.5488146406025010 10.4472499881372372 Zr
    velocity 0.3962471204331589 -0.3201430340617605 0.0234084278803451
atom 5.0976099466555187 5.0976293409415012 10.4472499964382344 Zr
    velocity -0.2644070221116536 0.0305684082890974 -0.0236692967846783
atom 7.6464148742485190 7.6464440412804997 10.4472500047392334 Zr
    velocity -0.2222116892609674 -0.3578952725231964 -0.0251039513150228
atom 7.6464147586065190 2.5488147562445009 10.4472500455922344 Zr
    velocity -0.4047026641575737 0.6427264470466727 0.1606750742801537
atom 10.1952196861995183 5.0976294565835012 10.4472500538932334 Zr
    velocity -0.0824100412558634 -0.2944421448873288 0.2550691655155561
atom 2.5488051347045202 7.6464439256384997 10.4472499472842326 Zr
    velocity 0.0223226340369086 -0.0556514816848709 0.2123953379293353
atom 5.0976098310135187 0.0000000559055008 10.4472500372912371 Zr
    velocity -0.2068043264553445 -0.2285096369459660 -0.1733825126528876
atom 10.1952195118455187 0.0000002132945008 5.2236250984422359 Zr
    velocity -0.1823224463305667 0.1183115730200097 -0.1852393374504265
atom 2.5488049603505201 2.5488146823495006 5.2236249918332351 Zr
    velocity -0.2993250188522997 -0.0472356100053046 0.0642825606986333
atom 5.0976098879435190 5.0976293826885017 5.2236250001342359 Zr
    velocity 0.3398490744485617 0.0676322931097848 0.1810973677990124
atom 7.6464148155365192 7.6464440830275002 5.2236250084352358 Zr
    velocity 0.5061439379364332 -0.1444716263837610 0.2959151731745582
atom 7.6464146998945193 2.5488147979915006 5.2236250492882359 Zr
    velocity -0.0515514189911083 0.1198453038392374 -0.0740273014353732
atom 10.1952196274875195 5.0976294983305017 5.2236250575892358 Zr
    velocity -0.5284436902837067 0.2548820629503917 -0.1642783624450168
atom 2.5488050759925200 7.6464439673855003 5.2236249509802359 Zr
    velocity -0.2560598260269361 -0.1703195920318895 -0.5612184831594341
atom 5.0976097723015190 0.0000000976525008 5.2236250409872360 Zr
    velocity 0.1942721331333506 0.2471326620111626 0.5053516957941704
atom 0.0000001020416280 2.5488145286739359 2.6118124866735699 Zr
    velocity -0.1012806036857251 0.2799408868728223 0.2665432187142763
atom 2.5488050296346279 5.0976292290129361 2.6118124949745689 Zr
    velocity 0.2711030606664169 0.0583659136804329 -0.1824370176651098
atom 5.0976099572276272 7.6464439293519364 2.6118125032755688 Zr
    velocity 0.5593193829078572 -0.2164552066629118 -0.1007043016970642
atom 7.6464148848206275 10.1952586296909367 2.6118125115765700 Zr
    velocity -0.0291148703526623 0.0536472586388611 -0.0821730817448111
atom 7.6464147691786275 5.0976293446549361 2.6118125524295688 Zr
    velocity -0.1799607775425760 0.5987709036218367 0.1199070601152187
atom 0.0000002176836280 7.6464438137099364 2.6118124458205698 Zr
    velocity -0.1658638250965166 -0.2246290391394355 -0.3271446636637185
atom 2.5488051452766278 10.1952585140489358 2.6118124541215688 Zr
    velocity -0.2322406084956209 0.2877542471557664 0.1285728043713608
atom 5.0976098415856272 2.5488146443159372 2.6118125441285689 Zr
    velocity 0.1727596378766212 -0.1734536161165058 0.2291494309248638
atom 0.0000001607536280 2.5488144869269376 7.8354374829775697 Zr
    velocity 0.0178131675107911 -0.3943897791360556 0.0662148315647957
atom 2.5488050883466276 5.0976291872659365 7.8354374912785696 Zr
    velocity -0.6664527439222755 0.2899111288568972 0.4886425769234995
atom 5.0976100159396269 7.6464438876049368 7.8354374995795686 Zr
    velocity -0.1629136637355242 -0.1220443444196796 -0.1283688211310602
atom 7.6464149435326272 10.1952585879439361 7.8354375078805685 Zr
    velocity -0.1287000148600152 -0.1711037407384272 -0.2409850777543926
atom 7.6464148278906272 5.0976293029079365 7.8354375487335686 Zr
    velocity 0.1112615621892446 0.4112579545440387 -0.3137021242565944
atom 0.0000002763956280 7.6464437719629368 7.8354374421245696 Zr
    velocity -0.3511778613735087 0.8445151923787885 -0.3442101950284735
atom 2.5488052039886275 10.1952584723019353 7.8354374504255695 Zr
    velocity -0.0807136721113429 0.2210373278860555 0.4496320812396676
atom 5.0976099002976270 2.5488146025689384 7.8354375404325696 Zr
    velocity 0.7409741051376831 0.2457603669280377 -0.5141013345645683
atom 1.2744024515736083 1.2744073718773856 1.0024190245136309 O
    velocity -0.7173351048581611 -1.0900487432541397 0.3384507432113150
atom 3.8232073791666079 3.8232220722163857 1.0024190328146307 O
    velocity 0.2955771697818828 0.2376046781963508 -0.9101109139042367
atom 6.3720123067596077 6.3720367725553846 1.0024190411156308 O
    velocity 0.9186907468286528 -0.8622434203603906 -0.6217053436348030
atom 8.9208172343526080 8.9208514728943840 1.0024190494166307 O
    velocity 0.5699968744522811 -0.4507681834213865 -1.3717484249004512
atom 8.9208171187106071 3.8232221878583856 1.0024190902696308 O
    velocity 0.9039120838938199 -0.6852201683026883 -0.0888171678286250
atom 1.2744025672156083 6.3720366569133855 1.0024189836606308 O
    velocity -0.7105190411731240 -1.5202529784028480 1.6423892430618183
atom 3.8232074948086079 8.9208513572523866 1.0024189919616309 O
    velocity 0.2584252876897285 0.6571491773304042 -0.0414597641638274
atom 6.3720121911176069 1.2744074875193858 1.0024190819686307 O
    velocity 1.0187708457666849 0.1538333356944292 -0.5315551397653148
atom 1.2744025102856082 1.2744073301303855 6.2260440208176311 O
    velocity -0.8371043606712391 0.6027103073717811 1.0506917809343830
atom 3.8232074378786081 3.8232220304693865 6.2260440291186310 O
    velocity -0.4164006631214160 -0.2609047721010504 -1.4993923575524148
atom 6.3720123654716074 6.3720367308083841 6.2260440374196282 O
    velocity -0.3104202675301801 -1.3747384623986376 -0.4013355035625877
atom 8.9208172930646086 8.9208514311473852 6.2260440457206290 O
    velocity 0.1567008409377279 -0.3252375156668688 1.3696528802901755
atom 8.9208171774226077 3.8232221461113864 6.2260440865736282 O
    velocity 0.1424809686720233 0.9117656718427121 -0.0173076438733991
atom 1.2744026259276082 6.3720366151663841 6.2260439799646310 O
    velocity 0.1164764111973743 0.4926736704503942 -0.3608944375602094
atom 3.8232075535206080 8.9208513155053879 6.2260439882656282 O
    velocity -0.3876504897229543 -0.3695144805090953 0.5552553366202613
atom 6.3720122498296066 1.2744074457723857 6.2260440782726310 O
    velocity 0.6190338598275920 0.1508212385507824 1.1101104293433925
atom 1.2744025328003397 1.2744073262829310 3.6142318818368619 O
    velocity -1.2034639227008288 0.1912644611226478 1.1160375842682742
atom 3.8232074603933399 3.8232220266219321 3.6142318901378605 O
    velocity 0.4189346221425009 -1.1298961231142370 0.1980151372299530
atom 6.3720123879863388 6.3720367269609302 3.6142318984388608 O
    velocity 0.6338163945752980 -1.2379412016156526 0.4295620404838957
atom 8.9208173155793382 8.9208514272999295 3.6142319067398607 O
    velocity 0.4322580200799707 -1.5362287825717968 0.0725868697310967
atom 8.9208171999373391 3.8232221422639321 3.6142319475928608 O
    velocity -0.0158365065342719 -0.9278869123184422 0.0621489279417168
atom 1.2744026484423396 6.3720366113189302 3.6142318409838605 O
    velocity 1.4374904301393052 -0.0619002695778629 0.6675831504588778
atom 3.8232075760353399 8.9208513116579340 3.6142318492848604 O
    velocity 1.5202828549126006 -1.0763225049398193 0.8407672521986918
atom 6.3720122723443389 1.2744074419249318 3.6142319392918605 O
    velocity 0.0100010166162528 0.2415225963951469 0.0818662609828239
atom 1.2744025915123398 1.2744072845359309 8.8378568781408617 O
    velocity -0.1212280894420642 0.2980741097893606 -0.8054476189095929
atom 3.8232075191053396 3.8232219848749307 8.8378568864418625 O
    velocity -0.4681633083689501 0.5175520160166484 -0.7592955618051946
atom 6.3720124466983394 6.3720366852139296 8.8378568947428615 O
    velocity 0.6949050438212950 -0.4757339854216686 -0.3547948443998564
atom 8.9208173742913388 8.9208513855529290 8.8378569030438587 O
    velocity 0.3505478260179108 -0.0501633586304835 -0.5561376088057274
atom 8.9208172586493397 3.8232221005169307 8.8378569438968615 O
    velocity -0.8999585614249471 0.8777340714736783 -0.6992731306747684
atom 1.2744027071543398 6.3720365695719297 8.8378568372878625 O
    velocity 0.6737463096583576 -0.7731957004083346 0.9952377712564121
atom 3.8232076347473396 8.9208512699109299 8.8378568455888615 O
    velocity 0.7981242295427924 -0.1421701755800154 0.7899990466371668
atom 6.3720123310563395 1.2744074001779317 8.8378569355958625 O
    velocity 0.9230950909765755 -0.1523760905645375 -0.8505287499505648
atom 8.9208170733548702 1.2744075145374438 1.6093931900202196 O
    velocity 0.0764069886625259 0.9690695490313621 -1.0600164889707107
atom 1.2744025218598707 3.8232219835924428 1.6093930834112196 O
    velocity -0.3365694023540146 0.2548058667667522 -0.9736804024918475
atom 3.8232074494528705 6.3720366839314426 1.6093930917122194 O
    velocity -0.0348846232546510 -0.7089580814325820 1.4611851920065693
atom 6.3720123770458708 8.9208513842704420 1.6093931000132196 O
    velocity -0.3355083341093245 -0.6361798693920305 -0.0905555765184374
atom 6.3720122614038708 3.8232220992344428 1.6093931408662194 O
    velocity 0.7964144845517147 0.4794724983968042 -0.2729141444907339
atom 8.9208171889968693 6.3720367995734426 1.6093931491672195 O
    velocity 1.0176620121071003 -0.5277995761018391 1.1424445586076242
atom 1.2744026375018709 8.9208512686284411 1.6093930425582195 O
    velocity -0.6205236709806951 0.3286908570669088 1.9538097271146773
atom 3.8232073338108705 1.2744073988954427 1.6093931325652195 O
    velocity -0.2724184999301048 -0.5486092785104154 -0.0150019573807036
atom 8.9208171320668708 1.2744074727904438 6.8330181863242210 O
    velocity 0.5664950327487212 0.0722198418361333 -0.3374272945460016
atom 1.2744025805718706 3.8232219418454427 6.8330180797152194 O
    velocity 0.0336574586358846 -0.0748880667479262 0.0480761372750036
atom 3.8232075081648702 6.3720366421844430 6.8330180880162210 O
    velocity -0.5405438746106233 0.6799811269470222 -0.1983491441469716
atom 6.3720124357578705 8.9208513425234468 6.8330180963172182 O
    velocity 0.3500577405135257 -0.3622068619070327 -0.0234592401784373
atom 6.3720123201158705 3.8232220574874427 6.8330181371702210 O
    velocity 0.2951993983744698 0.2654221001313936 -1.3143029654240672
atom 8.9208172477088699 6.3720367578264430 6.8330181454712182 O
    velocity -0.6392633277061732 1.2142864343443032 -0.2759859571345269
atom 1.2744026962138708 8.9208512268814424 6.8330180388622210 O
    velocity 0.6230045746287124 0.1557362949435232 0.3539044306368331
atom 3.8232073925228702 1.2744073571484427 6.8330181288692193 O
    velocity -0.5163546486634216 0.7886393322748715 -0.3079738725092026
atom 8.9208171446055804 1.2744075206278507 4.2212060890279774 O
    velocity 0.3399535259731986 -0.9896003436215657 -0.9658779302598655
atom 1.2744025931105816 3.8232219896828505 4.2212059824189776 O
    velocity 0.4369023696873209 -1.3287030772809310 0.3125604225897319
atom 3.8232075207035812 6.3720366900218535 4.2212059907199775 O
    velocity -0.9280600250662074 -0.2089457761394583 -0.3226234345105141
atom 6.3720124482965810 8.9208513903608520 4.2212059990209783 O
    velocity 0.4987132469385429 0.0859597526626138 -0.2205585067224732
atom 6.3720123326545810 3.8232221053248505 4.2212060398739775 O
    velocity 0.1742861993054157 -0.0184480109284218 -1.5067796565159020
atom 8.9208172602475813 6.3720368056638534 4.2212060481749782 O
    velocity 0.8402314377543850 -0.0459716562085953 -0.0455252335472478
atom 1.2744027087525815 8.9208512747188546 4.2212059415659775 O
    velocity -0.5177446833853672 0.1756795233921770 1.2187195661569714
atom 3.8232074050615812 1.2744074049858529 4.2212060315729776 O
    velocity 0.3181122121680496 -0.2884307417147536 -0.0207984555010012
atom 8.9208172033175792 1.2744074788808506 9.4448310853319768 O
    velocity -0.4355573925742296 0.4608132197963248 -0.2708070747954735
atom 1.2744026518225815 3.8232219479358522 9.4448309787229743 O
    velocity 0.1919213660841303 0.7802259107310600 -0.6004021348294435
atom 3.8232075794155813 6.3720366482748512 9.4448309870239768 O
    velocity 0.5288510029248795 -1.9409767621713008 0.9400532767167040
atom 6.3720125070085816 8.9208513486138514 9.4448309953249758 O
    velocity -0.4275890623696836 0.6457556626268018 -0.0777273153576286
atom 6.3720123913665816 3.8232220635778522 9.4448310361779768 O
    velocity -1.3260542276483458 0.3664940167956579 0.2586838025723993
atom 8.9208173189595801 6.3720367639168511 9.4448310444789758 O
    velocity -0.3160462187606325 -1.7506907250782686 -0.4587458952844780
atom 1.2744027674645815 8.9208512329718488 9.4448309378699769 O
    velocity 0.3319961760955827 0.1945948639084478 -0.4432878419832895
atom 3.8232074637735813 1.2744073632388528 9.4448310278769743 O
    velocity -0.8362417186400959 -0.4717362546956403 -1.2419563878235023
