#=======================================================
# FHI-aims file: starting_geometries/geometry_2400_1.in
# Created using the Atomic Simulation Environment (ASE)
# Wed Jan 13 17:56:52 2021

# Additional information:
# starting geometry from CC, T=2400, ens=1
#=======================================================
lattice_vector 10.1515389999999996 0.0000000000000000 0.0000000000000000 
lattice_vector 0.0000000000000000 10.1515500000000003 0.0000000000000000 
lattice_vector 0.0000000000000000 0.0000000000000000 10.3735759999999999 
atom_frac 0.5322389462326845 0.9636014716964405 0.5947460142963236 Zr
    velocity -3.1106787359715842 5.7474064075272757 4.6439577076220635
atom_frac 0.0479626803384196 0.9310510926902789 0.5919016894463394 Zr
    velocity 10.1682539612092260 3.5478250767921629 0.9820383369571258
atom_frac 0.5053181818047491 0.4228533888913515 0.6019256927408639 Zr
    velocity 4.0220776075022560 1.4403950170946984 0.6437333864729593
atom_frac 0.0215385273109821 0.4439938649762844 0.5575712039898295 Zr
    velocity -1.0869029318301162 -4.1725214648842508 5.5824004414085122
atom_frac 0.5491422935970596 0.9219644714353966 0.0410969929752286 Zr
    velocity 8.3774417238755099 2.2527367407153931 -0.8039042894924713
atom_frac 0.0540617437415154 0.9196336914067310 0.0654207873928913 Zr
    velocity -5.3348632318386171 1.7550433377685977 1.9618511192036552
atom_frac 0.5163946579922513 0.4253099221301180 0.0646646556597262 Zr
    velocity -2.0958061305259812 -4.4769301503878536 -7.4927950180207548
atom_frac 0.0656082885560505 0.4680029581689496 0.0738655927329206 Zr
    velocity -3.3513202259115764 -1.5512135008057120 2.9580738954160801
atom_frac 0.5159667731168645 0.1869527106697992 0.8464653269036636 Zr
    velocity -2.1350566452257289 7.4585930952096540 -7.9343096401282924
atom_frac 0.0578443642880158 0.1676693775827337 0.8233057722814197 Zr
    velocity -7.4725844856000894 -3.0016759991878663 1.7045232534407917
atom_frac 0.5238408205888783 0.7023973146957854 0.8033483159519917 Zr
    velocity 4.6988604974400712 -4.1318604648219184 5.6725619101962517
atom_frac 0.0541875522519295 0.7087199009018327 0.8345792058591945 Zr
    velocity 4.4448101759942000 -1.2009058416522667 -0.4471806010520409
atom_frac 0.5818447793974885 0.1941328536036369 0.3320538992532566 Zr
    velocity 1.9774026066899810 -0.1927281300059288 -4.5528100682303760
atom_frac 0.9997159425777707 0.1763101506666470 0.3424539406661695 Zr
    velocity -0.4098239316098587 5.1164263522006301 -8.6235578810401847
atom_frac 0.5291381543232018 0.6967439464909300 0.3280031215850734 Zr
    velocity 0.1535426412214197 4.5553515460642080 -0.2548553839081972
atom_frac 0.0592813483748622 0.6823492560249420 0.3320189710857663 Zr
    velocity -1.5552407033111169 -3.2856702494560408 -3.9147553545766751
atom_frac 0.7826228890023473 0.9406237993212859 0.8232094284555297 Zr
    velocity 2.8182833009988677 4.3199997057220978 -4.8615535618424683
atom_frac 0.2894226638936225 0.9516209465549597 0.8496051284532932 Zr
    velocity -0.4813937245552966 -0.3717726737842873 0.8620828488172634
atom_frac 0.7582299757701764 0.4497510133920435 0.8358584667428088 Zr
    velocity -0.3962802908993859 -5.9320529094902819 4.5117118599485400
atom_frac 0.2697547928447105 0.4381004644610922 0.8179689809955603 Zr
    velocity 1.4697598962096536 2.6341983217588383 -4.5996507651415914
atom_frac 0.7883000991278269 0.9273978426939729 0.3210566346648446 Zr
    velocity 4.1308695142484257 2.3984672175066737 -3.1142325107493019
atom_frac 0.3090831035570075 0.9420072373184392 0.3024584376689388 Zr
    velocity -10.2640943984872273 -3.3983732271556519 -0.7453258435112331
atom_frac 0.8017475764019624 0.4562174219700440 0.3149831552783726 Zr
    velocity 7.1309625730538366 -0.1949821153867635 -1.4427834490403966
atom_frac 0.3135996177525399 0.4423370943353478 0.3169459750427432 Zr
    velocity 0.8224137582442316 -6.7361490911997608 4.0845175001268990
atom_frac 0.7596005768189436 0.2006790145347262 0.5919097512757413 Zr
    velocity -0.8768492979377630 3.5452655613420920 4.2951177064199753
atom_frac 0.2597186466012690 0.1939565081194498 0.5504558919701363 Zr
    velocity -2.7768209976026461 5.0747401789653512 -4.1707625907522177
atom_frac 0.7743221091895526 0.6871754668006363 0.5949642379831217 Zr
    velocity -1.4266110423112179 -3.7561348902797067 -1.2006981775500472
atom_frac 0.2770615007241760 0.7112044801040235 0.5779120816196844 Zr
    velocity -0.1772885870833550 -6.7047457697270856 3.6029687126625207
atom_frac 0.8200223118878822 0.1743097753545025 0.0653915187973752 Zr
    velocity 2.1483514362938023 -9.9435994363385500 1.3115170698231784
atom_frac 0.2526349472725269 0.1961986248405416 0.1084432407879404 Zr
    velocity 2.8164087940785469 -9.4968270202678440 -2.2531850337339168
atom_frac 0.8048698202311986 0.6885340455398437 0.0742924407166825 Zr
    velocity 0.5316083686951821 -10.4223307982686677 -1.0676996357855522
atom_frac 0.3157980390953530 0.6942494958897902 0.0814363002690683 Zr
    velocity -3.1539247727718234 3.9721771947432143 3.4703248228055150
atom_frac 0.7007637442953232 0.0543561209864503 0.6951968414749167 O
    velocity -11.4007226623675564 15.9164923707522590 -2.6567427373712897
atom_frac 0.1786033989526120 0.0468770512877344 0.7171038029701619 O
    velocity -5.2986873580224962 14.3567491072964692 -16.2512946062661960
atom_frac 0.6544028348805044 0.5339347065226492 0.6720487380629399 O
    velocity -3.6511518349725880 7.9582957734146680 27.2428298516811189
atom_frac 0.1520168291724043 0.5861115573483853 0.6781760532722756 O
    velocity -2.5228067002003871 -20.3480962514983226 10.6907176213740573
atom_frac 0.6378668889515177 0.0641686205554817 0.1742414245579345 O
    velocity 24.8488069492860291 23.1880622170604660 9.5079884714292806
atom_frac 0.1752837318558300 0.0847677655136408 0.2379427981247740 O
    velocity 16.7983835897994744 6.8552734673114326 -9.5916213182752426
atom_frac 0.6689861616056443 0.5497124084499412 0.1618615634569988 O
    velocity -22.6909044170979435 15.6622649021447078 16.4663894246400773
atom_frac 0.1605029936840119 0.6286490378316612 0.1752212236166198 O
    velocity -12.6137678737961139 4.9163019806989938 5.6694765213563363
atom_frac 0.6667398884050980 0.0586276509498550 0.9497498259038155 O
    velocity -14.7536238637504429 3.4154964637252005 9.0457158677192098
atom_frac 0.1604887081653334 0.0696187133984465 0.9757853694810737 O
    velocity 25.4881621656506958 6.0708557514654782 -3.2011361227787543
atom_frac 0.6147032169210994 0.5718004068344243 0.9249401431097627 O
    velocity 14.4492920877168736 3.6618285469860865 20.0940380682579516
atom_frac 0.1528157188776993 0.5566323674709773 0.9458910504921350 O
    velocity 1.7016609887148362 -14.4319392703942366 -3.0557226902646244
atom_frac 0.5555072122561909 0.1385380439440282 0.5230591254163462 O
    velocity 11.9362097295582625 -12.1202551106746483 -13.7645528632838214
atom_frac 0.1102320150668780 0.0771421290344824 0.4858138360387970 O
    velocity 1.6734470006707443 -4.1025320812643224 13.0136953085481650
atom_frac 0.6511677086597413 0.6501816835852653 0.4544462844828051 O
    velocity 21.8396569085195829 1.1187392945540635 6.8264520150952510
atom_frac 0.1683612593125043 0.5485069688865247 0.4371562053432683 O
    velocity -1.2620063675908724 17.3069679606949016 -4.3224144762907191
atom_frac 0.9459316474083388 0.0957337992720323 0.6965461177514870 O
    velocity -22.2067857953281553 -1.2667150365272821 -16.4056370873680777
atom_frac 0.4215800156015753 0.0574567085814482 0.7498946072212707 O
    velocity -18.2118569166392454 -2.6122512246362612 -20.6623250446009052
atom_frac 0.8838140591293596 0.5723340869128359 0.7584773871613800 O
    velocity -8.5639684510122294 -21.8451098751899337 10.4679345657602809
atom_frac 0.3854790293373251 0.5590762454994558 0.6981479732736330 O
    velocity 23.6844846552887276 0.6561495137498847 -8.8673859050361195
atom_frac 0.8836029128194258 0.0432549955425526 0.1976653692034454 O
    velocity -9.5163761208756465 -7.9236839772921890 -10.8735651694440847
atom_frac 0.3983831003358211 0.1260703301466279 0.2628128390826847 O
    velocity 10.7515565115373750 -22.4953712430485098 -2.7323853110155691
atom_frac 0.9376179818646219 0.5672899163181977 0.2225812256062904 O
    velocity 12.8919091960191263 -30.9566651461581799 15.6929412344066446
atom_frac 0.4160775247969791 0.5685229359063394 0.1881157230640620 O
    velocity -2.7268106446048721 2.8490422543825309 9.6522390608930912
atom_frac 0.9317442537530518 0.0512704522954623 0.9400238538764261 O
    velocity -9.2211246839138390 5.7663210226759949 1.3214712711504923
atom_frac 0.3878845138653361 0.0665069216031050 0.9793907645733736 O
    velocity -24.2859109997540763 4.9228060471906741 -2.4555561469842515
atom_frac 0.8698580727513338 0.5464788894306781 0.9888711240945262 O
    velocity 0.9400231779899221 3.2208215614794575 -12.3756222409743355
atom_frac 0.3993130184497149 0.5593450911437170 0.9265766019355332 O
    velocity 7.1510361999947003 -7.0660993242395316 -0.4907547365863790
atom_frac 0.8616883183919207 0.1092711014574129 0.4565961101552637 O
    velocity 11.8904760721448355 -9.4687600912378560 -16.3349112235418588
atom_frac 0.3483150929134982 0.0082557648831952 0.5180332568055606 O
    velocity -18.9524704682095901 2.5073067238045073 -11.5863661670944165
atom_frac 0.9242338151880224 0.5875685190931434 0.4515644884656939 O
    velocity 18.5614928574138283 17.4745422385245313 16.1083783006332375
atom_frac 0.4143495227669421 0.5509118459742601 0.4397927079340817 O
    velocity 12.6304933982084595 4.1240618470955424 -10.2861171262451432
atom_frac 0.6159983151323164 0.2932416960956701 0.7313433776356388 O
    velocity -0.1806966087290329 28.8333829903500458 19.2283577929810043
atom_frac 0.0947797530995054 0.3269718407533825 0.6875642941257673 O
    velocity 5.1716258956444676 -13.8563639898036737 18.9906093933701960
atom_frac 0.6549248473556571 0.8223399323256054 0.6937994390748186 O
    velocity 8.9173315419140611 8.4316680020484593 -6.5431469165846927
atom_frac 0.1565617607340128 0.8086557944353325 0.7199076200916636 O
    velocity 8.2917766503413795 2.5245309571928312 -8.0415888128934832
atom_frac 0.7957685903585654 0.2896668370839921 0.2438275961924798 O
    velocity -8.7272508308250210 24.9380152505751873 16.4980709056735293
atom_frac 0.2641467426761598 0.4023333658406844 0.1295426639762412 O
    velocity -2.9105170837736574 -7.8791724299390120 -16.9269261980116887
atom_frac 0.6834003415639738 0.8261950441065650 0.1695279679832682 O
    velocity -9.4226878307884867 16.9910739294104047 -23.0474044640814668
atom_frac 0.2169996352277226 0.8547264910284637 0.1613364108963004 O
    velocity -9.9735788359572073 23.4923110931227832 23.9653419818862048
atom_frac 0.6581876531233344 0.2927641315858169 0.0431350288463689 O
    velocity 7.3894039454783229 -5.0832768809181621 -0.7142787268826838
atom_frac 0.1538369502397617 0.3113577768912137 0.9342069793482980 O
    velocity 13.1154622834443035 -2.5164726409512257 9.5840636298808164
atom_frac 0.6524949507655934 0.7930927355921017 0.9283797525559171 O
    velocity 7.4415144103116155 0.0743754515363582 7.6264235357617558
atom_frac 0.1783441791436747 0.8187542207840183 0.9428271812921600 O
    velocity -16.1429718684347456 21.6085877083283968 3.5998740777195253
atom_frac 0.6613001831544951 0.3479677320212184 0.4583264903057537 O
    velocity 0.9823642307405832 -9.6621083769168035 3.9283215380496039
atom_frac 0.1752775012734523 0.2863254567036561 0.3761920007141221 O
    velocity -18.8523064118578780 4.6945058878432073 9.5262046839696488
atom_frac 0.6029854015238478 0.8898869394328945 0.3959833166499190 O
    velocity 5.2802463970078701 12.2456021448102987 14.1797692129199682
atom_frac 0.1358706950739194 0.8228215838960553 0.4547030349032966 O
    velocity -4.3572254497542255 6.8380996021973655 -14.9654174219797351
atom_frac 0.8569858284541882 0.3665877516241363 0.6331485381704438 O
    velocity -16.8825879851413490 12.9973664456135545 -10.5201057640590125
atom_frac 0.3493526666252280 0.2968814781979107 0.7198914154578903 O
    velocity 7.2168636010086011 -6.1868208920022933 1.1142561806874993
atom_frac 0.9112712496105272 0.8233035565997311 0.7042883958241594 O
    velocity 17.6591570552295636 9.0933425552171627 -8.4076267088609757
atom_frac 0.4188840194575424 0.8293871546709616 0.6731690084499309 O
    velocity -14.3721287821854204 7.1775047163479710 -9.2513263407740265
atom_frac 0.0209621713515557 0.2516836709665026 0.1532936202520712 O
    velocity 15.1830799820919307 -7.2628020143829843 -9.5570994956752902
atom_frac 0.4749903083660518 0.3367537686363166 0.2442990700603148 O
    velocity -4.3486225893798363 14.7552564872638019 1.7980138914724586
atom_frac 0.9149524668131601 0.8059254468529436 0.2091328024203033 O
    velocity -6.1371250377801507 -8.5313530129467328 8.0865978870736068
atom_frac 0.4392616823912118 0.8213191079194804 0.1710894015718398 O
    velocity -17.2946052907471568 13.8512309674039376 11.0985028681074525
atom_frac 0.8757255742208153 0.2852148351729539 0.8836992518298415 O
    velocity -5.6925804523677490 0.3190318139848399 12.0103464636322812
atom_frac 0.4050243258682255 0.3088197093054755 0.9494653868637005 O
    velocity -1.9933129041828326 -7.7066233093338834 0.1657490790217706
atom_frac 0.9094292954004315 0.8179790554151830 0.9532505242165286 O
    velocity -3.3246603494368303 -1.7223062835503280 -13.2910923113779837
atom_frac 0.3999182173264567 0.8052728223768785 0.9090990561017723 O
    velocity -5.1804277890881956 0.9050638752427967 5.4800080026972973
atom_frac 0.9736575055269946 0.3445846900227059 0.4186077163747583 O
    velocity -25.0839102602248332 2.7133559062106345 4.7532036337879493
atom_frac 0.3615861486617941 0.3397298008678478 0.5043296101556494 O
    velocity -11.9021703509662871 9.1092162956376903 0.9371035224165853
atom_frac 0.8865858359013348 0.8536883362639203 0.4628914108307491 O
    velocity 5.6205509066794530 -9.3127736734414537 8.6659394068415914
atom_frac 0.3434865206152486 0.7777756884416666 0.3935882920219604 O
    velocity -3.6159768901276261 -5.7757099088322761 -2.0394473334896284