#=======================================================
# FHI-aims file: 1400_geometry.in.primitive.supercell_2592
# Created using the Atomic Simulation Environment (ASE)
# Mon Oct 31 16:17:54 2022

# Additional information:
#  Number of atoms:     2592
#  Spacegroup:          137
#  supercell:           True
#  supercell_matrix:    [6, 0, 0, 0, 6, 0, 0, 0, 6]
#  Supercell matrix:    [6 0 0 0 6 0 0 0 6]
#=======================================================
lattice_vector 30.8950549450549516 0.0000000000000000 0.0000000000000000 
lattice_vector 0.0000000000000000 30.8950549450549516 0.0000000000000000 
lattice_vector 0.0000000000000000 0.0000000000000000 31.6664835164835168 
atom_frac 0.0833333333333333 0.0000000000000000 0.0000000000000000 Zr
atom_frac 0.2500000000000000 0.0000000000000000 0.0000000000000000 Zr
atom_frac 0.4166666666666666 0.0000000000000000 0.0000000000000000 Zr
atom_frac 0.5833333333333333 0.0000000000000000 0.0000000000000000 Zr
atom_frac 0.7500000000000000 0.0000000000000000 0.0000000000000000 Zr
atom_frac 0.9166666666666665 0.0000000000000000 0.0000000000000000 Zr
atom_frac 0.0833333333333333 0.1666666666666667 0.0000000000000000 Zr
atom_frac 0.2500000000000000 0.1666666666666667 0.0000000000000000 Zr
atom_frac 0.4166666666666666 0.1666666666666667 0.0000000000000000 Zr
atom_frac 0.5833333333333333 0.1666666666666667 0.0000000000000000 Zr
atom_frac 0.7500000000000000 0.1666666666666667 0.0000000000000000 Zr
atom_frac 0.9166666666666665 0.1666666666666667 0.0000000000000000 Zr
atom_frac 0.0833333333333333 0.3333333333333333 0.0000000000000000 Zr
atom_frac 0.2500000000000000 0.3333333333333333 0.0000000000000000 Zr
atom_frac 0.4166666666666666 0.3333333333333333 0.0000000000000000 Zr
atom_frac 0.5833333333333333 0.3333333333333333 0.0000000000000000 Zr
atom_frac 0.7500000000000000 0.3333333333333333 0.0000000000000000 Zr
atom_frac 0.9166666666666665 0.3333333333333333 0.0000000000000000 Zr
atom_frac 0.0833333333333333 0.4999999999999999 0.0000000000000000 Zr
atom_frac 0.2500000000000000 0.4999999999999999 0.0000000000000000 Zr
atom_frac 0.4166666666666666 0.4999999999999999 0.0000000000000000 Zr
atom_frac 0.5833333333333333 0.4999999999999999 0.0000000000000000 Zr
atom_frac 0.7500000000000000 0.4999999999999999 0.0000000000000000 Zr
atom_frac 0.9166666666666665 0.4999999999999999 0.0000000000000000 Zr
atom_frac 0.0833333333333333 0.6666666666666666 0.0000000000000000 Zr
atom_frac 0.2500000000000000 0.6666666666666666 0.0000000000000000 Zr
atom_frac 0.4166666666666666 0.6666666666666666 0.0000000000000000 Zr
atom_frac 0.5833333333333333 0.6666666666666666 0.0000000000000000 Zr
atom_frac 0.7500000000000000 0.6666666666666666 0.0000000000000000 Zr
atom_frac 0.9166666666666665 0.6666666666666666 0.0000000000000000 Zr
atom_frac 0.0833333333333333 0.8333333333333331 0.0000000000000000 Zr
atom_frac 0.2500000000000000 0.8333333333333331 0.0000000000000000 Zr
atom_frac 0.4166666666666666 0.8333333333333331 0.0000000000000000 Zr
atom_frac 0.5833333333333333 0.8333333333333331 0.0000000000000000 Zr
atom_frac 0.7500000000000000 0.8333333333333331 0.0000000000000000 Zr
atom_frac 0.9166666666666665 0.8333333333333331 0.0000000000000000 Zr
atom_frac 0.0833333333333333 0.0000000000000000 0.1666666666666667 Zr
atom_frac 0.2500000000000000 0.0000000000000000 0.1666666666666667 Zr
atom_frac 0.4166666666666666 0.0000000000000000 0.1666666666666667 Zr
atom_frac 0.5833333333333333 0.0000000000000000 0.1666666666666667 Zr
atom_frac 0.7500000000000000 0.0000000000000000 0.1666666666666667 Zr
atom_frac 0.9166666666666665 0.0000000000000000 0.1666666666666667 Zr
atom_frac 0.0833333333333333 0.1666666666666667 0.1666666666666667 Zr
atom_frac 0.2500000000000000 0.1666666666666667 0.1666666666666667 Zr
atom_frac 0.4166666666666666 0.1666666666666667 0.1666666666666667 Zr
atom_frac 0.5833333333333333 0.1666666666666667 0.1666666666666667 Zr
atom_frac 0.7500000000000000 0.1666666666666667 0.1666666666666667 Zr
atom_frac 0.9166666666666665 0.1666666666666667 0.1666666666666667 Zr
atom_frac 0.0833333333333333 0.3333333333333333 0.1666666666666667 Zr
atom_frac 0.2500000000000000 0.3333333333333333 0.1666666666666667 Zr
atom_frac 0.4166666666666666 0.3333333333333333 0.1666666666666667 Zr
atom_frac 0.5833333333333333 0.3333333333333333 0.1666666666666667 Zr
atom_frac 0.7500000000000000 0.3333333333333333 0.1666666666666667 Zr
atom_frac 0.9166666666666665 0.3333333333333333 0.1666666666666667 Zr
atom_frac 0.0833333333333333 0.4999999999999999 0.1666666666666667 Zr
atom_frac 0.2500000000000000 0.4999999999999999 0.1666666666666667 Zr
atom_frac 0.4166666666666666 0.4999999999999999 0.1666666666666667 Zr
atom_frac 0.5833333333333333 0.4999999999999999 0.1666666666666667 Zr
atom_frac 0.7500000000000000 0.4999999999999999 0.1666666666666667 Zr
atom_frac 0.9166666666666665 0.4999999999999999 0.1666666666666667 Zr
atom_frac 0.0833333333333333 0.6666666666666666 0.1666666666666667 Zr
atom_frac 0.2500000000000000 0.6666666666666666 0.1666666666666667 Zr
atom_frac 0.4166666666666666 0.6666666666666666 0.1666666666666667 Zr
atom_frac 0.5833333333333333 0.6666666666666666 0.1666666666666667 Zr
atom_frac 0.7500000000000000 0.6666666666666666 0.1666666666666667 Zr
atom_frac 0.9166666666666665 0.6666666666666666 0.1666666666666667 Zr
atom_frac 0.0833333333333333 0.8333333333333331 0.1666666666666667 Zr
atom_frac 0.2500000000000000 0.8333333333333331 0.1666666666666667 Zr
atom_frac 0.4166666666666666 0.8333333333333331 0.1666666666666667 Zr
atom_frac 0.5833333333333333 0.8333333333333331 0.1666666666666667 Zr
atom_frac 0.7500000000000000 0.8333333333333331 0.1666666666666667 Zr
atom_frac 0.9166666666666665 0.8333333333333331 0.1666666666666667 Zr
atom_frac 0.0833333333333333 0.0000000000000000 0.3333333333333333 Zr
atom_frac 0.2500000000000000 0.0000000000000000 0.3333333333333333 Zr
atom_frac 0.4166666666666666 0.0000000000000000 0.3333333333333333 Zr
atom_frac 0.5833333333333333 0.0000000000000000 0.3333333333333333 Zr
atom_frac 0.7500000000000000 0.0000000000000000 0.3333333333333333 Zr
atom_frac 0.9166666666666665 0.0000000000000000 0.3333333333333333 Zr
atom_frac 0.0833333333333333 0.1666666666666667 0.3333333333333333 Zr
atom_frac 0.2500000000000000 0.1666666666666667 0.3333333333333333 Zr
atom_frac 0.4166666666666666 0.1666666666666667 0.3333333333333333 Zr
atom_frac 0.5833333333333333 0.1666666666666667 0.3333333333333333 Zr
atom_frac 0.7500000000000000 0.1666666666666667 0.3333333333333333 Zr
atom_frac 0.9166666666666665 0.1666666666666667 0.3333333333333333 Zr
atom_frac 0.0833333333333333 0.3333333333333333 0.3333333333333333 Zr
atom_frac 0.2500000000000000 0.3333333333333333 0.3333333333333333 Zr
atom_frac 0.4166666666666666 0.3333333333333333 0.3333333333333333 Zr
atom_frac 0.5833333333333333 0.3333333333333333 0.3333333333333333 Zr
atom_frac 0.7500000000000000 0.3333333333333333 0.3333333333333333 Zr
atom_frac 0.9166666666666665 0.3333333333333333 0.3333333333333333 Zr
atom_frac 0.0833333333333333 0.4999999999999999 0.3333333333333333 Zr
atom_frac 0.2500000000000000 0.4999999999999999 0.3333333333333333 Zr
atom_frac 0.4166666666666666 0.4999999999999999 0.3333333333333333 Zr
atom_frac 0.5833333333333333 0.4999999999999999 0.3333333333333333 Zr
atom_frac 0.7500000000000000 0.4999999999999999 0.3333333333333333 Zr
atom_frac 0.9166666666666665 0.4999999999999999 0.3333333333333333 Zr
atom_frac 0.0833333333333333 0.6666666666666666 0.3333333333333333 Zr
atom_frac 0.2500000000000000 0.6666666666666666 0.3333333333333333 Zr
atom_frac 0.4166666666666666 0.6666666666666666 0.3333333333333333 Zr
atom_frac 0.5833333333333333 0.6666666666666666 0.3333333333333333 Zr
atom_frac 0.7500000000000000 0.6666666666666666 0.3333333333333333 Zr
atom_frac 0.9166666666666665 0.6666666666666666 0.3333333333333333 Zr
atom_frac 0.0833333333333333 0.8333333333333331 0.3333333333333333 Zr
atom_frac 0.2500000000000000 0.8333333333333331 0.3333333333333333 Zr
atom_frac 0.4166666666666666 0.8333333333333331 0.3333333333333333 Zr
atom_frac 0.5833333333333333 0.8333333333333331 0.3333333333333333 Zr
atom_frac 0.7500000000000000 0.8333333333333331 0.3333333333333333 Zr
atom_frac 0.9166666666666665 0.8333333333333331 0.3333333333333333 Zr
atom_frac 0.0833333333333333 0.0000000000000000 0.5000000000000000 Zr
atom_frac 0.2500000000000000 0.0000000000000000 0.5000000000000000 Zr
atom_frac 0.4166666666666666 0.0000000000000000 0.5000000000000000 Zr
atom_frac 0.5833333333333333 0.0000000000000000 0.5000000000000000 Zr
atom_frac 0.7500000000000000 0.0000000000000000 0.5000000000000000 Zr
atom_frac 0.9166666666666665 0.0000000000000000 0.5000000000000000 Zr
atom_frac 0.0833333333333333 0.1666666666666667 0.5000000000000000 Zr
atom_frac 0.2500000000000000 0.1666666666666667 0.5000000000000000 Zr
atom_frac 0.4166666666666666 0.1666666666666667 0.5000000000000000 Zr
atom_frac 0.5833333333333333 0.1666666666666667 0.5000000000000000 Zr
atom_frac 0.7500000000000000 0.1666666666666667 0.5000000000000000 Zr
atom_frac 0.9166666666666665 0.1666666666666667 0.5000000000000000 Zr
atom_frac 0.0833333333333333 0.3333333333333333 0.5000000000000000 Zr
atom_frac 0.2500000000000000 0.3333333333333333 0.5000000000000000 Zr
atom_frac 0.4166666666666666 0.3333333333333333 0.5000000000000000 Zr
atom_frac 0.5833333333333333 0.3333333333333333 0.5000000000000000 Zr
atom_frac 0.7500000000000000 0.3333333333333333 0.5000000000000000 Zr
atom_frac 0.9166666666666665 0.3333333333333333 0.5000000000000000 Zr
atom_frac 0.0833333333333333 0.4999999999999999 0.5000000000000000 Zr
atom_frac 0.2500000000000000 0.4999999999999999 0.5000000000000000 Zr
atom_frac 0.4166666666666666 0.4999999999999999 0.5000000000000000 Zr
atom_frac 0.5833333333333333 0.4999999999999999 0.5000000000000000 Zr
atom_frac 0.7500000000000000 0.4999999999999999 0.5000000000000000 Zr
atom_frac 0.9166666666666665 0.4999999999999999 0.5000000000000000 Zr
atom_frac 0.0833333333333333 0.6666666666666666 0.5000000000000000 Zr
atom_frac 0.2500000000000000 0.6666666666666666 0.5000000000000000 Zr
atom_frac 0.4166666666666666 0.6666666666666666 0.5000000000000000 Zr
atom_frac 0.5833333333333333 0.6666666666666666 0.5000000000000000 Zr
atom_frac 0.7500000000000000 0.6666666666666666 0.5000000000000000 Zr
atom_frac 0.9166666666666665 0.6666666666666666 0.5000000000000000 Zr
atom_frac 0.0833333333333333 0.8333333333333331 0.5000000000000000 Zr
atom_frac 0.2500000000000000 0.8333333333333331 0.5000000000000000 Zr
atom_frac 0.4166666666666666 0.8333333333333331 0.5000000000000000 Zr
atom_frac 0.5833333333333333 0.8333333333333331 0.5000000000000000 Zr
atom_frac 0.7500000000000000 0.8333333333333331 0.5000000000000000 Zr
atom_frac 0.9166666666666665 0.8333333333333331 0.5000000000000000 Zr
atom_frac 0.0833333333333333 0.0000000000000000 0.6666666666666666 Zr
atom_frac 0.2500000000000000 0.0000000000000000 0.6666666666666666 Zr
atom_frac 0.4166666666666666 0.0000000000000000 0.6666666666666666 Zr
atom_frac 0.5833333333333333 0.0000000000000000 0.6666666666666666 Zr
atom_frac 0.7500000000000000 0.0000000000000000 0.6666666666666666 Zr
atom_frac 0.9166666666666665 0.0000000000000000 0.6666666666666666 Zr
atom_frac 0.0833333333333333 0.1666666666666667 0.6666666666666666 Zr
atom_frac 0.2500000000000000 0.1666666666666667 0.6666666666666666 Zr
atom_frac 0.4166666666666666 0.1666666666666667 0.6666666666666666 Zr
atom_frac 0.5833333333333333 0.1666666666666667 0.6666666666666666 Zr
atom_frac 0.7500000000000000 0.1666666666666667 0.6666666666666666 Zr
atom_frac 0.9166666666666665 0.1666666666666667 0.6666666666666666 Zr
atom_frac 0.0833333333333333 0.3333333333333333 0.6666666666666666 Zr
atom_frac 0.2500000000000000 0.3333333333333333 0.6666666666666666 Zr
atom_frac 0.4166666666666666 0.3333333333333333 0.6666666666666666 Zr
atom_frac 0.5833333333333333 0.3333333333333333 0.6666666666666666 Zr
atom_frac 0.7500000000000000 0.3333333333333333 0.6666666666666666 Zr
atom_frac 0.9166666666666665 0.3333333333333333 0.6666666666666666 Zr
atom_frac 0.0833333333333333 0.4999999999999999 0.6666666666666666 Zr
atom_frac 0.2500000000000000 0.4999999999999999 0.6666666666666666 Zr
atom_frac 0.4166666666666666 0.4999999999999999 0.6666666666666666 Zr
atom_frac 0.5833333333333333 0.4999999999999999 0.6666666666666666 Zr
atom_frac 0.7500000000000000 0.4999999999999999 0.6666666666666666 Zr
atom_frac 0.9166666666666665 0.4999999999999999 0.6666666666666666 Zr
atom_frac 0.0833333333333333 0.6666666666666666 0.6666666666666666 Zr
atom_frac 0.2500000000000000 0.6666666666666666 0.6666666666666666 Zr
atom_frac 0.4166666666666666 0.6666666666666666 0.6666666666666666 Zr
atom_frac 0.5833333333333333 0.6666666666666666 0.6666666666666666 Zr
atom_frac 0.7500000000000000 0.6666666666666666 0.6666666666666666 Zr
atom_frac 0.9166666666666665 0.6666666666666666 0.6666666666666666 Zr
atom_frac 0.0833333333333333 0.8333333333333331 0.6666666666666666 Zr
atom_frac 0.2500000000000000 0.8333333333333331 0.6666666666666666 Zr
atom_frac 0.4166666666666666 0.8333333333333331 0.6666666666666666 Zr
atom_frac 0.5833333333333333 0.8333333333333331 0.6666666666666666 Zr
atom_frac 0.7500000000000000 0.8333333333333331 0.6666666666666666 Zr
atom_frac 0.9166666666666665 0.8333333333333331 0.6666666666666666 Zr
atom_frac 0.0833333333333333 0.0000000000000000 0.8333333333333333 Zr
atom_frac 0.2500000000000000 0.0000000000000000 0.8333333333333333 Zr
atom_frac 0.4166666666666666 0.0000000000000000 0.8333333333333333 Zr
atom_frac 0.5833333333333333 0.0000000000000000 0.8333333333333333 Zr
atom_frac 0.7500000000000000 0.0000000000000000 0.8333333333333333 Zr
atom_frac 0.9166666666666665 0.0000000000000000 0.8333333333333333 Zr
atom_frac 0.0833333333333333 0.1666666666666667 0.8333333333333333 Zr
atom_frac 0.2500000000000000 0.1666666666666667 0.8333333333333333 Zr
atom_frac 0.4166666666666666 0.1666666666666667 0.8333333333333333 Zr
atom_frac 0.5833333333333333 0.1666666666666667 0.8333333333333333 Zr
atom_frac 0.7500000000000000 0.1666666666666667 0.8333333333333333 Zr
atom_frac 0.9166666666666665 0.1666666666666667 0.8333333333333333 Zr
atom_frac 0.0833333333333333 0.3333333333333333 0.8333333333333333 Zr
atom_frac 0.2500000000000000 0.3333333333333333 0.8333333333333333 Zr
atom_frac 0.4166666666666666 0.3333333333333333 0.8333333333333333 Zr
atom_frac 0.5833333333333333 0.3333333333333333 0.8333333333333333 Zr
atom_frac 0.7500000000000000 0.3333333333333333 0.8333333333333333 Zr
atom_frac 0.9166666666666665 0.3333333333333333 0.8333333333333333 Zr
atom_frac 0.0833333333333333 0.4999999999999999 0.8333333333333333 Zr
atom_frac 0.2500000000000000 0.4999999999999999 0.8333333333333333 Zr
atom_frac 0.4166666666666666 0.4999999999999999 0.8333333333333333 Zr
atom_frac 0.5833333333333333 0.4999999999999999 0.8333333333333333 Zr
atom_frac 0.7500000000000000 0.4999999999999999 0.8333333333333333 Zr
atom_frac 0.9166666666666665 0.4999999999999999 0.8333333333333333 Zr
atom_frac 0.0833333333333333 0.6666666666666666 0.8333333333333333 Zr
atom_frac 0.2500000000000000 0.6666666666666666 0.8333333333333333 Zr
atom_frac 0.4166666666666666 0.6666666666666666 0.8333333333333333 Zr
atom_frac 0.5833333333333333 0.6666666666666666 0.8333333333333333 Zr
atom_frac 0.7500000000000000 0.6666666666666666 0.8333333333333333 Zr
atom_frac 0.9166666666666665 0.6666666666666666 0.8333333333333333 Zr
atom_frac 0.0833333333333333 0.8333333333333331 0.8333333333333333 Zr
atom_frac 0.2500000000000000 0.8333333333333331 0.8333333333333333 Zr
atom_frac 0.4166666666666666 0.8333333333333331 0.8333333333333333 Zr
atom_frac 0.5833333333333333 0.8333333333333331 0.8333333333333333 Zr
atom_frac 0.7500000000000000 0.8333333333333331 0.8333333333333333 Zr
atom_frac 0.9166666666666665 0.8333333333333331 0.8333333333333333 Zr
atom_frac 0.0000000000000000 0.0833333333333333 0.0000000000000000 Zr
atom_frac 0.1666666666666667 0.0833333333333333 0.0000000000000000 Zr
atom_frac 0.3333333333333333 0.0833333333333333 0.0000000000000000 Zr
atom_frac 0.4999999999999999 0.0833333333333333 0.0000000000000000 Zr
atom_frac 0.6666666666666666 0.0833333333333333 0.0000000000000000 Zr
atom_frac 0.8333333333333331 0.0833333333333333 0.0000000000000000 Zr
atom_frac 0.0000000000000000 0.2500000000000000 0.0000000000000000 Zr
atom_frac 0.1666666666666667 0.2500000000000000 0.0000000000000000 Zr
atom_frac 0.3333333333333333 0.2500000000000000 0.0000000000000000 Zr
atom_frac 0.4999999999999999 0.2500000000000000 0.0000000000000000 Zr
atom_frac 0.6666666666666666 0.2500000000000000 0.0000000000000000 Zr
atom_frac 0.8333333333333331 0.2500000000000000 0.0000000000000000 Zr
atom_frac 0.0000000000000000 0.4166666666666666 0.0000000000000000 Zr
atom_frac 0.1666666666666667 0.4166666666666666 0.0000000000000000 Zr
atom_frac 0.3333333333333333 0.4166666666666666 0.0000000000000000 Zr
atom_frac 0.4999999999999999 0.4166666666666666 0.0000000000000000 Zr
atom_frac 0.6666666666666666 0.4166666666666666 0.0000000000000000 Zr
atom_frac 0.8333333333333331 0.4166666666666666 0.0000000000000000 Zr
atom_frac 0.0000000000000000 0.5833333333333333 0.0000000000000000 Zr
atom_frac 0.1666666666666667 0.5833333333333333 0.0000000000000000 Zr
atom_frac 0.3333333333333333 0.5833333333333333 0.0000000000000000 Zr
atom_frac 0.4999999999999999 0.5833333333333333 0.0000000000000000 Zr
atom_frac 0.6666666666666666 0.5833333333333333 0.0000000000000000 Zr
atom_frac 0.8333333333333331 0.5833333333333333 0.0000000000000000 Zr
atom_frac 0.0000000000000000 0.7500000000000000 0.0000000000000000 Zr
atom_frac 0.1666666666666667 0.7500000000000000 0.0000000000000000 Zr
atom_frac 0.3333333333333333 0.7500000000000000 0.0000000000000000 Zr
atom_frac 0.4999999999999999 0.7500000000000000 0.0000000000000000 Zr
atom_frac 0.6666666666666666 0.7500000000000000 0.0000000000000000 Zr
atom_frac 0.8333333333333331 0.7500000000000000 0.0000000000000000 Zr
atom_frac 0.0000000000000000 0.9166666666666665 0.0000000000000000 Zr
atom_frac 0.1666666666666667 0.9166666666666665 0.0000000000000000 Zr
atom_frac 0.3333333333333333 0.9166666666666665 0.0000000000000000 Zr
atom_frac 0.4999999999999999 0.9166666666666665 0.0000000000000000 Zr
atom_frac 0.6666666666666666 0.9166666666666665 0.0000000000000000 Zr
atom_frac 0.8333333333333331 0.9166666666666665 0.0000000000000000 Zr
atom_frac 0.0000000000000000 0.0833333333333333 0.1666666666666667 Zr
atom_frac 0.1666666666666667 0.0833333333333333 0.1666666666666667 Zr
atom_frac 0.3333333333333333 0.0833333333333333 0.1666666666666667 Zr
atom_frac 0.4999999999999999 0.0833333333333333 0.1666666666666667 Zr
atom_frac 0.6666666666666666 0.0833333333333333 0.1666666666666667 Zr
atom_frac 0.8333333333333331 0.0833333333333333 0.1666666666666667 Zr
atom_frac 0.0000000000000000 0.2500000000000000 0.1666666666666667 Zr
atom_frac 0.1666666666666667 0.2500000000000000 0.1666666666666667 Zr
atom_frac 0.3333333333333333 0.2500000000000000 0.1666666666666667 Zr
atom_frac 0.4999999999999999 0.2500000000000000 0.1666666666666667 Zr
atom_frac 0.6666666666666666 0.2500000000000000 0.1666666666666667 Zr
atom_frac 0.8333333333333331 0.2500000000000000 0.1666666666666667 Zr
atom_frac 0.0000000000000000 0.4166666666666666 0.1666666666666667 Zr
atom_frac 0.1666666666666667 0.4166666666666666 0.1666666666666667 Zr
atom_frac 0.3333333333333333 0.4166666666666666 0.1666666666666667 Zr
atom_frac 0.4999999999999999 0.4166666666666666 0.1666666666666667 Zr
atom_frac 0.6666666666666666 0.4166666666666666 0.1666666666666667 Zr
atom_frac 0.8333333333333331 0.4166666666666666 0.1666666666666667 Zr
atom_frac 0.0000000000000000 0.5833333333333333 0.1666666666666667 Zr
atom_frac 0.1666666666666667 0.5833333333333333 0.1666666666666667 Zr
atom_frac 0.3333333333333333 0.5833333333333333 0.1666666666666667 Zr
atom_frac 0.4999999999999999 0.5833333333333333 0.1666666666666667 Zr
atom_frac 0.6666666666666666 0.5833333333333333 0.1666666666666667 Zr
atom_frac 0.8333333333333331 0.5833333333333333 0.1666666666666667 Zr
atom_frac 0.0000000000000000 0.7500000000000000 0.1666666666666667 Zr
atom_frac 0.1666666666666667 0.7500000000000000 0.1666666666666667 Zr
atom_frac 0.3333333333333333 0.7500000000000000 0.1666666666666667 Zr
atom_frac 0.4999999999999999 0.7500000000000000 0.1666666666666667 Zr
atom_frac 0.6666666666666666 0.7500000000000000 0.1666666666666667 Zr
atom_frac 0.8333333333333331 0.7500000000000000 0.1666666666666667 Zr
atom_frac 0.0000000000000000 0.9166666666666665 0.1666666666666667 Zr
atom_frac 0.1666666666666667 0.9166666666666665 0.1666666666666667 Zr
atom_frac 0.3333333333333333 0.9166666666666665 0.1666666666666667 Zr
atom_frac 0.4999999999999999 0.9166666666666665 0.1666666666666667 Zr
atom_frac 0.6666666666666666 0.9166666666666665 0.1666666666666667 Zr
atom_frac 0.8333333333333331 0.9166666666666665 0.1666666666666667 Zr
atom_frac 0.0000000000000000 0.0833333333333333 0.3333333333333333 Zr
atom_frac 0.1666666666666667 0.0833333333333333 0.3333333333333333 Zr
atom_frac 0.3333333333333333 0.0833333333333333 0.3333333333333333 Zr
atom_frac 0.4999999999999999 0.0833333333333333 0.3333333333333333 Zr
atom_frac 0.6666666666666666 0.0833333333333333 0.3333333333333333 Zr
atom_frac 0.8333333333333331 0.0833333333333333 0.3333333333333333 Zr
atom_frac 0.0000000000000000 0.2500000000000000 0.3333333333333333 Zr
atom_frac 0.1666666666666667 0.2500000000000000 0.3333333333333333 Zr
atom_frac 0.3333333333333333 0.2500000000000000 0.3333333333333333 Zr
atom_frac 0.4999999999999999 0.2500000000000000 0.3333333333333333 Zr
atom_frac 0.6666666666666666 0.2500000000000000 0.3333333333333333 Zr
atom_frac 0.8333333333333331 0.2500000000000000 0.3333333333333333 Zr
atom_frac 0.0000000000000000 0.4166666666666666 0.3333333333333333 Zr
atom_frac 0.1666666666666667 0.4166666666666666 0.3333333333333333 Zr
atom_frac 0.3333333333333333 0.4166666666666666 0.3333333333333333 Zr
atom_frac 0.4999999999999999 0.4166666666666666 0.3333333333333333 Zr
atom_frac 0.6666666666666666 0.4166666666666666 0.3333333333333333 Zr
atom_frac 0.8333333333333331 0.4166666666666666 0.3333333333333333 Zr
atom_frac 0.0000000000000000 0.5833333333333333 0.3333333333333333 Zr
atom_frac 0.1666666666666667 0.5833333333333333 0.3333333333333333 Zr
atom_frac 0.3333333333333333 0.5833333333333333 0.3333333333333333 Zr
atom_frac 0.4999999999999999 0.5833333333333333 0.3333333333333333 Zr
atom_frac 0.6666666666666666 0.5833333333333333 0.3333333333333333 Zr
atom_frac 0.8333333333333331 0.5833333333333333 0.3333333333333333 Zr
atom_frac 0.0000000000000000 0.7500000000000000 0.3333333333333333 Zr
atom_frac 0.1666666666666667 0.7500000000000000 0.3333333333333333 Zr
atom_frac 0.3333333333333333 0.7500000000000000 0.3333333333333333 Zr
atom_frac 0.4999999999999999 0.7500000000000000 0.3333333333333333 Zr
atom_frac 0.6666666666666666 0.7500000000000000 0.3333333333333333 Zr
atom_frac 0.8333333333333331 0.7500000000000000 0.3333333333333333 Zr
atom_frac 0.0000000000000000 0.9166666666666665 0.3333333333333333 Zr
atom_frac 0.1666666666666667 0.9166666666666665 0.3333333333333333 Zr
atom_frac 0.3333333333333333 0.9166666666666665 0.3333333333333333 Zr
atom_frac 0.4999999999999999 0.9166666666666665 0.3333333333333333 Zr
atom_frac 0.6666666666666666 0.9166666666666665 0.3333333333333333 Zr
atom_frac 0.8333333333333331 0.9166666666666665 0.3333333333333333 Zr
atom_frac 0.0000000000000000 0.0833333333333333 0.5000000000000000 Zr
atom_frac 0.1666666666666667 0.0833333333333333 0.5000000000000000 Zr
atom_frac 0.3333333333333333 0.0833333333333333 0.5000000000000000 Zr
atom_frac 0.4999999999999999 0.0833333333333333 0.5000000000000000 Zr
atom_frac 0.6666666666666666 0.0833333333333333 0.5000000000000000 Zr
atom_frac 0.8333333333333331 0.0833333333333333 0.5000000000000000 Zr
atom_frac 0.0000000000000000 0.2500000000000000 0.5000000000000000 Zr
atom_frac 0.1666666666666667 0.2500000000000000 0.5000000000000000 Zr
atom_frac 0.3333333333333333 0.2500000000000000 0.5000000000000000 Zr
atom_frac 0.4999999999999999 0.2500000000000000 0.5000000000000000 Zr
atom_frac 0.6666666666666666 0.2500000000000000 0.5000000000000000 Zr
atom_frac 0.8333333333333331 0.2500000000000000 0.5000000000000000 Zr
atom_frac 0.0000000000000000 0.4166666666666666 0.5000000000000000 Zr
atom_frac 0.1666666666666667 0.4166666666666666 0.5000000000000000 Zr
atom_frac 0.3333333333333333 0.4166666666666666 0.5000000000000000 Zr
atom_frac 0.4999999999999999 0.4166666666666666 0.5000000000000000 Zr
atom_frac 0.6666666666666666 0.4166666666666666 0.5000000000000000 Zr
atom_frac 0.8333333333333331 0.4166666666666666 0.5000000000000000 Zr
atom_frac 0.0000000000000000 0.5833333333333333 0.5000000000000000 Zr
atom_frac 0.1666666666666667 0.5833333333333333 0.5000000000000000 Zr
atom_frac 0.3333333333333333 0.5833333333333333 0.5000000000000000 Zr
atom_frac 0.4999999999999999 0.5833333333333333 0.5000000000000000 Zr
atom_frac 0.6666666666666666 0.5833333333333333 0.5000000000000000 Zr
atom_frac 0.8333333333333331 0.5833333333333333 0.5000000000000000 Zr
atom_frac 0.0000000000000000 0.7500000000000000 0.5000000000000000 Zr
atom_frac 0.1666666666666667 0.7500000000000000 0.5000000000000000 Zr
atom_frac 0.3333333333333333 0.7500000000000000 0.5000000000000000 Zr
atom_frac 0.4999999999999999 0.7500000000000000 0.5000000000000000 Zr
atom_frac 0.6666666666666666 0.7500000000000000 0.5000000000000000 Zr
atom_frac 0.8333333333333331 0.7500000000000000 0.5000000000000000 Zr
atom_frac 0.0000000000000000 0.9166666666666665 0.5000000000000000 Zr
atom_frac 0.1666666666666667 0.9166666666666665 0.5000000000000000 Zr
atom_frac 0.3333333333333333 0.9166666666666665 0.5000000000000000 Zr
atom_frac 0.4999999999999999 0.9166666666666665 0.5000000000000000 Zr
atom_frac 0.6666666666666666 0.9166666666666665 0.5000000000000000 Zr
atom_frac 0.8333333333333331 0.9166666666666665 0.5000000000000000 Zr
atom_frac 0.0000000000000000 0.0833333333333333 0.6666666666666666 Zr
atom_frac 0.1666666666666667 0.0833333333333333 0.6666666666666666 Zr
atom_frac 0.3333333333333333 0.0833333333333333 0.6666666666666666 Zr
atom_frac 0.4999999999999999 0.0833333333333333 0.6666666666666666 Zr
atom_frac 0.6666666666666666 0.0833333333333333 0.6666666666666666 Zr
atom_frac 0.8333333333333331 0.0833333333333333 0.6666666666666666 Zr
atom_frac 0.0000000000000000 0.2500000000000000 0.6666666666666666 Zr
atom_frac 0.1666666666666667 0.2500000000000000 0.6666666666666666 Zr
atom_frac 0.3333333333333333 0.2500000000000000 0.6666666666666666 Zr
atom_frac 0.4999999999999999 0.2500000000000000 0.6666666666666666 Zr
atom_frac 0.6666666666666666 0.2500000000000000 0.6666666666666666 Zr
atom_frac 0.8333333333333331 0.2500000000000000 0.6666666666666666 Zr
atom_frac 0.0000000000000000 0.4166666666666666 0.6666666666666666 Zr
atom_frac 0.1666666666666667 0.4166666666666666 0.6666666666666666 Zr
atom_frac 0.3333333333333333 0.4166666666666666 0.6666666666666666 Zr
atom_frac 0.4999999999999999 0.4166666666666666 0.6666666666666666 Zr
atom_frac 0.6666666666666666 0.4166666666666666 0.6666666666666666 Zr
atom_frac 0.8333333333333331 0.4166666666666666 0.6666666666666666 Zr
atom_frac 0.0000000000000000 0.5833333333333333 0.6666666666666666 Zr
atom_frac 0.1666666666666667 0.5833333333333333 0.6666666666666666 Zr
atom_frac 0.3333333333333333 0.5833333333333333 0.6666666666666666 Zr
atom_frac 0.4999999999999999 0.5833333333333333 0.6666666666666666 Zr
atom_frac 0.6666666666666666 0.5833333333333333 0.6666666666666666 Zr
atom_frac 0.8333333333333331 0.5833333333333333 0.6666666666666666 Zr
atom_frac 0.0000000000000000 0.7500000000000000 0.6666666666666666 Zr
atom_frac 0.1666666666666667 0.7500000000000000 0.6666666666666666 Zr
atom_frac 0.3333333333333333 0.7500000000000000 0.6666666666666666 Zr
atom_frac 0.4999999999999999 0.7500000000000000 0.6666666666666666 Zr
atom_frac 0.6666666666666666 0.7500000000000000 0.6666666666666666 Zr
atom_frac 0.8333333333333331 0.7500000000000000 0.6666666666666666 Zr
atom_frac 0.0000000000000000 0.9166666666666665 0.6666666666666666 Zr
atom_frac 0.1666666666666667 0.9166666666666665 0.6666666666666666 Zr
atom_frac 0.3333333333333333 0.9166666666666665 0.6666666666666666 Zr
atom_frac 0.4999999999999999 0.9166666666666665 0.6666666666666666 Zr
atom_frac 0.6666666666666666 0.9166666666666665 0.6666666666666666 Zr
atom_frac 0.8333333333333331 0.9166666666666665 0.6666666666666666 Zr
atom_frac 0.0000000000000000 0.0833333333333333 0.8333333333333333 Zr
atom_frac 0.1666666666666667 0.0833333333333333 0.8333333333333333 Zr
atom_frac 0.3333333333333333 0.0833333333333333 0.8333333333333333 Zr
atom_frac 0.4999999999999999 0.0833333333333333 0.8333333333333333 Zr
atom_frac 0.6666666666666666 0.0833333333333333 0.8333333333333333 Zr
atom_frac 0.8333333333333331 0.0833333333333333 0.8333333333333333 Zr
atom_frac 0.0000000000000000 0.2500000000000000 0.8333333333333333 Zr
atom_frac 0.1666666666666667 0.2500000000000000 0.8333333333333333 Zr
atom_frac 0.3333333333333333 0.2500000000000000 0.8333333333333333 Zr
atom_frac 0.4999999999999999 0.2500000000000000 0.8333333333333333 Zr
atom_frac 0.6666666666666666 0.2500000000000000 0.8333333333333333 Zr
atom_frac 0.8333333333333331 0.2500000000000000 0.8333333333333333 Zr
atom_frac 0.0000000000000000 0.4166666666666666 0.8333333333333333 Zr
atom_frac 0.1666666666666667 0.4166666666666666 0.8333333333333333 Zr
atom_frac 0.3333333333333333 0.4166666666666666 0.8333333333333333 Zr
atom_frac 0.4999999999999999 0.4166666666666666 0.8333333333333333 Zr
atom_frac 0.6666666666666666 0.4166666666666666 0.8333333333333333 Zr
atom_frac 0.8333333333333331 0.4166666666666666 0.8333333333333333 Zr
atom_frac 0.0000000000000000 0.5833333333333333 0.8333333333333333 Zr
atom_frac 0.1666666666666667 0.5833333333333333 0.8333333333333333 Zr
atom_frac 0.3333333333333333 0.5833333333333333 0.8333333333333333 Zr
atom_frac 0.4999999999999999 0.5833333333333333 0.8333333333333333 Zr