#=======================================================
# FHI-aims file: geometry.in.supercell.0010K
# Created using the Atomic Simulation Environment (ASE)
# Mon Dec 28 22:25:03 2020

# Additional information:
#  created from MB distrubtion
#  T = 10.0 K
#  quantum:             False
#  deterministic:       False
#  plus_minus:          False
#  gauge_eigenvectors:  False
#  Random seed:         1750517730
#  Sample number:       1
#=======================================================
lattice_vector 10.1952194790879993 0.0000002312840000 0.0000001149100000 
lattice_vector 0.0000002312840000 10.1952585700719993 -0.0000000817060000 
lattice_vector 0.0000001174240000 -0.0000000834940000 10.4472499926080005 
atom 10.1952195705575175 0.0000001715475008 10.4472500947462343 Zr
    velocity 0.3746095200954757 -0.3387308469910355 0.0114898609613109
atom 2.5488050190625202 2.5488146406025010 10.4472499881372372 Zr
    velocity -0.6456997627487671 -0.6144539610572262 0.1433108435052255
atom 5.0976099466555187 5.0976293409415012 10.4472499964382344 Zr
    velocity 0.4055115271622458 0.3004002620901194 0.4083891138227910
atom 7.6464148742485190 7.6464440412804997 10.4472500047392334 Zr
    velocity -0.2796366034946359 0.1295481434657555 -0.0052887359728205
atom 7.6464147586065190 2.5488147562445009 10.4472500455922344 Zr
    velocity -0.0624964333785123 0.5394595392086714 0.3676643303933529
atom 10.1952196861995183 5.0976294565835012 10.4472500538932334 Zr
    velocity 0.1423944514905023 0.0376094960971383 -0.1098152022631781
atom 2.5488051347045202 7.6464439256384997 10.4472499472842326 Zr
    velocity 0.2537437243038637 -0.0730060453768102 -0.2370459755064541
atom 5.0976098310135187 0.0000000559055008 10.4472500372912371 Zr
    velocity -0.4570187743341783 -0.0035763900302844 -0.4702890592675150
atom 10.1952195118455187 0.0000002132945008 5.2236250984422359 Zr
    velocity 0.1711760535924921 0.1598106609541116 0.2232897090567644
atom 2.5488049603505201 2.5488146823495006 5.2236249918332351 Zr
    velocity 0.7159369264766298 0.2233538750150698 -0.0036602665057239
atom 5.0976098879435190 5.0976293826885017 5.2236250001342359 Zr
    velocity 0.2947357664299127 -0.3807530803796078 -0.1803925413194538
atom 7.6464148155365192 7.6464440830275002 5.2236250084352358 Zr
    velocity 0.8359089667305973 -0.3829406152708906 0.6203193673619711
atom 7.6464146998945193 2.5488147979915006 5.2236250492882359 Zr
    velocity 0.2418950819076633 0.2392913172015385 0.0723599519288818
atom 10.1952196274875195 5.0976294983305017 5.2236250575892358 Zr
    velocity -0.0234540593211355 0.0372365883733771 -0.0664630541066558
atom 2.5488050759925200 7.6464439673855003 5.2236249509802359 Zr
    velocity -0.2692223017116684 -0.0937177024031174 -0.1492817691771115
atom 5.0976097723015190 0.0000000976525008 5.2236250409872360 Zr
    velocity 0.0459123690908825 -0.3065495658197906 0.4921828556654851
atom 0.0000001020416280 2.5488145286739359 2.6118124866735699 Zr
    velocity -0.4337713167307425 -0.1773819808282695 -0.3317948496642983
atom 2.5488050296346279 5.0976292290129361 2.6118124949745689 Zr
    velocity 0.2553091309720437 0.2311522323261928 -0.0688826526646232
atom 5.0976099572276272 7.6464439293519364 2.6118125032755688 Zr
    velocity -0.2085592557067078 -0.0316021359230359 0.4735791174065700
atom 7.6464148848206275 10.1952586296909367 2.6118125115765700 Zr
    velocity 0.1626264919817288 0.2688927586836840 -0.0377549745623739
atom 7.6464147691786275 5.0976293446549361 2.6118125524295688 Zr
    velocity -0.2289369691457024 0.1204886810813262 -0.3856847842083091
atom 0.0000002176836280 7.6464438137099364 2.6118124458205698 Zr
    velocity 0.3610609806556144 -0.3817331685986719 0.2165252122852447
atom 2.5488051452766278 10.1952585140489358 2.6118124541215688 Zr
    velocity 0.0063794925848874 -0.0140086662384005 0.4006200439391635
atom 5.0976098415856272 2.5488146443159372 2.6118125441285689 Zr
    velocity -0.2796244646487397 0.4898496173185657 -0.1265563932834258
atom 0.0000001607536280 2.5488144869269376 7.8354374829775697 Zr
    velocity -0.0601267043509011 -0.1312525711446275 0.2403847812629267
atom 2.5488050883466276 5.0976291872659365 7.8354374912785696 Zr
    velocity -0.0185218224058813 -0.0866695377741772 -0.0533191544448842
atom 5.0976100159396269 7.6464438876049368 7.8354374995795686 Zr
    velocity -0.0353773538211089 0.1512963606579639 -0.1853558617675592
atom 7.6464149435326272 10.1952585879439361 7.8354375078805685 Zr
    velocity -0.3641511402857265 0.0562027337851298 -0.4026685851668763
atom 7.6464148278906272 5.0976293029079365 7.8354375487335686 Zr
    velocity 0.1929384481296832 -0.3721779489216871 0.4069745459148753
atom 0.0000002763956280 7.6464437719629368 7.8354374421245696 Zr
    velocity 0.1519921657211195 0.5649160677312298 -0.0592373920428149
atom 2.5488052039886275 10.1952584723019353 7.8354374504255695 Zr
    velocity -0.6096072344874383 0.2303496064917458 -0.0632864473312885
atom 5.0976099002976270 2.5488146025689384 7.8354375404325696 Zr
    velocity 0.1691477667752181 -0.3095627794309939 0.6721489429910282
atom 1.2744024515736083 1.2744073718773856 1.0024190245136309 O
    velocity -0.5661662074626524 -0.0796693012610421 0.2962475045385688
atom 3.8232073791666079 3.8232220722163857 1.0024190328146307 O
    velocity -0.8974418192146731 -0.8407407677315800 -0.3232732860394743
atom 6.3720123067596077 6.3720367725553846 1.0024190411156308 O
    velocity -1.4740979621180628 0.4855009080946883 -0.9378647421526096
atom 8.9208172343526080 8.9208514728943840 1.0024190494166307 O
    velocity 0.5295803317051927 -0.0639286162677351 0.0387814028422261
atom 8.9208171187106071 3.8232221878583856 1.0024190902696308 O
    velocity 0.5372396235825134 1.4220664906581113 0.7570519539996630
atom 1.2744025672156083 6.3720366569133855 1.0024189836606308 O
    velocity 0.4230857715912421 0.8298117917193427 0.9977253211873409
atom 3.8232074948086079 8.9208513572523866 1.0024189919616309 O
    velocity -0.8764310112914411 -1.3978180780746932 -0.2812836451791986
atom 6.3720121911176069 1.2744074875193858 1.0024190819686307 O
    velocity 0.2969353195932698 -0.6444917588362382 -0.3146224122103429
atom 1.2744025102856082 1.2744073301303855 6.2260440208176311 O
    velocity 0.3303679614514813 -0.1096951902776586 0.0315579978719128
atom 3.8232074378786081 3.8232220304693865 6.2260440291186310 O
    velocity -0.0230869264542937 -0.8983464530997346 -0.2316167959645709
atom 6.3720123654716074 6.3720367308083841 6.2260440374196282 O
    velocity -1.5550725337017703 -0.3469181076526844 -0.7090283994842607
atom 8.9208172930646086 8.9208514311473852 6.2260440457206290 O
    velocity 1.4201717565033896 -0.1459903203268616 -2.1633859629632961
atom 8.9208171774226077 3.8232221461113864 6.2260440865736282 O
    velocity 0.4532094901343585 -0.2581805217123075 -0.5127357667443929
atom 1.2744026259276082 6.3720366151663841 6.2260439799646310 O
    velocity -0.3277380618056452 -1.2002451658831641 0.1700382086368426
atom 3.8232075535206080 8.9208513155053879 6.2260439882656282 O
    velocity -0.7962908596610675 0.1545708856305272 -0.8576258721229901
atom 6.3720122498296066 1.2744074457723857 6.2260440782726310 O
    velocity -1.0098092424160832 0.4054803257007957 0.1259610482049603
atom 1.2744025328003397 1.2744073262829310 3.6142318818368619 O
    velocity 0.2993513103226680 0.8572728795808323 1.5470463054706387
atom 3.8232074603933399 3.8232220266219321 3.6142318901378605 O
    velocity -0.2289358361988703 -0.5181268818665516 0.3706645814435782
atom 6.3720123879863388 6.3720367269609302 3.6142318984388608 O
    velocity -0.8560156144549519 1.2647160835042186 0.3487828190737193
atom 8.9208173155793382 8.9208514272999295 3.6142319067398607 O
    velocity 0.3552519876514012 0.0245731371938506 0.7349781588522042
atom 8.9208171999373391 3.8232221422639321 3.6142319475928608 O
    velocity -0.4413009399126329 0.0768892655288979 -0.9626673799623215
atom 1.2744026484423396 6.3720366113189302 3.6142318409838605 O
    velocity 0.2671397213247182 -0.0917546905499155 -0.7529615524641099
atom 3.8232075760353399 8.9208513116579340 3.6142318492848604 O
    velocity -0.6975198725539251 0.3173239087475022 0.7258006058642014
atom 6.3720122723443389 1.2744074419249318 3.6142319392918605 O
    velocity -0.1148713538402919 -0.5757812373550518 -0.4290710605132178
atom 1.2744025915123398 1.2744072845359309 8.8378568781408617 O
    velocity -0.5317555827751944 -0.0284298784463993 -0.2132386437162669
atom 3.8232075191053396 3.8232219848749307 8.8378568864418625 O
    velocity 0.1008848391838221 0.0908556317131992 0.0527765391236675
atom 6.3720124466983394 6.3720366852139296 8.8378568947428615 O
    velocity -0.1579643525556607 -0.1387099643155252 0.2976573906624584
atom 8.9208173742913388 8.9208513855529290 8.8378569030438587 O
    velocity 0.5252300588782403 0.4468123140184641 -0.6627667360236953
atom 8.9208172586493397 3.8232221005169307 8.8378569438968615 O
    velocity 0.6905520034185122 -0.5294354836487272 -0.3364403032341699
atom 1.2744027071543398 6.3720365695719297 8.8378568372878625 O
    velocity 1.1019406479759264 0.3166710186472962 0.3340961801482394
atom 3.8232076347473396 8.9208512699109299 8.8378568455888615 O
    velocity 0.5877820406535491 -0.1556590206383889 -0.4860267386298662
atom 6.3720123310563395 1.2744074001779317 8.8378569355958625 O
    velocity 0.6656497228656506 0.4796629189882176 0.5852333301393761
atom 8.9208170733548702 1.2744075145374438 1.6093931900202196 O
    velocity 0.1162984545219311 0.1977995525924429 0.3633645023001698
atom 1.2744025218598707 3.8232219835924428 1.6093930834112196 O
    velocity 0.3866689060165196 0.4540637261017431 0.3962226443379534
atom 3.8232074494528705 6.3720366839314426 1.6093930917122194 O
    velocity -0.3318279066451817 -1.2150782853666535 -0.6044356406410890
atom 6.3720123770458708 8.9208513842704420 1.6093931000132196 O
    velocity 0.1928551973745227 0.3461168970808058 0.6133683755590146
atom 6.3720122614038708 3.8232220992344428 1.6093931408662194 O
    velocity -0.6950783366318762 -0.7835198342354251 -0.2831306504065149
atom 8.9208171889968693 6.3720367995734426 1.6093931491672195 O
    velocity -0.7730744439142729 0.8682780850430765 0.2455398446916213
atom 1.2744026375018709 8.9208512686284411 1.6093930425582195 O
    velocity 0.4780976648374953 -0.5069964043687978 -0.1765106824701681
atom 3.8232073338108705 1.2744073988954427 1.6093931325652195 O
    velocity -0.9888163513352141 -0.3304637010397078 1.0372534332355394
atom 8.9208171320668708 1.2744074727904438 6.8330181863242210 O
    velocity 0.2151527745984201 0.6489845980741066 -0.0403471307819396
atom 1.2744025805718706 3.8232219418454427 6.8330180797152194 O
    velocity -0.1926907447328252 -1.1009403820877950 -0.6483038818362696
atom 3.8232075081648702 6.3720366421844430 6.8330180880162210 O
    velocity -1.1204091680369170 -1.0350404075557473 -0.1708992945228582
atom 6.3720124357578705 8.9208513425234468 6.8330180963172182 O
    velocity 0.1049919113936539 0.7070583115175617 -0.4477543450308210
atom 6.3720123201158705 3.8232220574874427 6.8330181371702210 O
    velocity 1.3678496029441654 1.4424017594873422 -0.4233320735821655
atom 8.9208172477088699 6.3720367578264430 6.8330181454712182 O
    velocity -0.7095890922619098 0.9724933508433706 -0.7127562503503726
atom 1.2744026962138708 8.9208512268814424 6.8330180388622210 O
    velocity 0.2665838803856428 -0.1786130496761064 0.5260630684956379
atom 3.8232073925228702 1.2744073571484427 6.8330181288692193 O
    velocity -0.9243851525665564 0.3574737136650354 0.2949706265117823
atom 8.9208171446055804 1.2744075206278507 4.2212060890279774 O
    velocity 0.6717988425011848 0.1341181172928225 -1.0480665702979424
atom 1.2744025931105816 3.8232219896828505 4.2212059824189776 O
    velocity 1.6621692221704636 -0.5342471444736512 0.3775701876535686
atom 3.8232075207035812 6.3720366900218535 4.2212059907199775 O
    velocity -0.6809177638408311 1.8681357034248918 -1.1513744758977702
atom 6.3720124482965810 8.9208513903608520 4.2212059990209783 O
    velocity -1.1173455643851007 0.1089195621842380 -0.5525420230780856
atom 6.3720123326545810 3.8232221053248505 4.2212060398739775 O
    velocity 0.4372281921160403 0.7771156791102493 -0.5407420909881054
atom 8.9208172602475813 6.3720368056638534 4.2212060481749782 O
    velocity -0.1137270134289449 0.2052030976606423 -1.3307863116494496
atom 1.2744027087525815 8.9208512747188546 4.2212059415659775 O
    velocity 0.0976611604618154 0.4032004728446784 0.1995237764097798
atom 3.8232074050615812 1.2744074049858529 4.2212060315729776 O
    velocity -0.1091550638485229 -1.7764615673149577 -0.5165535472956773
atom 8.9208172033175792 1.2744074788808506 9.4448310853319768 O
    velocity 0.8018485386133353 -1.2491036210911048 -0.9657793739897591
atom 1.2744026518225815 3.8232219479358522 9.4448309787229743 O
    velocity -0.6313516451745981 -0.7207586801278880 0.2930918686287626
atom 3.8232075794155813 6.3720366482748512 9.4448309870239768 O
    velocity -0.8407791051478245 -0.6355460780442007 -0.7536384289124930
atom 6.3720125070085816 8.9208513486138514 9.4448309953249758 O
    velocity 0.9859106179142508 -0.8987192860735432 -0.0515443049003487
atom 6.3720123913665816 3.8232220635778522 9.4448310361779768 O
    velocity 0.3893633754391200 0.4718907206620419 -1.3661004739188258
atom 8.9208173189595801 6.3720367639168511 9.4448310444789758 O
    velocity -0.4913612620212416 0.5429847159069269 -0.2604107050735895
atom 1.2744027674645815 8.9208512329718488 9.4448309378699769 O
    velocity 0.1252043030386799 0.4859064464240206 -0.1636360157760292
atom 3.8232074637735813 1.2744073632388528 9.4448310278769743 O
    velocity -1.1994685589464908 0.3589826861761792 0.2874937316764314
