#=======================================================
# FHI-aims file: /raven/u/mlang/gknet-aims/new_fk_tetragonal/relaxation/k24_rho1e-7_tight/relaxation/geometry.in.next_step
# Created using the Atomic Simulation Environment (ASE)
# Thu Mar 23 14:50:32 2023

# Additional information:
#  Relaxed with BFGS, fmax=1.000 meV/AA
#  nsteps = 8
#  residual force  = 0.015348 meV/AA
#  residual stress = 0.095969 meV/AA
#=======================================================
lattice_vector 3.5833802022920000 0.0000000000000000 0.0000000000000000 
lattice_vector 0.0000000000000000 3.5833802022920000 0.0000000000000000 
lattice_vector 0.0000000000000000 0.0000000000000000 5.1751646184780000 
atom_frac 0.5000000000000000 0.5000000000000000 0.0000000000000000 Zr
atom_frac 0.0000000000000000 0.0000000000000000 0.5000000000000000 Zr
atom_frac 0.5000000000000000 0.0000000000000000 0.2016554997490000 O
atom_frac 0.5000000000000000 0.0000000000000000 0.7016554997490000 O
atom_frac 0.0000000000000000 0.5000000000000000 0.7983445002510000 O
atom_frac 0.0000000000000000 0.5000000000000000 0.2983445002510000 O
