#=======================================================
# FHI-aims file: starting_geometries/geometry_300_1.in
# Created using the Atomic Simulation Environment (ASE)
# Wed Jan 13 17:51:36 2021

# Additional information:
# starting geometry from CC, T=300, ens=1
#=======================================================
lattice_vector 10.1515389999999996 0.0000000000000000 0.0000000000000000 
lattice_vector 0.0000000000000000 10.1515500000000003 0.0000000000000000 
lattice_vector 0.0000000000000000 0.0000000000000000 10.3735759999999999 
atom_frac 0.1184646318159247 0.6813070122296595 0.9818268406188956 Zr
    velocity -0.2319080841385227 -0.3418663810034668 1.5143301482570650
atom_frac 0.6153081517984613 0.6951919302963587 0.9859856581761198 Zr
    velocity -1.5315557618006133 -2.7528597102155721 -1.9684796388033488
atom_frac 0.1147123968099812 0.1817763100216223 0.9839767328065074 Zr
    velocity -0.7647369665246116 0.7663761964359096 2.6952866215807387
atom_frac 0.6156227947309271 0.1743963276543976 0.9907277798899818 Zr
    velocity -0.6723132285571733 -0.3876029690799305 -2.0046264376531844
atom_frac 0.1206245407716012 0.6788152420073782 0.4849365377956454 Zr
    velocity 0.2379562904160382 -3.9101837036152718 -0.6175046321625185
atom_frac 0.6145099762705931 0.6783606621648911 0.4843346093960270 Zr
    velocity 3.4805546775331102 -0.3613222104052722 1.7067758271526854
atom_frac 0.1206527059591654 0.1795356738626121 0.4808651982691407 Zr
    velocity -1.4619701062482515 -0.8229965604140543 -0.3197056435908336
atom_frac 0.6236328797042499 0.1851696913279253 0.4928368414132214 Zr
    velocity -0.3633091319216575 -4.3780200596447694 -1.9804620122986989
atom_frac 0.1224439319003749 0.9141052341760618 0.2297868198970153 Zr
    velocity -0.9515643776969960 -1.5792771626219986 -0.8722192930207209
atom_frac 0.6358392456552647 0.9255166018982324 0.2428928760921017 Zr
    velocity 0.7482617795979138 -1.8568862766099754 -0.0920395543088327
atom_frac 0.1161913124699615 0.4154260206569440 0.2329358371693618 Zr
    velocity -0.4733777140962247 2.0994399049162364 2.1708227520553640
atom_frac 0.6207703403395288 0.4308562229413243 0.2310903790553999 Zr
    velocity -1.6684636630816856 0.4446091479289220 2.8053339482270112
atom_frac 0.1211719434856134 0.9245594584078294 0.7326775646122418 Zr
    velocity -1.7648097754754173 2.1012311340193062 0.5541698315790000
atom_frac 0.6284785715742215 0.9389358925484285 0.7294348255606360 Zr
    velocity 1.8714651183769686 -0.5183831183637199 -3.6784647836522160
atom_frac 0.1198972904502460 0.4301010545187681 0.7318160555241510 Zr
    velocity 2.0759082765795212 0.8710883550859120 -1.8146114773487425
atom_frac 0.6235860217844802 0.4381694411198290 0.7374923671451387 Zr
    velocity -0.3508745870805548 1.4280312797272354 -2.6945231071701303
atom_frac 0.3690536518650030 0.6689403756076658 0.2293153469931680 Zr
    velocity 0.4819792179148000 1.6385863242658134 -0.8170474184852680
atom_frac 0.8696871558095773 0.6761474031059296 0.2366570129721901 Zr
    velocity -2.6434322747289243 2.0662138973052064 -1.8897100955904458
atom_frac 0.3751903982243481 0.1715482177598495 0.2410470082833538 Zr
    velocity 0.2512556353714461 -1.1790837899355111 2.5777205519872766
atom_frac 0.8761879750449663 0.1742600469878984 0.2392599360143503 Zr
    velocity 4.7476403244945340 2.1289451110232629 0.8156137617013982
atom_frac 0.3699021557223984 0.6802357649817024 0.7369496140964311 Zr
    velocity 0.2815913369126994 0.3040058950423653 0.7674373267063026
atom_frac 0.8677996577661773 0.6781939979609025 0.7381768071106820 Zr
    velocity -0.0523000756659390 0.8086948084329573 -2.8344630315513868
atom_frac 0.3762470537718469 0.1808380434514926 0.7353457987872263 Zr
    velocity 0.9097529151127318 -2.1723755078741620 1.9252982704130299
atom_frac 0.8724578293005624 0.1822060729642271 0.7378049796907064 Zr
    velocity -1.8252332345426794 -0.6145467249963826 -1.6681372408677275
atom_frac 0.3642957604753329 0.9428837862198384 0.9830759508582190 Zr
    velocity 0.6956440131098465 -0.8587572644460413 1.4779662856828581
atom_frac 0.8685913396973604 0.9378601947485853 0.9761489914374754 Zr
    velocity 0.8371473028730606 -1.0544252226696216 0.3140255111651389
atom_frac 0.3658837088642422 0.4229925548315282 0.9798205854953007 Zr
    velocity -0.0457192911599449 0.4494202830626654 -1.1221100937959270
atom_frac 0.8685776619682987 0.4359881850554841 0.9863653208883801 Zr
    velocity 1.3987141964757037 1.8714584982809610 -1.6069568094209861
atom_frac 0.3725996747882268 0.9205274898907064 0.4793953801466341 Zr
    velocity -0.4589607518420036 -1.8516677404734503 -2.4055610690278382
atom_frac 0.8746631599405765 0.9254776019425606 0.4944185640515865 Zr
    velocity 0.7640809684459412 1.3045092753454361 0.3786987790814728
atom_frac 0.3791763830095122 0.4341109091715058 0.4847918239573316 Zr
    velocity -2.7464756920437718 1.6626965976666492 0.4616328557470419
atom_frac 0.8634937402102284 0.4335491447118913 0.4857121517208723 Zr
    velocity 3.2902610752864780 -0.1293814803867550 2.1056481049282092
atom_frac 0.2461750242992713 0.8013328486782807 0.0869213316603648 O
    velocity 0.5274999681577012 1.4411263365641691 6.3670432938457173
atom_frac 0.7544621066815583 0.8159165782565223 0.0856423975685916 O
    velocity 4.1075392283209204 -1.4569385683897087 -3.7165208618509271
atom_frac 0.2301546849201880 0.3196024971556068 0.0822933354900952 O
    velocity -5.9652069981819400 1.4970575846040861 0.9585514450280727
atom_frac 0.7364438525035466 0.3166626288596323 0.0839864980022318 O
    velocity -0.6313478379154324 2.6526746820835156 -0.7856170167114576
atom_frac 0.2532695722293931 0.8068285710063980 0.5838229526635752 O
    velocity -5.9290091273024839 -4.2744190241116691 2.8478168903808587
atom_frac 0.7574116683194538 0.8045651668956958 0.5884220880051392 O
    velocity 9.4261091695607444 -5.8599992091228179 -10.4842865320662817
atom_frac 0.2536847339107893 0.2946528480872379 0.5886446371048903 O
    velocity -6.8591145423545745 5.4733388370325020 -2.6077978061325084
atom_frac 0.7495480655691714 0.3086926429954047 0.5888173991302517 O
    velocity 0.2332169661424289 0.9120201705032619 -0.1830119895246662
atom_frac 0.2505896613311538 0.8012952691953446 0.3366277858281464 O
    velocity -4.7007666716231107 1.6006656310168665 4.4833710614394846
atom_frac 0.7491699357112257 0.8063197088129400 0.3416233977559908 O
    velocity -3.1043533300306558 -5.4573777013340576 -0.9963078717156250
atom_frac 0.2388709170107114 0.2861399323256054 0.3325877759029287 O
    velocity -0.9315483871133592 7.0211619497584730 4.0506999608411567
atom_frac 0.7419622295693293 0.3076927168757481 0.3357371141831900 O
    velocity 2.5728474324584738 1.4822812134526770 6.3612417402490795
atom_frac 0.2354645507444734 0.8031235249789441 0.8391510642038965 O
    velocity 2.6682942171685822 5.9020489729722865 8.0669240083474332
atom_frac 0.7460050756835984 0.8102554526156104 0.8334216869862427 O
    velocity 6.2245298691292481 2.0979671541410787 0.3282758333195452
atom_frac 0.2389508349423669 0.3026471080770917 0.8340149019007524 O
    velocity 1.2480975432332950 5.9419707759364018 -3.8728094079411108
atom_frac 0.7428189400641617 0.3087628115903482 0.8295173323066221 O
    velocity -5.9694538081576187 2.3714069222951153 -3.5597503380450082
atom_frac 0.5071732158050124 0.7993095241613350 0.1489021124441562 O
    velocity -2.9640524466588727 -12.0720104203794687 -0.6521253489212090
atom_frac 0.0042858447374334 0.7997094167885692 0.1364262593728527 O
    velocity -1.9517218440331390 -0.1853899291538477 7.2459707359715617
atom_frac 0.4821854646866845 0.3064963419379307 0.1353474500982111 O
    velocity -6.5109084534195505 -5.2423910716410251 -0.0984041261220883
atom_frac 0.9913872487708515 0.3017063689781364 0.1392112864454842 O
    velocity 0.1651488114455266 4.1200464104529928 -8.9946179976662322
atom_frac 0.5127517472966415 0.7956812516315243 0.6340181775310655 O
    velocity 3.5610695042719587 7.9579969582772803 -1.1780663155618949
atom_frac 0.9982277544321113 0.8086148282774552 0.6335172605859348 O
    velocity -2.5246881645903345 -5.2789163972059141 -5.9947718667615231
atom_frac 0.5034548869880715 0.3067239081716585 0.6368907009501834 O
    velocity -0.3197853274176981 1.0798125468935951 2.2834701424574759
atom_frac 0.9958896695368064 0.3099382251971374 0.6373250805700946 O
    velocity -3.8228438926087658 -2.0828714669619997 0.1316331297990766
atom_frac 0.5085897891935400 0.8171414109175446 0.3785620484199470 O
    velocity 0.1564252609819242 -0.6493719325001297 2.7318261816629099
atom_frac 0.9922849412291084 0.7911539380685708 0.3811950652311218 O
    velocity 4.3985414020577958 -3.3550875074974229 2.7443941561072869
atom_frac 0.4926957075178454 0.3019200713191582 0.3837978629548768 O
    velocity -2.9578095622385385 -2.3673379203443812 -3.9358137825523531
atom_frac 0.9929971376753811 0.3132037472110171 0.3899365117679767 O
    velocity -0.1089094844768500 3.8981592109846033 -1.2713632119900793
atom_frac 0.4827437928377165 0.8068823027025429 0.8922455159146662 O
    velocity -3.5606485724691770 -3.4786459137444110 -0.9971016005568144
atom_frac 0.9862600577114465 0.7963112253793756 0.8811149703824408 O
    velocity 0.2195646355524359 6.1111707282622643 5.4188612576060855
atom_frac 0.4870246816763449 0.2960694416123646 0.8840510716844413 O
    velocity 5.6792494617946083 2.5957552140791003 1.5551523832196710
atom_frac 0.9965703387437118 0.2962001782978954 0.8789688416029342 O
    velocity -1.3625921936435792 -8.3383382380903281 1.3588393632770264
atom_frac 0.2424393227470239 0.0580956947461225 0.1273891577986222 O
    velocity -6.7968852144137957 1.2570371703442094 -2.0075199249602691
atom_frac 0.7428003803167186 0.0744049874157148 0.1406626229951947 O
    velocity -1.7675347787808056 1.6118434250176450 0.0242250244953321
atom_frac 0.2463278730446684 0.5485431485832213 0.1259836395858092 O
    velocity 5.2301238974930193 1.0450817633763685 6.5814270284110838
atom_frac 0.7504806483036711 0.5583745585649482 0.1341781146636415 O
    velocity 0.2181785988224151 -3.9529060085486747 -5.1646192868423251
atom_frac 0.2557025727823141 0.0537820667779797 0.6365783033738799 O
    velocity 3.9122674658502241 2.6824212468419177 1.6590696175316553
atom_frac 0.7554500396442353 0.0565168718077535 0.6393228072942252 O
    velocity -0.7203281600362700 1.7000112956012474 -2.3178790868529724
atom_frac 0.2504777689373011 0.5470812289748856 0.6295876041203149 O
    velocity -9.3659058284034717 1.7571524472160744 -1.8727529659975779
atom_frac 0.7459466116418407 0.5605578320552034 0.6287072712437832 O
    velocity 0.1522371012699713 5.6565632537948058 -2.4338992574757268
atom_frac 0.2552378008891066 0.0568211869123434 0.3813816450566324 O
    velocity 3.2908387535361912 1.9795255046992248 -1.4674641325595663
atom_frac 0.7534001898628376 0.0572115992139131 0.3951177057940290 O
    velocity -6.4178122788820273 -1.3896748716114344 8.7841514880045874
atom_frac 0.2424348643097367 0.5503583354266097 0.3864763973387769 O
    velocity -4.6500534632846016 -3.2161719212686428 4.0036015701737009
atom_frac 0.7394328909143727 0.5653611448498013 0.3708206948115095 O
    velocity -1.1421887273110050 4.2007125789848230 -8.6686623234061599
atom_frac 0.2438102350786418 0.0564469100777714 0.8770718515967878 O
    velocity 1.0712421459376993 1.5210402843098305 -5.9673090048788016
atom_frac 0.7516691124370404 0.0609649088070295 0.8864845632788538 O
    velocity 5.1580995195995492 1.5762003254529817 -1.0253119417637215
atom_frac 0.2540907403301116 0.5607927656367747 0.8771892633745585 O
    velocity -10.2175558828870496 5.7827709823193532 10.1456270396947978
atom_frac 0.7471599695376239 0.5649493909797026 0.8796798982337430 O
    velocity 1.4102067506066513 -3.1362844973423711 5.3546954780919735
atom_frac 0.4929776263480838 0.0546123754500544 0.0927043200917408 O
    velocity 4.6249938189104922 -1.1107630105493584 -0.5133212478370255
atom_frac 0.9929455041250397 0.0523638498554408 0.0863961096925496 O
    velocity -1.5975727681482894 -1.1212436779312029 2.6634649580112861
atom_frac 0.4993995915299149 0.5575548531997576 0.0848475000327756 O
    velocity 7.3126529948529733 5.5017947515236703 2.5034610104154771
atom_frac 0.0001763683319347 0.5533230472193901 0.0814916399127938 O
    velocity 2.7483003904023624 0.3517592558686760 0.4137116289301045
atom_frac 0.5072091916309438 0.0549480847752314 0.5982098497181685 O
    velocity 0.7311521228465703 0.3703235992355208 -1.2059216246057485
atom_frac 0.9947194450023785 0.0572714846501273 0.5879859336838136 O
    velocity 3.1545667451214183 4.4318803392553230 -5.6283474801338595
atom_frac 0.4902170222662791 0.5578738232092636 0.5861557721271815 O
    velocity -5.5257821105031741 3.5505580231803968 5.0920743381934335
atom_frac 0.9972656017969297 0.5605983017371732 0.5931883094122991 O
    velocity 1.4199358050820710 -6.3944089435647591 -0.2424580590181580
atom_frac 0.5252089855538161 0.0665732365993370 0.3363727522698055 O
    velocity -2.6704154080509444 3.7139135157311873 4.7599871937383273
atom_frac 0.0093158091595767 0.0605867468514660 0.3344606479000106 O
    velocity 4.3392095227737526 5.2678215857206290 -5.6280006442159998
atom_frac 0.4967714757338765 0.5565269136240278 0.3430145949670586 O
    velocity -0.6794427258432002 -2.4753246663741004 4.4018064567809763
atom_frac 0.9942355370944249 0.5527562854933483 0.3312431884626864 O
    velocity -2.3774439167093830 1.0003466267801087 6.3099543996260037
atom_frac 0.5004500430919884 0.0523633100363984 0.8415717482573029 O
    velocity 8.7758239398745310 -0.5847655414866985 -1.4763660855959873
atom_frac 0.9982491088297056 0.0451822637922288 0.8361698453840797 O
    velocity -0.1513568251404982 -2.7834116548435510 5.0205808014155986
atom_frac 0.4984576279517816 0.5593627515010023 0.8332747723639370 O
    velocity 1.1317505258048497 -1.6287902238554597 3.8487311062072451
atom_frac 0.9964016480653821 0.5416524382975999 0.8372762844750932 O
    velocity -4.7933297964152874 -3.7156346595006218 1.3184519142995608
