#=======================================================
# FHI-aims file: /raven/u/mlang/gknet-aims/new_verdi_monoclinic/relaxation/k12_rho1e-7_tight/relaxation/geometry.in.next_step
# Created using the Atomic Simulation Environment (ASE)
# Mon Jan  9 16:38:55 2023

# Additional information:
#  Relaxed with BFGS, fmax=1.000 meV/AA
#  nsteps = 7
#  residual force  = 0.831109 meV/AA
#  residual stress = 0.595393 meV/AA
#=======================================================
lattice_vector 5.1277527807389998 0.0000000000000000 -0.0005817129430000 
lattice_vector 0.0000000000000000 5.2094804177630003 -0.0000000000000000 
lattice_vector -0.8838786124440000 -0.0000000000000000 5.2215919908470001 
atom_frac 0.2771738094400000 0.0434066065740000 0.2096020827079999 Zr
atom_frac 0.7228261335600000 0.9565933934259999 0.7903979312920000 Zr
atom_frac 0.7228261335599999 0.5434066065740000 0.2903979312920000 Zr
atom_frac 0.2771738094400000 0.4565933934260000 0.7096020827080000 Zr
atom_frac 0.0697272220940000 0.3359377861150000 0.3418723109249999 O
atom_frac 0.9302727209059999 0.6640622138850000 0.6581277030749999 O
atom_frac 0.9302727209059999 0.8359377861149999 0.1581277030750000 O
atom_frac 0.0697272220940000 0.1640622138850000 0.8418723109250001 O
atom_frac 0.4487255797260001 0.7576609645629999 0.4794593446829999 O
atom_frac 0.5512743632740000 0.2423390354370000 0.5205406693170000 O
atom_frac 0.5512743632740000 0.2576609645630000 0.0205406693170000 O
atom_frac 0.4487255797260001 0.7423390354370000 0.9794593446829999 O
