#=======================================================
# FHI-aims file: geometry.in.supercell.0010K
# Created using the Atomic Simulation Environment (ASE)
# Mon Dec 28 22:25:26 2020

# Additional information:
#  created from MB distrubtion
#  T = 10.0 K
#  quantum:             False
#  deterministic:       False
#  plus_minus:          False
#  gauge_eigenvectors:  False
#  Random seed:         1537476570
#  Sample number:       1
#=======================================================
lattice_vector 10.1952194790879993 0.0000002312840000 0.0000001149100000 
lattice_vector 0.0000002312840000 10.1952585700719993 -0.0000000817060000 
lattice_vector 0.0000001174240000 -0.0000000834940000 10.4472499926080005 
atom 10.1952195705575175 0.0000001715475008 10.4472500947462343 Zr
    velocity 0.2368225129018778 0.5875015715069433 -0.1179770876503722
atom 2.5488050190625202 2.5488146406025010 10.4472499881372372 Zr
    velocity -0.5703849756048983 -0.1930513847243139 0.0238143361653774
atom 5.0976099466555187 5.0976293409415012 10.4472499964382344 Zr
    velocity -0.1638178416998087 -0.1764538170289650 -0.0740172087510623
atom 7.6464148742485190 7.6464440412804997 10.4472500047392334 Zr
    velocity -0.3910364371211167 -0.1193958490252913 0.0939315798515231
atom 7.6464147586065190 2.5488147562445009 10.4472500455922344 Zr
    velocity 0.3631655679966628 0.5341051729798280 -0.5686841317269790
atom 10.1952196861995183 5.0976294565835012 10.4472500538932334 Zr
    velocity 0.1447786239644429 0.0489673538904726 -0.6113030622040334
atom 2.5488051347045202 7.6464439256384997 10.4472499472842326 Zr
    velocity -0.3306586468778955 -0.1987276668638583 0.3541851675188598
atom 5.0976098310135187 0.0000000559055008 10.4472500372912371 Zr
    velocity 0.0563283795895363 0.1287590050181036 -0.1089090428077249
atom 10.1952195118455187 0.0000002132945008 5.2236250984422359 Zr
    velocity -0.1361027616720950 -0.0475356656102758 0.3228603096561657
atom 2.5488049603505201 2.5488146823495006 5.2236249918332351 Zr
    velocity 0.4441222952361816 -0.0818685491768275 -0.1129882281348488
atom 5.0976098879435190 5.0976293826885017 5.2236250001342359 Zr
    velocity -0.5089064801181006 -0.4000370089017382 -0.4200027562607737
atom 7.6464148155365192 7.6464440830275002 5.2236250084352358 Zr
    velocity -0.1863338440186975 -0.0642168226571257 0.2376236728616118
atom 7.6464146998945193 2.5488147979915006 5.2236250492882359 Zr
    velocity -0.0879438705162498 0.2004114582430245 0.2122884845961982
atom 10.1952196274875195 5.0976294983305017 5.2236250575892358 Zr
    velocity -0.0350508078894772 0.2767281188799416 0.3072072131262039
atom 2.5488050759925200 7.6464439673855003 5.2236249509802359 Zr
    velocity -0.1440442207279409 0.3003738510248177 -0.1172811904090009
atom 5.0976097723015190 0.0000000976525008 5.2236250409872360 Zr
    velocity -0.1043301587161249 0.3122818637940998 -0.1582140263898028
atom 0.0000001020416280 2.5488145286739359 2.6118124866735699 Zr
    velocity -0.2454631539876403 0.0027508461731129 0.3840920233732918
atom 2.5488050296346279 5.0976292290129361 2.6118124949745689 Zr
    velocity 0.8558744793832560 0.1740303200210357 -0.2727803939092815
atom 5.0976099572276272 7.6464439293519364 2.6118125032755688 Zr
    velocity 0.2349185001098087 -0.4381294959546374 0.0660157229327927
atom 7.6464148848206275 10.1952586296909367 2.6118125115765700 Zr
    velocity 0.2603165371422125 0.0772224327165297 -0.1915699782379754
atom 7.6464147691786275 5.0976293446549361 2.6118125524295688 Zr
    velocity -0.4261588858309147 -0.2560673643256715 -0.2217467339346086
atom 0.0000002176836280 7.6464438137099364 2.6118124458205698 Zr
    velocity -0.1049067673284454 0.1022936365251673 -0.0943993728938043
atom 2.5488051452766278 10.1952585140489358 2.6118124541215688 Zr
    velocity -0.1455182855100408 -0.0005357185130120 -0.0007399119737322
atom 5.0976098415856272 2.5488146443159372 2.6118125441285689 Zr
    velocity 0.4449450736435720 -0.0696384368520332 0.0937285033069010
atom 0.0000001607536280 2.5488144869269376 7.8354374829775697 Zr
    velocity 0.5473092277968342 -0.0555845527933262 0.0118715675384941
atom 2.5488050883466276 5.0976291872659365 7.8354374912785696 Zr
    velocity 0.3422145024928456 0.0475828300093023 -0.2839224676326215
atom 5.0976100159396269 7.6464438876049368 7.8354374995795686 Zr
    velocity -0.0755467540244222 -0.0099003158253313 0.3531387041907249
atom 7.6464149435326272 10.1952585879439361 7.8354375078805685 Zr
    velocity -0.4022210287128047 0.0332178693748347 0.4930848502337037
atom 7.6464148278906272 5.0976293029079365 7.8354375487335686 Zr
    velocity 0.4590808950771245 -0.1225546589093045 0.3534791111567705
atom 0.0000002763956280 7.6464437719629368 7.8354374421245696 Zr
    velocity 0.3848204261489655 0.1608067489174863 -0.4065729464178487
atom 2.5488052039886275 10.1952584723019353 7.8354374504255695 Zr
    velocity -0.4825425526504349 -0.5143992127094101 -0.4901532253758992
atom 5.0976099002976270 2.5488146025689384 7.8354375404325696 Zr
    velocity 0.1198100084651180 -0.3181704812994549 0.3864653952977150
atom 1.2744024515736083 1.2744073718773856 1.0024190245136309 O
    velocity 1.0868584942868138 0.4608197054093434 -0.6955393488341085
atom 3.8232073791666079 3.8232220722163857 1.0024190328146307 O
    velocity 0.1120787197930298 0.7668869492970494 -0.4044227582264775
atom 6.3720123067596077 6.3720367725553846 1.0024190411156308 O
    velocity 0.3468968194281044 -0.1053010685847784 -0.0263896986815132
atom 8.9208172343526080 8.9208514728943840 1.0024190494166307 O
    velocity 0.9401880705857696 0.0314178583011058 -0.0698984175368010
atom 8.9208171187106071 3.8232221878583856 1.0024190902696308 O
    velocity -0.5364629871017630 0.7093820131263782 -0.3919071893692458
atom 1.2744025672156083 6.3720366569133855 1.0024189836606308 O
    velocity 1.4515876349010564 -0.8218633598130155 1.0009208687615998
atom 3.8232074948086079 8.9208513572523866 1.0024189919616309 O
    velocity -1.3065005274908550 -1.5015987734075671 -0.3083398046798262
atom 6.3720121911176069 1.2744074875193858 1.0024190819686307 O
    velocity 0.1717315966723625 -0.2234158972225054 -0.4311144953062234
atom 1.2744025102856082 1.2744073301303855 6.2260440208176311 O
    velocity 0.3097841152130447 0.9560716898507576 -0.0232721521848281
atom 3.8232074378786081 3.8232220304693865 6.2260440291186310 O
    velocity 0.6266408301538665 0.6294152625103433 -1.1002742740189708
atom 6.3720123654716074 6.3720367308083841 6.2260440374196282 O
    velocity 0.7333165846413389 -1.2661967540041075 -0.3642289532301504
atom 8.9208172930646086 8.9208514311473852 6.2260440457206290 O
    velocity -0.0887652298175163 -1.1131625389824948 0.8834584692836549
atom 8.9208171774226077 3.8232221461113864 6.2260440865736282 O
    velocity -0.0244293537205962 -1.1573083316916308 -0.5690402151302877
atom 1.2744026259276082 6.3720366151663841 6.2260439799646310 O
    velocity -0.5359642823881500 0.5532946938951560 2.0297253989074040
atom 3.8232075535206080 8.9208513155053879 6.2260439882656282 O
    velocity 0.8125697390626115 0.1538118095433945 -0.8861857962779637
atom 6.3720122498296066 1.2744074457723857 6.2260440782726310 O
    velocity 0.4432336413009673 -1.0871806792461731 0.2764026719458808
atom 1.2744025328003397 1.2744073262829310 3.6142318818368619 O
    velocity -1.3997953728892754 -0.5260004725532589 0.1951739378630003
atom 3.8232074603933399 3.8232220266219321 3.6142318901378605 O
    velocity 0.1989159518910646 -0.3484799677261988 -0.3500146928273856
atom 6.3720123879863388 6.3720367269609302 3.6142318984388608 O
    velocity -0.8004192944238981 1.5166589751687138 -0.1671096571956901
atom 8.9208173155793382 8.9208514272999295 3.6142319067398607 O
    velocity -0.4125233626162846 0.1226283326785760 -0.1519174809129317
atom 8.9208171999373391 3.8232221422639321 3.6142319475928608 O
    velocity -1.5344989652179455 0.3798706525586242 0.4288719587531718
atom 1.2744026484423396 6.3720366113189302 3.6142318409838605 O
    velocity 0.8169975514614708 -0.5497213895163355 -0.4031052761136447
atom 3.8232075760353399 8.9208513116579340 3.6142318492848604 O
    velocity -0.9917855908713180 0.0899688728442962 1.0859904379377872
atom 6.3720122723443389 1.2744074419249318 3.6142319392918605 O
    velocity 0.8612127741301798 -0.4280632563999412 -1.3557398296319454
atom 1.2744025915123398 1.2744072845359309 8.8378568781408617 O
    velocity -0.4705108750418142 0.8447834914005379 0.5517010837440915
atom 3.8232075191053396 3.8232219848749307 8.8378568864418625 O
    velocity -0.0619380391539013 1.0988987355346556 0.1335918100975172
atom 6.3720124466983394 6.3720366852139296 8.8378568947428615 O
    velocity 0.1190925433531210 0.1234203076722298 1.2550545257545231
atom 8.9208173742913388 8.9208513855529290 8.8378569030438587 O
    velocity -0.5638129157993808 -0.0635355948849438 -0.6416246361840653
atom 8.9208172586493397 3.8232221005169307 8.8378569438968615 O
    velocity -0.7473929016244337 -0.7573037471575483 0.8897644220670596
atom 1.2744027071543398 6.3720365695719297 8.8378568372878625 O
    velocity -0.7298587928333943 0.7539524413609271 -0.4538234851378080
atom 3.8232076347473396 8.9208512699109299 8.8378568455888615 O
    velocity -0.9449375098585654 -0.3627923497502853 -0.3510126816571837
atom 6.3720123310563395 1.2744074001779317 8.8378569355958625 O
    velocity 0.4317196552438091 0.1759078584845464 0.3251245329352220
atom 8.9208170733548702 1.2744075145374438 1.6093931900202196 O
    velocity 0.1760860873698529 0.1396366287983953 0.4263932308124256
atom 1.2744025218598707 3.8232219835924428 1.6093930834112196 O
    velocity 0.0969580945014309 -0.0938484308858502 -0.9910808872708803
atom 3.8232074494528705 6.3720366839314426 1.6093930917122194 O
    velocity 0.4275068037478139 -0.2598189812491062 -0.1390292399936899
atom 6.3720123770458708 8.9208513842704420 1.6093931000132196 O
    velocity -0.4033934075802778 -0.9075516496811540 0.7114913246133210
atom 6.3720122614038708 3.8232220992344428 1.6093931408662194 O
    velocity -0.3731878744785569 -0.1756053511809470 0.6825611943266716
atom 8.9208171889968693 6.3720367995734426 1.6093931491672195 O
    velocity -0.6406258639269469 0.1162208852153073 0.5208530195490614
atom 1.2744026375018709 8.9208512686284411 1.6093930425582195 O
    velocity 0.4754111784917581 0.2664786820199029 -1.0688457439972894
atom 3.8232073338108705 1.2744073988954427 1.6093931325652195 O
    velocity -0.5713981382919526 -0.2823008251228584 -0.7118366167395366
atom 8.9208171320668708 1.2744074727904438 6.8330181863242210 O
    velocity 0.6622293394366965 -0.7150982123707738 0.9062819062833636
atom 1.2744025805718706 3.8232219418454427 6.8330180797152194 O
    velocity -0.9306883623544048 0.1166568576833387 0.3030647978558012
atom 3.8232075081648702 6.3720366421844430 6.8330180880162210 O
    velocity -1.3049007622616793 -0.5254595595995029 -0.2210781724323157
atom 6.3720124357578705 8.9208513425234468 6.8330180963172182 O
    velocity 0.0437997054072952 -0.3204064110136872 -0.9820390619410743
atom 6.3720123201158705 3.8232220574874427 6.8330181371702210 O
    velocity -0.1832592344565072 1.0143728160567846 -0.0016185418155029
atom 8.9208172477088699 6.3720367578264430 6.8330181454712182 O
    velocity 0.5097000145518679 0.1010011469985963 -0.5375567242606528
atom 1.2744026962138708 8.9208512268814424 6.8330180388622210 O
    velocity 0.9736248310464107 0.3655672879425027 1.5101857401074894
atom 3.8232073925228702 1.2744073571484427 6.8330181288692193 O
    velocity 0.6656845353373712 -0.8332692142798485 0.4955851847330423
atom 8.9208171446055804 1.2744075206278507 4.2212060890279774 O
    velocity 0.8516961958741180 0.6801950533069137 0.2492269888789388
atom 1.2744025931105816 3.8232219896828505 4.2212059824189776 O
    velocity -0.0632033335969733 0.1230977323513743 -0.4415174536267020
atom 3.8232075207035812 6.3720366900218535 4.2212059907199775 O
    velocity 0.2944048706641840 0.3647835452425530 -0.2530646213757665
atom 6.3720124482965810 8.9208513903608520 4.2212059990209783 O
    velocity -0.0863090523498863 -0.0167417950347087 1.2742461351616630
atom 6.3720123326545810 3.8232221053248505 4.2212060398739775 O
    velocity -0.8910706003418770 -0.1049479759894557 -0.2443817635302012
atom 8.9208172602475813 6.3720368056638534 4.2212060481749782 O
    velocity -0.6146360625153064 -0.4855068968214761 1.8113044980748578
atom 1.2744027087525815 8.9208512747188546 4.2212059415659775 O
    velocity 0.5574262141093909 -1.1911666375939147 -1.3848249711279099
atom 3.8232074050615812 1.2744074049858529 4.2212060315729776 O
    velocity 1.3890185038031291 0.5285128524612726 0.8170962374303372
atom 8.9208172033175792 1.2744074788808506 9.4448310853319768 O
    velocity 0.3942372350070928 0.0567799084075417 -0.7649689229096459
atom 1.2744026518225815 3.8232219479358522 9.4448309787229743 O
    velocity 0.0152791540036249 0.9052478016363792 -0.5837989783755015
atom 3.8232075794155813 6.3720366482748512 9.4448309870239768 O
    velocity -1.7900569418503856 1.3743858287530333 0.1260002033977122
atom 6.3720125070085816 8.9208513486138514 9.4448309953249758 O
    velocity 0.6296809635853333 -0.5551859597923008 1.3499803845224378
atom 6.3720123913665816 3.8232220635778522 9.4448310361779768 O
    velocity -0.3332985346934069 0.7345028531404101 0.0185036143566940
atom 8.9208173189595801 6.3720367639168511 9.4448310444789758 O
    velocity 0.0726308064245633 0.1782270593198145 -0.0121577014934526
atom 1.2744027674645815 8.9208512329718488 9.4448309378699769 O
    velocity -0.3356561678389782 0.3310421385552011 1.2870600325931425
atom 3.8232074637735813 1.2744073632388528 9.4448310278769743 O
    velocity -0.0427506914811444 0.4667137971377517 -0.8842112882909351
