#=======================================================
# FHI-aims file: 1400_geometry.in.primitive.supercell_2592.0010K
# Created using the Atomic Simulation Environment (ASE)
# Wed Aug 24 14:05:33 2022

# Additional information:
#  created from MB distrubtion
#  T = 10.0 K
#  quantum:             False
#  deterministic:       False
#  plus_minus:          False
#  gauge_eigenvectors:  False
#  Random seed:         36962346
#  Sample number:       1
#=======================================================
lattice_vector 31.1759999999999984 0.0000000000000000 0.0000000000000000 
lattice_vector 0.0000000000000000 31.3140000000000001 0.0000000000000000 
lattice_vector -4.8827090778495661 0.0000000000000000 31.9571390468715997 
atom 1.2667827658430271 0.2226370489648440 1.1184859249923955 Zr
    velocity -0.4718356345747209 -0.0354434870926431 -0.2226696179385506
atom 6.4627827658430244 0.2226370489648440 1.1184859249923955 Zr
    velocity 0.2731625241364169 0.0008612126899944 0.0195938968955350
atom 11.6587827658430250 0.2226370489648440 1.1184859249923955 Zr
    velocity -0.1035204714294269 0.2470218139037875 -0.0488273087617649
atom 16.8547827658430194 0.2226370489648440 1.1184859249923955 Zr
    velocity -0.1892947024104789 -0.0268347745479259 0.0603284247474684
atom 22.0507827658430244 0.2226370489648440 1.1184859249923955 Zr
    velocity -0.2430692680062649 -0.0244442329779992 -0.6258699682232362
atom 27.2467827658430259 0.2226370489648440 1.1184859249923955 Zr
    velocity 0.3455301545507809 -0.5052366587783155 0.4579034754293372
atom 1.2667827658430271 5.4416370489648420 1.1184859249923955 Zr
    velocity -0.0672186575447382 0.2832013174595155 0.1906604357988659
atom 6.4627827658430244 5.4416370489648420 1.1184859249923955 Zr
    velocity 0.3571522043817998 -0.1831860006173881 -0.1936785086452303
atom 11.6587827658430250 5.4416370489648420 1.1184859249923955 Zr
    velocity 0.2352659853206830 0.2717957539471253 0.6358830132385076
atom 16.8547827658430194 5.4416370489648420 1.1184859249923955 Zr
    velocity 0.2204099717948666 -0.2529891969268178 -0.2283584516066652
atom 22.0507827658430244 5.4416370489648420 1.1184859249923955 Zr
    velocity 0.1149687776661825 -0.1416882111655490 -0.0798927123625987
atom 27.2467827658430259 5.4416370489648420 1.1184859249923955 Zr
    velocity 0.0255884334643607 -0.0102878293929535 0.0627215890526010
atom 1.2667827658430271 10.6606370489648423 1.1184859249923955 Zr
    velocity 0.0285111643521103 0.5570294257552769 -0.2421683411630156
atom 6.4627827658430244 10.6606370489648423 1.1184859249923955 Zr
    velocity -0.3192811133097235 -0.4170062293227182 -0.3283248723467530
atom 11.6587827658430250 10.6606370489648423 1.1184859249923955 Zr
    velocity -0.0156801515442725 0.0167786320245902 0.3778358886834091
atom 16.8547827658430194 10.6606370489648423 1.1184859249923955 Zr
    velocity 0.2455068973269411 0.1522631879397970 -0.0195925642563751
atom 22.0507827658430244 10.6606370489648423 1.1184859249923955 Zr
    velocity -0.1664719025908787 0.3002474429647451 0.3252824266791937
atom 27.2467827658430259 10.6606370489648423 1.1184859249923955 Zr
    velocity -0.2555909221889573 -0.0157500363462137 0.1707577853950276
atom 1.2667827658430271 15.8796370489648435 1.1184859249923955 Zr
    velocity 0.5788050875090988 -0.0399644477593620 -0.0400877618547171
atom 6.4627827658430244 15.8796370489648435 1.1184859249923955 Zr
    velocity -0.1314639292290160 -0.0157349977758750 0.0758092228838581
atom 11.6587827658430250 15.8796370489648435 1.1184859249923955 Zr
    velocity 0.1157653931685808 0.8122216786057246 -0.2502364328059147
atom 16.8547827658430194 15.8796370489648435 1.1184859249923955 Zr
    velocity -0.1432331554126968 0.0640932585086204 0.2617194205369375
atom 22.0507827658430244 15.8796370489648435 1.1184859249923955 Zr
    velocity 0.1744485656800432 0.2127418432672304 0.5566476320782670
atom 27.2467827658430259 15.8796370489648435 1.1184859249923955 Zr
    velocity -0.2377139646461112 -0.1767382933598099 -0.3069495864139450
atom 1.2667827658430271 21.0986370489648465 1.1184859249923955 Zr
    velocity 0.4076726799633043 -0.4014660639022949 0.5431799869387844
atom 6.4627827658430244 21.0986370489648465 1.1184859249923955 Zr
    velocity 0.6622575561324811 0.1846569340689590 0.1599000791339625
atom 11.6587827658430250 21.0986370489648465 1.1184859249923955 Zr
    velocity 0.4085208756209082 0.2200649485820740 -0.1556128107316552
atom 16.8547827658430194 21.0986370489648465 1.1184859249923955 Zr
    velocity -0.4899873958704181 0.3146076313768690 0.3478998979349563
atom 22.0507827658430244 21.0986370489648465 1.1184859249923955 Zr
    velocity 0.1231262713635942 0.0986748096103648 -0.1708886004375456
atom 27.2467827658430259 21.0986370489648465 1.1184859249923955 Zr
    velocity 0.2982763604544121 0.2028166497868236 0.3039981166572809
atom 1.2667827658430271 26.3176370489648441 1.1184859249923955 Zr
    velocity 0.6699947726042512 0.0064779375981531 -0.2950539169354355
atom 6.4627827658430244 26.3176370489648441 1.1184859249923955 Zr
    velocity 0.2589217125828234 -0.0564863390073241 -0.1304238633588779
atom 11.6587827658430250 26.3176370489648441 1.1184859249923955 Zr
    velocity -0.3372943923461799 0.1295575159066341 0.1375035625756231
atom 16.8547827658430194 26.3176370489648441 1.1184859249923955 Zr
    velocity 0.2623717751357486 0.4187365746211873 -0.0011860232270952
atom 22.0507827658430244 26.3176370489648441 1.1184859249923955 Zr
    velocity -0.4672111419770724 -0.0357414748773171 0.1215004043289153
atom 27.2467827658430259 26.3176370489648441 1.1184859249923955 Zr
    velocity -0.0346842988928309 -0.1442383209367400 -0.0224659575311763
atom 0.4529979195347662 0.2226370489648440 6.4446757661376601 Zr
    velocity -0.3925889137451190 -0.5655931214589676 -0.2508997324928479
atom 5.6489979195347635 0.2226370489648440 6.4446757661376601 Zr
    velocity -0.4126848620173763 0.1429687058974642 -0.0111539565376087
atom 10.8449979195347641 0.2226370489648440 6.4446757661376601 Zr
    velocity -0.0835366391921209 -0.3566001966300756 -0.2726695345685329
atom 16.0409979195347603 0.2226370489648440 6.4446757661376601 Zr
    velocity -0.3131443212534135 0.1554544767129251 0.0987257444994716
atom 21.2369979195347653 0.2226370489648440 6.4446757661376601 Zr
    velocity 0.5010979317113419 0.0701189425760517 -0.0110576115624663
atom 26.4329979195347669 0.2226370489648440 6.4446757661376601 Zr
    velocity 0.5015411820912836 -0.2869017463417749 0.1278163211711265
atom 0.4529979195347662 5.4416370489648420 6.4446757661376601 Zr
    velocity 0.0961849663806566 0.0601933999700805 -0.4496933309745179
atom 5.6489979195347635 5.4416370489648420 6.4446757661376601 Zr
    velocity 0.1642580241070018 0.4068774260043600 0.1403366816864671
atom 10.8449979195347641 5.4416370489648420 6.4446757661376601 Zr
    velocity -0.6875112503250660 0.0743666049662830 -0.5617434047237346
atom 16.0409979195347603 5.4416370489648420 6.4446757661376601 Zr
    velocity -0.0719678337138060 0.1272066906251612 -0.1514921819865629
atom 21.2369979195347653 5.4416370489648420 6.4446757661376601 Zr
    velocity 0.0125526909365457 -0.1279043940047652 -0.0279143747279713
atom 26.4329979195347669 5.4416370489648420 6.4446757661376601 Zr
    velocity 0.1782983527891113 -0.1404843506586382 -0.6185511007406949
atom 0.4529979195347662 10.6606370489648423 6.4446757661376601 Zr
    velocity 0.0989936338844792 -0.0582722754654640 0.1421685440179649
atom 5.6489979195347635 10.6606370489648423 6.4446757661376601 Zr
    velocity -0.3093088795375335 -0.3022480903851383 0.0762882295269196
atom 10.8449979195347641 10.6606370489648423 6.4446757661376601 Zr
    velocity -0.3283870632771534 -0.2887370124635382 -0.2704403641099584
atom 16.0409979195347603 10.6606370489648423 6.4446757661376601 Zr
    velocity 0.5691021609094558 -0.0334503238933098 -0.4188174568477911
atom 21.2369979195347653 10.6606370489648423 6.4446757661376601 Zr
    velocity -0.1697562284878713 -0.2139810069766294 -0.2396080219675639
atom 26.4329979195347669 10.6606370489648423 6.4446757661376601 Zr
    velocity 0.0832799693948591 -0.3245306694603256 0.4069151432200311
atom 0.4529979195347662 15.8796370489648435 6.4446757661376601 Zr
    velocity 0.1350061533984243 0.0162153695954089 0.1571105033709917
atom 5.6489979195347635 15.8796370489648435 6.4446757661376601 Zr
    velocity -0.0534727407800612 0.2934958458836250 -0.1483424326316988
atom 10.8449979195347641 15.8796370489648435 6.4446757661376601 Zr
    velocity -0.3465227986915621 -0.3811586475975426 0.5571788647583916
atom 16.0409979195347603 15.8796370489648435 6.4446757661376601 Zr
    velocity 0.1734912153781357 0.2587797072528371 -0.0037636321250709
atom 21.2369979195347653 15.8796370489648435 6.4446757661376601 Zr
    velocity 0.1218334423187794 -0.0559542084029629 -0.3609168326898188
atom 26.4329979195347669 15.8796370489648435 6.4446757661376601 Zr
    velocity 0.3165759422650505 -0.1627929370000036 -0.1064975136231147
atom 0.4529979195347662 21.0986370489648465 6.4446757661376601 Zr
    velocity 0.1038518119023987 -0.3525026024026615 -0.1410249535982436
atom 5.6489979195347635 21.0986370489648465 6.4446757661376601 Zr
    velocity 0.0351173604406378 0.2118621177136262 -0.0217709400245632
atom 10.8449979195347641 21.0986370489648465 6.4446757661376601 Zr
    velocity 0.1239977336501926 -0.0680190583354135 -0.0059127865673828
atom 16.0409979195347603 21.0986370489648465 6.4446757661376601 Zr
    velocity -0.1171987294267924 -0.4178525091933635 0.0365695230562071
atom 21.2369979195347653 21.0986370489648465 6.4446757661376601 Zr
    velocity -0.4966011252079541 0.2284680026271842 0.6838904622150508
atom 26.4329979195347669 21.0986370489648465 6.4446757661376601 Zr
    velocity 0.3151593742638223 0.0112083528264055 0.2722626610942634
atom 0.4529979195347662 26.3176370489648441 6.4446757661376601 Zr
    velocity 0.1620846836042463 -0.3633187823110104 0.2365817676699553
atom 5.6489979195347635 26.3176370489648441 6.4446757661376601 Zr
    velocity 0.4425896089077240 -0.1155564321752977 0.3278084260374001
atom 10.8449979195347641 26.3176370489648441 6.4446757661376601 Zr
    velocity -0.1110516371169708 -0.3025378536990335 -0.7280816186003761
atom 16.0409979195347603 26.3176370489648441 6.4446757661376601 Zr
    velocity 0.1703832812393750 0.0419687744827825 0.2119453593767199
atom 21.2369979195347653 26.3176370489648441 6.4446757661376601 Zr
    velocity -0.1496374089648518 0.0649267759118689 0.2764693882095490
atom 26.4329979195347669 26.3176370489648441 6.4446757661376601 Zr
    velocity -0.0877756389436066 0.1332636102618105 0.2433641144900758
atom -0.3607869267734949 0.2226370489648440 11.7708656072829267 Zr
    velocity 0.4780726132165070 0.1354061215426948 0.4896458235686467
atom 4.8352130732265026 0.2226370489648440 11.7708656072829267 Zr
    velocity -0.1256389013520946 -0.1596297931998988 0.1717451776392982
atom 10.0312130732265015 0.2226370489648440 11.7708656072829267 Zr
    velocity -0.1098050433000756 0.2933992802985314 0.5704155487103499
atom 15.2272130732264976 0.2226370489648440 11.7708656072829267 Zr
    velocity 0.0715714638184470 0.0401559786146689 0.3608527787584710
atom 20.4232130732265027 0.2226370489648440 11.7708656072829267 Zr
    velocity 0.1780694093926983 0.5564674648285021 -0.0206231031677012
atom 25.6192130732265042 0.2226370489648440 11.7708656072829267 Zr
    velocity -0.7067481765291018 0.0896309569251375 0.3890775042435512
atom -0.3607869267734949 5.4416370489648420 11.7708656072829267 Zr
    velocity 0.2877651710242417 0.2842482897672896 -0.1792597707407208
atom 4.8352130732265026 5.4416370489648420 11.7708656072829267 Zr
    velocity -0.2240031575100840 0.5073874996476940 -0.5522577080279790
atom 10.0312130732265015 5.4416370489648420 11.7708656072829267 Zr
    velocity 0.0580413621740176 -0.1382173087940222 -0.1375792419275916
atom 15.2272130732264976 5.4416370489648420 11.7708656072829267 Zr
    velocity 0.1874624990225999 -0.3101796009992971 -0.2203481786461698
atom 20.4232130732265027 5.4416370489648420 11.7708656072829267 Zr
    velocity 0.2459406338017909 -0.0233142798164374 0.5135345867085247
atom 25.6192130732265042 5.4416370489648420 11.7708656072829267 Zr
    velocity 0.5544160767122457 -0.0241732663214613 0.1645881755210216
atom -0.3607869267734949 10.6606370489648423 11.7708656072829267 Zr
    velocity 0.1890993362147732 -0.2591198851528090 -0.1272445500434321
atom 4.8352130732265026 10.6606370489648423 11.7708656072829267 Zr
    velocity -0.4575462642509541 -0.0796994319345433 0.0523432140975109
atom 10.0312130732265015 10.6606370489648423 11.7708656072829267 Zr
    velocity -0.2092490723277852 0.1410148531023786 0.5258085319346103
atom 15.2272130732264976 10.6606370489648423 11.7708656072829267 Zr
    velocity -0.8323545626336928 -0.0898858127807445 -0.1329515079732389
atom 20.4232130732265027 10.6606370489648423 11.7708656072829267 Zr
    velocity 0.0930815896390889 0.2764376795741602 -0.0752016844874717
atom 25.6192130732265042 10.6606370489648423 11.7708656072829267 Zr
    velocity 0.1005346036140403 -0.1704841929990046 -0.0042686736223504
atom -0.3607869267734949 15.8796370489648435 11.7708656072829267 Zr
    velocity 0.0968124970112606 -0.0495611298045890 -0.4295990131361044
atom 4.8352130732265026 15.8796370489648435 11.7708656072829267 Zr
    velocity -0.0784120473561902 -0.4497771301499513 -0.7237681538967616
atom 10.0312130732265015 15.8796370489648435 11.7708656072829267 Zr
    velocity 0.3670922824159481 0.4100400477256342 0.0753621931784060
atom 15.2272130732264976 15.8796370489648435 11.7708656072829267 Zr
    velocity 0.0459177419331673 0.0302073247636552 0.8945381679762445
atom 20.4232130732265027 15.8796370489648435 11.7708656072829267 Zr
    velocity -0.3288230469697803 -0.1193826677845244 0.0452648640623742
atom 25.6192130732265042 15.8796370489648435 11.7708656072829267 Zr
    velocity -0.3034739934735837 -0.0809313421511974 0.3801863324842382
atom -0.3607869267734949 21.0986370489648465 11.7708656072829267 Zr
    velocity -0.0804778178227328 -0.4299845262883495 -0.5503105119829197
atom 4.8352130732265026 21.0986370489648465 11.7708656072829267 Zr
    velocity -0.2428709638896450 0.4078156193570903 -0.1128239001398357
atom 10.0312130732265015 21.0986370489648465 11.7708656072829267 Zr
    velocity 0.2729170573394729 0.3697272181883882 -0.1867972372548292
atom 15.2272130732264976 21.0986370489648465 11.7708656072829267 Zr
    velocity -0.0007556011655484 0.1592325837513539 0.3951766556539885
atom 20.4232130732265027 21.0986370489648465 11.7708656072829267 Zr
    velocity 0.3680315883769429 0.0512512430582076 0.2158379957253765
atom 25.6192130732265042 21.0986370489648465 11.7708656072829267 Zr
    velocity 0.2650730925632271 0.4898895224066901 0.3193117992799663
atom -0.3607869267734949 26.3176370489648441 11.7708656072829267 Zr
    velocity -0.7440875920810553 -0.0520746081702392 0.1907341219823371
atom 4.8352130732265026 26.3176370489648441 11.7708656072829267 Zr
    velocity -0.0958318637356723 -0.1227189119793446 0.6687896831946614
atom 10.0312130732265015 26.3176370489648441 11.7708656072829267 Zr
    velocity -0.2957327407062364 0.3606756192300381 -0.1412400776970518
atom 15.2272130732264976 26.3176370489648441 11.7708656072829267 Zr
    velocity -0.2070109680549438 0.5798374589466484 -0.1736553103431043
atom 20.4232130732265027 26.3176370489648441 11.7708656072829267 Zr
    velocity 0.3613245114810873 0.1543207330872173 -0.2942240128181989
atom 25.6192130732265042 26.3176370489648441 11.7708656072829267 Zr
    velocity 0.0471189162947246 -0.2146375879595214 -0.3089601446580345
atom -1.1745717730817560 0.2226370489648440 17.0970554484281934 Zr
    velocity 0.5762477210384395 -0.1086742944187925 0.0456491817241654
atom 4.0214282269182418 0.2226370489648440 17.0970554484281934 Zr
    velocity 0.2865041363782098 -0.1528232248012608 0.2416333871891823
atom 9.2174282269182406 0.2226370489648440 17.0970554484281934 Zr
    velocity 0.6108237381237931 -0.5494347822030974 -0.0493074750842736
atom 14.4134282269182368 0.2226370489648440 17.0970554484281934 Zr
    velocity 0.5746647419179484 -0.4308732827719137 -0.2694169366870173
atom 19.6094282269182436 0.2226370489648440 17.0970554484281934 Zr
    velocity 0.3252566399156542 -0.4342873261572271 -0.0505669915677006
atom 24.8054282269182451 0.2226370489648440 17.0970554484281934 Zr
    velocity -0.0192592023396856 -0.0598118761587048 -0.0205463702028761
atom -1.1745717730817560 5.4416370489648420 17.0970554484281934 Zr
    velocity -0.1059053730884256 0.3015571788409785 -0.0445227440160063
atom 4.0214282269182418 5.4416370489648420 17.0970554484281934 Zr
    velocity 0.3268126590728232 0.3270852991326086 -0.4500803155992051
atom 9.2174282269182406 5.4416370489648420 17.0970554484281934 Zr
    velocity -0.1414025076578571 -0.0108221037561039 -0.0964337068616081
atom 14.4134282269182368 5.4416370489648420 17.0970554484281934 Zr
    velocity 0.0459883519648390 -0.4301961866190644 -0.6673851037133255
atom 19.6094282269182436 5.4416370489648420 17.0970554484281934 Zr
    velocity 0.6747335343977097 0.2189413326503892 -0.1424729902673761
atom 24.8054282269182451 5.4416370489648420 17.0970554484281934 Zr
    velocity -0.0382349633228800 -0.0249863732026012 -0.1105151684860382
atom -1.1745717730817560 10.6606370489648423 17.0970554484281934 Zr
    velocity 0.1307754797248941 0.1804914754472673 -0.5234966192973717
atom 4.0214282269182418 10.6606370489648423 17.0970554484281934 Zr
    velocity 0.2051727816937813 -0.2821915269184886 -0.1460662905482663
atom 9.2174282269182406 10.6606370489648423 17.0970554484281934 Zr
    velocity -0.1960598270931116 0.1507528854174426 0.3300827911982229
atom 14.4134282269182368 10.6606370489648423 17.0970554484281934 Zr
    velocity -0.2158031437047036 0.1350025282374967 -0.2546102042164190
atom 19.6094282269182436 10.6606370489648423 17.0970554484281934 Zr
    velocity -0.1978231194545506 -0.0829082763872433 -0.1283741907849039
atom 24.8054282269182451 10.6606370489648423 17.0970554484281934 Zr
    velocity 0.3111717941373139 -0.2480370902035277 -0.0262345844997463
atom -1.1745717730817560 15.8796370489648435 17.0970554484281934 Zr
    velocity -0.3304628016742452 0.1976680469796444 0.2434276110171962
atom 4.0214282269182418 15.8796370489648435 17.0970554484281934 Zr
    velocity -0.3306449252550148 -0.0074160474997058 -0.2333612588244170
atom 9.2174282269182406 15.8796370489648435 17.0970554484281934 Zr
    velocity 0.1002901492350424 0.1589645785166594 -0.1918674115506606
atom 14.4134282269182368 15.8796370489648435 17.0970554484281934 Zr
    velocity 0.3776558678275566 -0.1919481750473227 0.1056054499235582
atom 19.6094282269182436 15.8796370489648435 17.0970554484281934 Zr
    velocity -0.0937298438614788 -0.1134660741913805 -0.3996414116482331
atom 24.8054282269182451 15.8796370489648435 17.0970554484281934 Zr
    velocity -0.4408644599634643 -0.0970258324104845 -0.1293753468318400
atom -1.1745717730817560 21.0986370489648465 17.0970554484281934 Zr
    velocity 0.2672176995433609 0.5908797597152400 -0.1260737442940667
atom 4.0214282269182418 21.0986370489648465 17.0970554484281934 Zr
    velocity 0.0700656844136457 0.1393259416054702 0.8590669299121921
atom 9.2174282269182406 21.0986370489648465 17.0970554484281934 Zr
    velocity 0.0156017783204471 0.0135089583327162 0.0226321044538924
atom 14.4134282269182368 21.0986370489648465 17.0970554484281934 Zr
    velocity 0.3279092777182988 0.0381271737777389 0.2193730873899968
atom 19.6094282269182436 21.0986370489648465 17.0970554484281934 Zr
    velocity -0.4031497506072997 -0.3186758859702000 -0.1971904294607329
atom 24.8054282269182451 21.0986370489648465 17.0970554484281934 Zr
    velocity -0.1806433221060517 0.0254551334629834 0.1589744987357991
atom -1.1745717730817560 26.3176370489648441 17.0970554484281934 Zr
    velocity -0.2424148216632658 0.0185451421072204 0.1411116474520414
atom 4.0214282269182418 26.3176370489648441 17.0970554484281934 Zr
    velocity -0.3551809168238488 -0.3221419068168975 0.3801085951494716
atom 9.2174282269182406 26.3176370489648441 17.0970554484281934 Zr
    velocity -0.3339746920814555 0.1126723347530793 -0.0300990939992270
atom 14.4134282269182368 26.3176370489648441 17.0970554484281934 Zr
    velocity 0.2202977543522877 0.2958892183121979 -0.3952785273553946
atom 19.6094282269182436 26.3176370489648441 17.0970554484281934 Zr
    velocity -0.3831434255702909 0.3513101386526649 0.6174500554019863
atom 24.8054282269182451 26.3176370489648441 17.0970554484281934 Zr
    velocity -0.5675147498389124 -0.0213591991238107 -0.1839271793292200
atom -1.9883566193900168 0.2226370489648440 22.4232452895734617 Zr
    velocity 0.2295659734565035 -0.1666831342098223 -0.1049437487764652
atom 3.2076433806099809 0.2226370489648440 22.4232452895734617 Zr
    velocity 0.1895548440967804 -0.2189731881878209 -0.2903069389612795
atom 8.4036433806099797 0.2226370489648440 22.4232452895734617 Zr
    velocity 0.4342901335559888 -0.2895349869834941 -0.2763171851862916
atom 13.5996433806099759 0.2226370489648440 22.4232452895734617 Zr
    velocity -0.4371453299582565 -0.0495926307293602 -0.1271329593095836
atom 18.7956433806099810 0.2226370489648440 22.4232452895734617 Zr
    velocity -0.0572370331709422 -0.1400932842914922 -0.4353381730658604
atom 23.9916433806099825 0.2226370489648440 22.4232452895734617 Zr
    velocity 0.0065782834064883 -0.0341455448112417 0.1519651297671942
atom -1.9883566193900168 5.4416370489648420 22.4232452895734617 Zr
    velocity -0.0441797170991460 -0.2642933183700108 0.1401133536974684
atom 3.2076433806099809 5.4416370489648420 22.4232452895734617 Zr
    velocity 0.0773468235823541 -0.3435221771413884 0.1768879737725154
atom 8.4036433806099797 5.4416370489648420 22.4232452895734617 Zr
    velocity -0.0144253234041852 -0.0279440371472504 0.1518910437486208
atom 13.5996433806099759 5.4416370489648420 22.4232452895734617 Zr
    velocity -0.4111390053779133 0.2470855271033517 -0.2847844960684162
atom 18.7956433806099810 5.4416370489648420 22.4232452895734617 Zr
    velocity 0.0320533138754076 -0.1405969148054633 -0.4565196207276355
atom 23.9916433806099825 5.4416370489648420 22.4232452895734617 Zr
    velocity -0.0809357146988388 0.7431864956567494 -0.5229899130359010
atom -1.9883566193900168 10.6606370489648423 22.4232452895734617 Zr
    velocity -0.2892259964640454 -0.2282559663000688 0.0526540605134752
atom 3.2076433806099809 10.6606370489648423 22.4232452895734617 Zr
    velocity 0.3252833083393321 0.2005792327236043 -0.0875149966204872
atom 8.4036433806099797 10.6606370489648423 22.4232452895734617 Zr
    velocity 0.4531318894586898 -0.2295546744744441 0.2600321606305100
atom 13.5996433806099759 10.6606370489648423 22.4232452895734617 Zr
    velocity 0.2383401273878644 -0.0386557201124035 0.0359859636087663
atom 18.7956433806099810 10.6606370489648423 22.4232452895734617 Zr
    velocity 0.2794114785011290 0.1956474408330388 -0.0351961652495399
atom 23.9916433806099825 10.6606370489648423 22.4232452895734617 Zr
    velocity -0.4236586706930510 -0.1674687545601474 0.2219742737414895
atom -1.9883566193900168 15.8796370489648435 22.4232452895734617 Zr
    velocity -0.0404431597436592 -0.1988949073230511 -0.1035234261631800
atom 3.2076433806099809 15.8796370489648435 22.4232452895734617 Zr
    velocity 0.0257609347521145 0.1635084946046237 0.0357071436706221
atom 8.4036433806099797 15.8796370489648435 22.4232452895734617 Zr
    velocity -0.2700479181346879 0.1222636254472882 -0.3449995816670325
atom 13.5996433806099759 15.8796370489648435 22.4232452895734617 Zr
    velocity 0.2686522809285055 0.5046671204908105 0.1042886888466094
atom 18.7956433806099810 15.8796370489648435 22.4232452895734617 Zr
    velocity 0.3806502362705603 0.2429997753974463 -0.2657690868792478
atom 23.9916433806099825 15.8796370489648435 22.4232452895734617 Zr
    velocity 0.6134725473783472 -0.6157729454737754 -0.0960320742266074
atom -1.9883566193900168 21.0986370489648465 22.4232452895734617 Zr
    velocity 0.2529120993920959 0.3858428872416690 0.5163219484751678
atom 3.2076433806099809 21.0986370489648465 22.4232452895734617 Zr
    velocity -0.0614890024769861 -0.1285009615367735 0.0486677770581000
atom 8.4036433806099797 21.0986370489648465 22.4232452895734617 Zr
    velocity -0.4540842201963827 0.0029809806287177 0.1328269761794715
atom 13.5996433806099759 21.0986370489648465 22.4232452895734617 Zr
    velocity -0.1558096301025832 0.2332261777558489 0.1087642882494037
atom 18.7956433806099810 21.0986370489648465 22.4232452895734617 Zr
    velocity 0.3596655739524925 0.0927005695559283 -0.2012835552566837
atom 23.9916433806099825 21.0986370489648465 22.4232452895734617 Zr
    velocity 0.0554050939152714 0.1528478086557523 -0.4710874905179847
atom -1.9883566193900168 26.3176370489648441 22.4232452895734617 Zr
    velocity 0.4520334524007639 -0.1305457982473352 0.1991771982080231
atom 3.2076433806099809 26.3176370489648441 22.4232452895734617 Zr
    velocity -0.0093576776906495 0.1029367038198597 -0.0608032060823126
atom 8.4036433806099797 26.3176370489648441 22.4232452895734617 Zr
    velocity 0.1800319179985250 0.0010997959090579 0.1324913358271592
atom 13.5996433806099759 26.3176370489648441 22.4232452895734617 Zr
    velocity -0.0177837006528985 0.3974392095197210 -0.3955312001409335
atom 18.7956433806099810 26.3176370489648441 22.4232452895734617 Zr
    velocity 0.3456196253764208 -0.1725393126045620 0.1451451717952856
atom 23.9916433806099825 26.3176370489648441 22.4232452895734617 Zr
    velocity 0.1594324276753191 0.0811703392597117 -0.2546364557778207
atom -2.8021414656982784 0.2226370489648440 27.7494351307187301 Zr
    velocity 0.0132752782693364 0.0329005609113823 0.3463695248885791
atom 2.3938585343017227 0.2226370489648440 27.7494351307187301 Zr
    velocity -0.0868967849215966 0.0834252825790943 0.0831310004299236
atom 7.5898585343017189 0.2226370489648440 27.7494351307187301 Zr
    velocity -0.1450891108954831 -0.7026473296538888 -0.1984950173582365
atom 12.7858585343017150 0.2226370489648440 27.7494351307187301 Zr
    velocity -0.3160347637027203 0.1771046314420874 0.0854162546929629
atom 17.9818585343017219 0.2226370489648440 27.7494351307187301 Zr
    velocity 0.0033296158077101 -0.2187909116763604 -0.0263487859476885
atom 23.1778585343017269 0.2226370489648440 27.7494351307187301 Zr
    velocity -0.2680657951030838 -0.6033723577911584 0.1276690196386886
atom -2.8021414656982784 5.4416370489648420 27.7494351307187301 Zr
    velocity 0.3129905800709470 0.3143616089228085 -0.4120434544209160
atom 2.3938585343017227 5.4416370489648420 27.7494351307187301 Zr
    velocity 0.0541179417493494 0.3658533723855352 0.0108022248816724
atom 7.5898585343017189 5.4416370489648420 27.7494351307187301 Zr
    velocity -0.3329683722044457 -0.3851813669348051 0.2458648027549054
atom 12.7858585343017150 5.4416370489648420 27.7494351307187301 Zr
    velocity 0.3626926515729976 -0.2270620260173852 -0.4900989102413708
atom 17.9818585343017219 5.4416370489648420 27.7494351307187301 Zr
    velocity 0.0836185038917041 -0.2627451295122297 -0.0369639032351013
atom 23.1778585343017269 5.4416370489648420 27.7494351307187301 Zr
    velocity -0.3879256056593229 0.0551764029971121 0.4377919842043047
atom -2.8021414656982784 10.6606370489648423 27.7494351307187301 Zr
    velocity 0.0644360184660922 0.0330492405569180 -0.2092405946591194
atom 2.3938585343017227 10.6606370489648423 27.7494351307187301 Zr
    velocity -0.2336912343822347 -0.4381589064696499 0.6130963660341311
atom 7.5898585343017189 10.6606370489648423 27.7494351307187301 Zr
    velocity -0.1423788623797912 0.3793528237178619 0.0181748008865334
atom 12.7858585343017150 10.6606370489648423 27.7494351307187301 Zr
    velocity 0.0767422276767979 0.4301935859678822 -0.0548790903229118
atom 17.9818585343017219 10.6606370489648423 27.7494351307187301 Zr
    velocity -0.1023869894308550 -0.0152417421903216 -0.0148462712126820
atom 23.1778585343017269 10.6606370489648423 27.7494351307187301 Zr
    velocity 0.4860646278125851 -0.3214034651564683 0.3061085746089878
atom -2.8021414656982784 15.8796370489648435 27.7494351307187301 Zr
    velocity 0.7297650889090607 -0.5090720198057830 0.3809954441269539
atom 2.3938585343017227 15.8796370489648435 27.7494351307187301 Zr
    velocity 0.2183332405202467 0.2066888272246927 -0.1028072788770139
atom 7.5898585343017189 15.8796370489648435 27.7494351307187301 Zr
    velocity 0.3818747591982046 0.0102577734499264 -0.3149135632182783
atom 12.7858585343017150 15.8796370489648435 27.7494351307187301 Zr
    velocity -0.0771440386283103 0.3175667543476739 -0.1283429422406369
atom 17.9818585343017219 15.8796370489648435 27.7494351307187301 Zr
    velocity 0.1966314091301732 0.1305838538432436 0.0373728426529271
atom 23.1778585343017269 15.8796370489648435 27.7494351307187301 Zr
    velocity -0.1233492428976571 0.2371630718854119 -0.0471442795067818
atom -2.8021414656982784 21.0986370489648465 27.7494351307187301 Zr
    velocity -0.4568387724658302 0.0462031951975289 -0.0134212009030082
atom 2.3938585343017227 21.0986370489648465 27.7494351307187301 Zr
    velocity -0.1275231864719584 0.1438974197837549 -0.2303335579031757
atom 7.5898585343017189 21.0986370489648465 27.7494351307187301 Zr
    velocity -0.2199649829985910 0.1411313381384522 0.0888209615977741
atom 12.7858585343017150 21.0986370489648465 27.7494351307187301 Zr
    velocity -0.1958786774057691 0.3958167108396156 0.6152603206231446
atom 17.9818585343017219 21.0986370489648465 27.7494351307187301 Zr
    velocity 0.1233804682456083 -0.4554501198162980 0.0900543510512096
atom 23.1778585343017269 21.0986370489648465 27.7494351307187301 Zr
    velocity -0.1276376728096059 0.0737106714721335 0.0282836936107499
atom -2.8021414656982784 26.3176370489648441 27.7494351307187301 Zr
    velocity -0.6624378644449959 -0.0253123200066106 -0.0778726233418472