#=======================================================
# FHI-aims file: 1400_geometry.in.primitive.supercell_2592
# Created using the Atomic Simulation Environment (ASE)
# Wed Aug 24 14:04:59 2022

# Additional information:
#  Number of atoms:     2592
#  Spacegroup:          14
#  supercell:           True
#  supercell_matrix:    [6, 0, 0, 0, 6, 0, 0, 0, 6]
#  Supercell matrix:    [6 0 0 0 6 0 0 0 6]
#=======================================================
lattice_vector 31.1759999999999984 0.0000000000000000 0.0000000000000000 
lattice_vector 0.0000000000000000 31.3140000000000001 0.0000000000000000 
lattice_vector -4.8827090778495661 0.0000000000000000 31.9571390468715997 
atom_frac 0.0461148143903333 0.0071098246460000 0.0349995637391667 Zr
atom_frac 0.2127814810569999 0.0071098246460000 0.0349995637391667 Zr
atom_frac 0.3794481477236666 0.0071098246460000 0.0349995637391667 Zr
atom_frac 0.5461148143903332 0.0071098246460000 0.0349995637391667 Zr
atom_frac 0.7127814810569999 0.0071098246460000 0.0349995637391667 Zr
atom_frac 0.8794481477236666 0.0071098246460000 0.0349995637391667 Zr
atom_frac 0.0461148143903333 0.1737764913126666 0.0349995637391667 Zr
atom_frac 0.2127814810569999 0.1737764913126666 0.0349995637391667 Zr
atom_frac 0.3794481477236666 0.1737764913126666 0.0349995637391667 Zr
atom_frac 0.5461148143903332 0.1737764913126666 0.0349995637391667 Zr
atom_frac 0.7127814810569999 0.1737764913126666 0.0349995637391667 Zr
atom_frac 0.8794481477236666 0.1737764913126666 0.0349995637391667 Zr
atom_frac 0.0461148143903333 0.3404431579793333 0.0349995637391667 Zr
atom_frac 0.2127814810569999 0.3404431579793333 0.0349995637391667 Zr
atom_frac 0.3794481477236666 0.3404431579793333 0.0349995637391667 Zr
atom_frac 0.5461148143903332 0.3404431579793333 0.0349995637391667 Zr
atom_frac 0.7127814810569999 0.3404431579793333 0.0349995637391667 Zr
atom_frac 0.8794481477236666 0.3404431579793333 0.0349995637391667 Zr
atom_frac 0.0461148143903333 0.5071098246460000 0.0349995637391667 Zr
atom_frac 0.2127814810569999 0.5071098246460000 0.0349995637391667 Zr
atom_frac 0.3794481477236666 0.5071098246460000 0.0349995637391667 Zr
atom_frac 0.5461148143903332 0.5071098246460000 0.0349995637391667 Zr
atom_frac 0.7127814810569999 0.5071098246460000 0.0349995637391667 Zr
atom_frac 0.8794481477236666 0.5071098246460000 0.0349995637391667 Zr
atom_frac 0.0461148143903333 0.6737764913126667 0.0349995637391667 Zr
atom_frac 0.2127814810569999 0.6737764913126667 0.0349995637391667 Zr
atom_frac 0.3794481477236666 0.6737764913126667 0.0349995637391667 Zr
atom_frac 0.5461148143903332 0.6737764913126667 0.0349995637391667 Zr
atom_frac 0.7127814810569999 0.6737764913126667 0.0349995637391667 Zr
atom_frac 0.8794481477236666 0.6737764913126667 0.0349995637391667 Zr
atom_frac 0.0461148143903333 0.8404431579793333 0.0349995637391667 Zr
atom_frac 0.2127814810569999 0.8404431579793333 0.0349995637391667 Zr
atom_frac 0.3794481477236666 0.8404431579793333 0.0349995637391667 Zr
atom_frac 0.5461148143903332 0.8404431579793333 0.0349995637391667 Zr
atom_frac 0.7127814810569999 0.8404431579793333 0.0349995637391667 Zr
atom_frac 0.8794481477236666 0.8404431579793333 0.0349995637391667 Zr
atom_frac 0.0461148143903333 0.0071098246460000 0.2016662304058333 Zr
atom_frac 0.2127814810569999 0.0071098246460000 0.2016662304058333 Zr
atom_frac 0.3794481477236666 0.0071098246460000 0.2016662304058333 Zr
atom_frac 0.5461148143903332 0.0071098246460000 0.2016662304058333 Zr
atom_frac 0.7127814810569999 0.0071098246460000 0.2016662304058333 Zr
atom_frac 0.8794481477236666 0.0071098246460000 0.2016662304058333 Zr
atom_frac 0.0461148143903333 0.1737764913126666 0.2016662304058333 Zr
atom_frac 0.2127814810569999 0.1737764913126666 0.2016662304058333 Zr
atom_frac 0.3794481477236666 0.1737764913126666 0.2016662304058333 Zr
atom_frac 0.5461148143903332 0.1737764913126666 0.2016662304058333 Zr
atom_frac 0.7127814810569999 0.1737764913126666 0.2016662304058333 Zr
atom_frac 0.8794481477236666 0.1737764913126666 0.2016662304058333 Zr
atom_frac 0.0461148143903333 0.3404431579793333 0.2016662304058333 Zr
atom_frac 0.2127814810569999 0.3404431579793333 0.2016662304058333 Zr
atom_frac 0.3794481477236666 0.3404431579793333 0.2016662304058333 Zr
atom_frac 0.5461148143903332 0.3404431579793333 0.2016662304058333 Zr
atom_frac 0.7127814810569999 0.3404431579793333 0.2016662304058333 Zr
atom_frac 0.8794481477236666 0.3404431579793333 0.2016662304058333 Zr
atom_frac 0.0461148143903333 0.5071098246460000 0.2016662304058333 Zr
atom_frac 0.2127814810569999 0.5071098246460000 0.2016662304058333 Zr
atom_frac 0.3794481477236666 0.5071098246460000 0.2016662304058333 Zr
atom_frac 0.5461148143903332 0.5071098246460000 0.2016662304058333 Zr
atom_frac 0.7127814810569999 0.5071098246460000 0.2016662304058333 Zr
atom_frac 0.8794481477236666 0.5071098246460000 0.2016662304058333 Zr
atom_frac 0.0461148143903333 0.6737764913126667 0.2016662304058333 Zr
atom_frac 0.2127814810569999 0.6737764913126667 0.2016662304058333 Zr
atom_frac 0.3794481477236666 0.6737764913126667 0.2016662304058333 Zr
atom_frac 0.5461148143903332 0.6737764913126667 0.2016662304058333 Zr
atom_frac 0.7127814810569999 0.6737764913126667 0.2016662304058333 Zr
atom_frac 0.8794481477236666 0.6737764913126667 0.2016662304058333 Zr
atom_frac 0.0461148143903333 0.8404431579793333 0.2016662304058333 Zr
atom_frac 0.2127814810569999 0.8404431579793333 0.2016662304058333 Zr
atom_frac 0.3794481477236666 0.8404431579793333 0.2016662304058333 Zr
atom_frac 0.5461148143903332 0.8404431579793333 0.2016662304058333 Zr
atom_frac 0.7127814810569999 0.8404431579793333 0.2016662304058333 Zr
atom_frac 0.8794481477236666 0.8404431579793333 0.2016662304058333 Zr
atom_frac 0.0461148143903333 0.0071098246460000 0.3683328970725000 Zr
atom_frac 0.2127814810569999 0.0071098246460000 0.3683328970725000 Zr
atom_frac 0.3794481477236666 0.0071098246460000 0.3683328970725000 Zr
atom_frac 0.5461148143903332 0.0071098246460000 0.3683328970725000 Zr
atom_frac 0.7127814810569999 0.0071098246460000 0.3683328970725000 Zr
atom_frac 0.8794481477236666 0.0071098246460000 0.3683328970725000 Zr
atom_frac 0.0461148143903333 0.1737764913126666 0.3683328970725000 Zr
atom_frac 0.2127814810569999 0.1737764913126666 0.3683328970725000 Zr
atom_frac 0.3794481477236666 0.1737764913126666 0.3683328970725000 Zr
atom_frac 0.5461148143903332 0.1737764913126666 0.3683328970725000 Zr
atom_frac 0.7127814810569999 0.1737764913126666 0.3683328970725000 Zr
atom_frac 0.8794481477236666 0.1737764913126666 0.3683328970725000 Zr
atom_frac 0.0461148143903333 0.3404431579793333 0.3683328970725000 Zr
atom_frac 0.2127814810569999 0.3404431579793333 0.3683328970725000 Zr
atom_frac 0.3794481477236666 0.3404431579793333 0.3683328970725000 Zr
atom_frac 0.5461148143903332 0.3404431579793333 0.3683328970725000 Zr
atom_frac 0.7127814810569999 0.3404431579793333 0.3683328970725000 Zr
atom_frac 0.8794481477236666 0.3404431579793333 0.3683328970725000 Zr
atom_frac 0.0461148143903333 0.5071098246460000 0.3683328970725000 Zr
atom_frac 0.2127814810569999 0.5071098246460000 0.3683328970725000 Zr
atom_frac 0.3794481477236666 0.5071098246460000 0.3683328970725000 Zr
atom_frac 0.5461148143903332 0.5071098246460000 0.3683328970725000 Zr
atom_frac 0.7127814810569999 0.5071098246460000 0.3683328970725000 Zr
atom_frac 0.8794481477236666 0.5071098246460000 0.3683328970725000 Zr
atom_frac 0.0461148143903333 0.6737764913126667 0.3683328970725000 Zr
atom_frac 0.2127814810569999 0.6737764913126667 0.3683328970725000 Zr
atom_frac 0.3794481477236666 0.6737764913126667 0.3683328970725000 Zr
atom_frac 0.5461148143903332 0.6737764913126667 0.3683328970725000 Zr
atom_frac 0.7127814810569999 0.6737764913126667 0.3683328970725000 Zr
atom_frac 0.8794481477236666 0.6737764913126667 0.3683328970725000 Zr
atom_frac 0.0461148143903333 0.8404431579793333 0.3683328970725000 Zr
atom_frac 0.2127814810569999 0.8404431579793333 0.3683328970725000 Zr
atom_frac 0.3794481477236666 0.8404431579793333 0.3683328970725000 Zr
atom_frac 0.5461148143903332 0.8404431579793333 0.3683328970725000 Zr
atom_frac 0.7127814810569999 0.8404431579793333 0.3683328970725000 Zr
atom_frac 0.8794481477236666 0.8404431579793333 0.3683328970725000 Zr
atom_frac 0.0461148143903333 0.0071098246460000 0.5349995637391667 Zr
atom_frac 0.2127814810569999 0.0071098246460000 0.5349995637391667 Zr
atom_frac 0.3794481477236666 0.0071098246460000 0.5349995637391667 Zr
atom_frac 0.5461148143903332 0.0071098246460000 0.5349995637391667 Zr
atom_frac 0.7127814810569999 0.0071098246460000 0.5349995637391667 Zr
atom_frac 0.8794481477236666 0.0071098246460000 0.5349995637391667 Zr
atom_frac 0.0461148143903333 0.1737764913126666 0.5349995637391667 Zr
atom_frac 0.2127814810569999 0.1737764913126666 0.5349995637391667 Zr
atom_frac 0.3794481477236666 0.1737764913126666 0.5349995637391667 Zr
atom_frac 0.5461148143903332 0.1737764913126666 0.5349995637391667 Zr
atom_frac 0.7127814810569999 0.1737764913126666 0.5349995637391667 Zr
atom_frac 0.8794481477236666 0.1737764913126666 0.5349995637391667 Zr
atom_frac 0.0461148143903333 0.3404431579793333 0.5349995637391667 Zr
atom_frac 0.2127814810569999 0.3404431579793333 0.5349995637391667 Zr
atom_frac 0.3794481477236666 0.3404431579793333 0.5349995637391667 Zr
atom_frac 0.5461148143903332 0.3404431579793333 0.5349995637391667 Zr
atom_frac 0.7127814810569999 0.3404431579793333 0.5349995637391667 Zr
atom_frac 0.8794481477236666 0.3404431579793333 0.5349995637391667 Zr
atom_frac 0.0461148143903333 0.5071098246460000 0.5349995637391667 Zr
atom_frac 0.2127814810569999 0.5071098246460000 0.5349995637391667 Zr
atom_frac 0.3794481477236666 0.5071098246460000 0.5349995637391667 Zr
atom_frac 0.5461148143903332 0.5071098246460000 0.5349995637391667 Zr
atom_frac 0.7127814810569999 0.5071098246460000 0.5349995637391667 Zr
atom_frac 0.8794481477236666 0.5071098246460000 0.5349995637391667 Zr
atom_frac 0.0461148143903333 0.6737764913126667 0.5349995637391667 Zr
atom_frac 0.2127814810569999 0.6737764913126667 0.5349995637391667 Zr
atom_frac 0.3794481477236666 0.6737764913126667 0.5349995637391667 Zr
atom_frac 0.5461148143903332 0.6737764913126667 0.5349995637391667 Zr
atom_frac 0.7127814810569999 0.6737764913126667 0.5349995637391667 Zr
atom_frac 0.8794481477236666 0.6737764913126667 0.5349995637391667 Zr
atom_frac 0.0461148143903333 0.8404431579793333 0.5349995637391667 Zr
atom_frac 0.2127814810569999 0.8404431579793333 0.5349995637391667 Zr
atom_frac 0.3794481477236666 0.8404431579793333 0.5349995637391667 Zr
atom_frac 0.5461148143903332 0.8404431579793333 0.5349995637391667 Zr
atom_frac 0.7127814810569999 0.8404431579793333 0.5349995637391667 Zr
atom_frac 0.8794481477236666 0.8404431579793333 0.5349995637391667 Zr
atom_frac 0.0461148143903333 0.0071098246460000 0.7016662304058333 Zr
atom_frac 0.2127814810569999 0.0071098246460000 0.7016662304058333 Zr
atom_frac 0.3794481477236666 0.0071098246460000 0.7016662304058333 Zr
atom_frac 0.5461148143903332 0.0071098246460000 0.7016662304058333 Zr
atom_frac 0.7127814810569999 0.0071098246460000 0.7016662304058333 Zr
atom_frac 0.8794481477236666 0.0071098246460000 0.7016662304058333 Zr
atom_frac 0.0461148143903333 0.1737764913126666 0.7016662304058333 Zr
atom_frac 0.2127814810569999 0.1737764913126666 0.7016662304058333 Zr
atom_frac 0.3794481477236666 0.1737764913126666 0.7016662304058333 Zr
atom_frac 0.5461148143903332 0.1737764913126666 0.7016662304058333 Zr
atom_frac 0.7127814810569999 0.1737764913126666 0.7016662304058333 Zr
atom_frac 0.8794481477236666 0.1737764913126666 0.7016662304058333 Zr
atom_frac 0.0461148143903333 0.3404431579793333 0.7016662304058333 Zr
atom_frac 0.2127814810569999 0.3404431579793333 0.7016662304058333 Zr
atom_frac 0.3794481477236666 0.3404431579793333 0.7016662304058333 Zr
atom_frac 0.5461148143903332 0.3404431579793333 0.7016662304058333 Zr
atom_frac 0.7127814810569999 0.3404431579793333 0.7016662304058333 Zr
atom_frac 0.8794481477236666 0.3404431579793333 0.7016662304058333 Zr
atom_frac 0.0461148143903333 0.5071098246460000 0.7016662304058333 Zr
atom_frac 0.2127814810569999 0.5071098246460000 0.7016662304058333 Zr
atom_frac 0.3794481477236666 0.5071098246460000 0.7016662304058333 Zr
atom_frac 0.5461148143903332 0.5071098246460000 0.7016662304058333 Zr
atom_frac 0.7127814810569999 0.5071098246460000 0.7016662304058333 Zr
atom_frac 0.8794481477236666 0.5071098246460000 0.7016662304058333 Zr
atom_frac 0.0461148143903333 0.6737764913126667 0.7016662304058333 Zr
atom_frac 0.2127814810569999 0.6737764913126667 0.7016662304058333 Zr
atom_frac 0.3794481477236666 0.6737764913126667 0.7016662304058333 Zr
atom_frac 0.5461148143903332 0.6737764913126667 0.7016662304058333 Zr
atom_frac 0.7127814810569999 0.6737764913126667 0.7016662304058333 Zr
atom_frac 0.8794481477236666 0.6737764913126667 0.7016662304058333 Zr
atom_frac 0.0461148143903333 0.8404431579793333 0.7016662304058333 Zr
atom_frac 0.2127814810569999 0.8404431579793333 0.7016662304058333 Zr
atom_frac 0.3794481477236666 0.8404431579793333 0.7016662304058333 Zr
atom_frac 0.5461148143903332 0.8404431579793333 0.7016662304058333 Zr
atom_frac 0.7127814810569999 0.8404431579793333 0.7016662304058333 Zr
atom_frac 0.8794481477236666 0.8404431579793333 0.7016662304058333 Zr
atom_frac 0.0461148143903333 0.0071098246460000 0.8683328970725001 Zr
atom_frac 0.2127814810570000 0.0071098246460000 0.8683328970725001 Zr
atom_frac 0.3794481477236666 0.0071098246460000 0.8683328970725001 Zr
atom_frac 0.5461148143903332 0.0071098246460000 0.8683328970725001 Zr
atom_frac 0.7127814810569999 0.0071098246460000 0.8683328970725001 Zr
atom_frac 0.8794481477236668 0.0071098246460000 0.8683328970725001 Zr
atom_frac 0.0461148143903333 0.1737764913126666 0.8683328970725001 Zr
atom_frac 0.2127814810570000 0.1737764913126666 0.8683328970725001 Zr
atom_frac 0.3794481477236666 0.1737764913126666 0.8683328970725001 Zr
atom_frac 0.5461148143903332 0.1737764913126666 0.8683328970725001 Zr
atom_frac 0.7127814810569999 0.1737764913126666 0.8683328970725001 Zr
atom_frac 0.8794481477236668 0.1737764913126666 0.8683328970725001 Zr
atom_frac 0.0461148143903333 0.3404431579793333 0.8683328970725001 Zr
atom_frac 0.2127814810570000 0.3404431579793333 0.8683328970725001 Zr
atom_frac 0.3794481477236666 0.3404431579793333 0.8683328970725001 Zr
atom_frac 0.5461148143903332 0.3404431579793333 0.8683328970725001 Zr
atom_frac 0.7127814810569999 0.3404431579793333 0.8683328970725001 Zr
atom_frac 0.8794481477236668 0.3404431579793333 0.8683328970725001 Zr
atom_frac 0.0461148143903333 0.5071098246460000 0.8683328970725001 Zr
atom_frac 0.2127814810570000 0.5071098246460000 0.8683328970725001 Zr
atom_frac 0.3794481477236666 0.5071098246460000 0.8683328970725001 Zr
atom_frac 0.5461148143903332 0.5071098246460000 0.8683328970725001 Zr
atom_frac 0.7127814810569999 0.5071098246460000 0.8683328970725001 Zr
atom_frac 0.8794481477236668 0.5071098246460000 0.8683328970725001 Zr
atom_frac 0.0461148143903333 0.6737764913126667 0.8683328970725001 Zr
atom_frac 0.2127814810570000 0.6737764913126667 0.8683328970725001 Zr
atom_frac 0.3794481477236666 0.6737764913126667 0.8683328970725001 Zr
atom_frac 0.5461148143903332 0.6737764913126667 0.8683328970725001 Zr
atom_frac 0.7127814810569999 0.6737764913126667 0.8683328970725001 Zr
atom_frac 0.8794481477236668 0.6737764913126667 0.8683328970725001 Zr
atom_frac 0.0461148143903333 0.8404431579793333 0.8683328970725001 Zr
atom_frac 0.2127814810570000 0.8404431579793333 0.8683328970725001 Zr
atom_frac 0.3794481477236666 0.8404431579793333 0.8683328970725001 Zr
atom_frac 0.5461148143903332 0.8404431579793333 0.8683328970725001 Zr
atom_frac 0.7127814810569999 0.8404431579793333 0.8683328970725001 Zr
atom_frac 0.8794481477236668 0.8404431579793333 0.8683328970725001 Zr
atom_frac 0.1205518427763333 0.1595568420206667 0.1316671052608333 Zr
atom_frac 0.2872185094430000 0.1595568420206667 0.1316671052608333 Zr
atom_frac 0.4538851761096666 0.1595568420206667 0.1316671052608333 Zr
atom_frac 0.6205518427763332 0.1595568420206667 0.1316671052608333 Zr
atom_frac 0.7872185094429999 0.1595568420206667 0.1316671052608333 Zr
atom_frac 0.9538851761096665 0.1595568420206667 0.1316671052608333 Zr
atom_frac 0.1205518427763333 0.3262235086873334 0.1316671052608333 Zr
atom_frac 0.2872185094430000 0.3262235086873334 0.1316671052608333 Zr
atom_frac 0.4538851761096666 0.3262235086873334 0.1316671052608333 Zr
atom_frac 0.6205518427763332 0.3262235086873334 0.1316671052608333 Zr
atom_frac 0.7872185094429999 0.3262235086873334 0.1316671052608333 Zr
atom_frac 0.9538851761096665 0.3262235086873334 0.1316671052608333 Zr
atom_frac 0.1205518427763333 0.4928901753540000 0.1316671052608333 Zr
atom_frac 0.2872185094430000 0.4928901753540000 0.1316671052608333 Zr
atom_frac 0.4538851761096666 0.4928901753540000 0.1316671052608333 Zr
atom_frac 0.6205518427763332 0.4928901753540000 0.1316671052608333 Zr
atom_frac 0.7872185094429999 0.4928901753540000 0.1316671052608333 Zr
atom_frac 0.9538851761096665 0.4928901753540000 0.1316671052608333 Zr
atom_frac 0.1205518427763333 0.6595568420206667 0.1316671052608333 Zr
atom_frac 0.2872185094430000 0.6595568420206667 0.1316671052608333 Zr
atom_frac 0.4538851761096666 0.6595568420206667 0.1316671052608333 Zr
atom_frac 0.6205518427763332 0.6595568420206667 0.1316671052608333 Zr
atom_frac 0.7872185094429999 0.6595568420206667 0.1316671052608333 Zr
atom_frac 0.9538851761096665 0.6595568420206667 0.1316671052608333 Zr
atom_frac 0.1205518427763333 0.8262235086873333 0.1316671052608333 Zr
atom_frac 0.2872185094430000 0.8262235086873333 0.1316671052608333 Zr
atom_frac 0.4538851761096666 0.8262235086873333 0.1316671052608333 Zr
atom_frac 0.6205518427763332 0.8262235086873333 0.1316671052608333 Zr
atom_frac 0.7872185094429999 0.8262235086873333 0.1316671052608333 Zr
atom_frac 0.9538851761096665 0.8262235086873333 0.1316671052608333 Zr
atom_frac 0.1205518427763333 0.9928901753539999 0.1316671052608333 Zr
atom_frac 0.2872185094430000 0.9928901753539999 0.1316671052608333 Zr
atom_frac 0.4538851761096666 0.9928901753539999 0.1316671052608333 Zr
atom_frac 0.6205518427763332 0.9928901753539999 0.1316671052608333 Zr
atom_frac 0.7872185094429999 0.9928901753539999 0.1316671052608333 Zr
atom_frac 0.9538851761096665 0.9928901753539999 0.1316671052608333 Zr
atom_frac 0.1205518427763333 0.1595568420206667 0.2983337719275000 Zr
atom_frac 0.2872185094430000 0.1595568420206667 0.2983337719275000 Zr
atom_frac 0.4538851761096666 0.1595568420206667 0.2983337719275000 Zr
atom_frac 0.6205518427763332 0.1595568420206667 0.2983337719275000 Zr
atom_frac 0.7872185094429999 0.1595568420206667 0.2983337719275000 Zr
atom_frac 0.9538851761096665 0.1595568420206667 0.2983337719275000 Zr
atom_frac 0.1205518427763333 0.3262235086873334 0.2983337719275000 Zr
atom_frac 0.2872185094430000 0.3262235086873334 0.2983337719275000 Zr
atom_frac 0.4538851761096666 0.3262235086873334 0.2983337719275000 Zr
atom_frac 0.6205518427763332 0.3262235086873334 0.2983337719275000 Zr
atom_frac 0.7872185094429999 0.3262235086873334 0.2983337719275000 Zr
atom_frac 0.9538851761096665 0.3262235086873334 0.2983337719275000 Zr
atom_frac 0.1205518427763333 0.4928901753540000 0.2983337719275000 Zr
atom_frac 0.2872185094430000 0.4928901753540000 0.2983337719275000 Zr
atom_frac 0.4538851761096666 0.4928901753540000 0.2983337719275000 Zr
atom_frac 0.6205518427763332 0.4928901753540000 0.2983337719275000 Zr
atom_frac 0.7872185094429999 0.4928901753540000 0.2983337719275000 Zr
atom_frac 0.9538851761096665 0.4928901753540000 0.2983337719275000 Zr
atom_frac 0.1205518427763333 0.6595568420206667 0.2983337719275000 Zr
atom_frac 0.2872185094430000 0.6595568420206667 0.2983337719275000 Zr
atom_frac 0.4538851761096666 0.6595568420206667 0.2983337719275000 Zr
atom_frac 0.6205518427763332 0.6595568420206667 0.2983337719275000 Zr
atom_frac 0.7872185094429999 0.6595568420206667 0.2983337719275000 Zr
atom_frac 0.9538851761096665 0.6595568420206667 0.2983337719275000 Zr
atom_frac 0.1205518427763333 0.8262235086873333 0.2983337719275000 Zr
atom_frac 0.2872185094430000 0.8262235086873333 0.2983337719275000 Zr
atom_frac 0.4538851761096666 0.8262235086873333 0.2983337719275000 Zr
atom_frac 0.6205518427763332 0.8262235086873333 0.2983337719275000 Zr
atom_frac 0.7872185094429999 0.8262235086873333 0.2983337719275000 Zr
atom_frac 0.9538851761096665 0.8262235086873333 0.2983337719275000 Zr
atom_frac 0.1205518427763333 0.9928901753539999 0.2983337719275000 Zr
atom_frac 0.2872185094430000 0.9928901753539999 0.2983337719275000 Zr
atom_frac 0.4538851761096666 0.9928901753539999 0.2983337719275000 Zr
atom_frac 0.6205518427763332 0.9928901753539999 0.2983337719275000 Zr
atom_frac 0.7872185094429999 0.9928901753539999 0.2983337719275000 Zr
atom_frac 0.9538851761096665 0.9928901753539999 0.2983337719275000 Zr
atom_frac 0.1205518427763333 0.1595568420206667 0.4650004385941666 Zr
atom_frac 0.2872185094430000 0.1595568420206667 0.4650004385941666 Zr
atom_frac 0.4538851761096666 0.1595568420206667 0.4650004385941666 Zr
atom_frac 0.6205518427763332 0.1595568420206667 0.4650004385941666 Zr
atom_frac 0.7872185094429999 0.1595568420206667 0.4650004385941666 Zr
atom_frac 0.9538851761096665 0.1595568420206667 0.4650004385941666 Zr
atom_frac 0.1205518427763333 0.3262235086873334 0.4650004385941666 Zr
atom_frac 0.2872185094430000 0.3262235086873334 0.4650004385941666 Zr
atom_frac 0.4538851761096666 0.3262235086873334 0.4650004385941666 Zr
atom_frac 0.6205518427763332 0.3262235086873334 0.4650004385941666 Zr
atom_frac 0.7872185094429999 0.3262235086873334 0.4650004385941666 Zr
atom_frac 0.9538851761096665 0.3262235086873334 0.4650004385941666 Zr
atom_frac 0.1205518427763333 0.4928901753540000 0.4650004385941666 Zr
atom_frac 0.2872185094430000 0.4928901753540000 0.4650004385941666 Zr
atom_frac 0.4538851761096666 0.4928901753540000 0.4650004385941666 Zr
atom_frac 0.6205518427763332 0.4928901753540000 0.4650004385941666 Zr
atom_frac 0.7872185094429999 0.4928901753540000 0.4650004385941666 Zr
atom_frac 0.9538851761096665 0.4928901753540000 0.4650004385941666 Zr
atom_frac 0.1205518427763333 0.6595568420206667 0.4650004385941666 Zr
atom_frac 0.2872185094430000 0.6595568420206667 0.4650004385941666 Zr
atom_frac 0.4538851761096666 0.6595568420206667 0.4650004385941666 Zr
atom_frac 0.6205518427763332 0.6595568420206667 0.4650004385941666 Zr
atom_frac 0.7872185094429999 0.6595568420206667 0.4650004385941666 Zr
atom_frac 0.9538851761096665 0.6595568420206667 0.4650004385941666 Zr
atom_frac 0.1205518427763333 0.8262235086873333 0.4650004385941666 Zr
atom_frac 0.2872185094430000 0.8262235086873333 0.4650004385941666 Zr
atom_frac 0.4538851761096666 0.8262235086873333 0.4650004385941666 Zr
atom_frac 0.6205518427763332 0.8262235086873333 0.4650004385941666 Zr
atom_frac 0.7872185094429999 0.8262235086873333 0.4650004385941666 Zr
atom_frac 0.9538851761096665 0.8262235086873333 0.4650004385941666 Zr
atom_frac 0.1205518427763333 0.9928901753539999 0.4650004385941666 Zr
atom_frac 0.2872185094430000 0.9928901753539999 0.4650004385941666 Zr
atom_frac 0.4538851761096666 0.9928901753539999 0.4650004385941666 Zr
atom_frac 0.6205518427763332 0.9928901753539999 0.4650004385941666 Zr
atom_frac 0.7872185094429999 0.9928901753539999 0.4650004385941666 Zr
atom_frac 0.9538851761096665 0.9928901753539999 0.4650004385941666 Zr
atom_frac 0.1205518427763333 0.1595568420206667 0.6316671052608333 Zr
atom_frac 0.2872185094430000 0.1595568420206667 0.6316671052608333 Zr
atom_frac 0.4538851761096666 0.1595568420206667 0.6316671052608333 Zr
atom_frac 0.6205518427763332 0.1595568420206667 0.6316671052608333 Zr
atom_frac 0.7872185094429999 0.1595568420206667 0.6316671052608333 Zr
atom_frac 0.9538851761096665 0.1595568420206667 0.6316671052608333 Zr
atom_frac 0.1205518427763333 0.3262235086873334 0.6316671052608333 Zr
atom_frac 0.2872185094430000 0.3262235086873334 0.6316671052608333 Zr
atom_frac 0.4538851761096666 0.3262235086873334 0.6316671052608333 Zr
atom_frac 0.6205518427763332 0.3262235086873334 0.6316671052608333 Zr
atom_frac 0.7872185094429999 0.3262235086873334 0.6316671052608333 Zr
atom_frac 0.9538851761096665 0.3262235086873334 0.6316671052608333 Zr
atom_frac 0.1205518427763333 0.4928901753540000 0.6316671052608333 Zr
atom_frac 0.2872185094430000 0.4928901753540000 0.6316671052608333 Zr
atom_frac 0.4538851761096666 0.4928901753540000 0.6316671052608333 Zr
atom_frac 0.6205518427763332 0.4928901753540000 0.6316671052608333 Zr
atom_frac 0.7872185094429999 0.4928901753540000 0.6316671052608333 Zr
atom_frac 0.9538851761096665 0.4928901753540000 0.6316671052608333 Zr
atom_frac 0.1205518427763333 0.6595568420206667 0.6316671052608333 Zr
atom_frac 0.2872185094430000 0.6595568420206667 0.6316671052608333 Zr
atom_frac 0.4538851761096666 0.6595568420206667 0.6316671052608333 Zr
atom_frac 0.6205518427763332 0.6595568420206667 0.6316671052608333 Zr
atom_frac 0.7872185094429999 0.6595568420206667 0.6316671052608333 Zr
atom_frac 0.9538851761096665 0.6595568420206667 0.6316671052608333 Zr
atom_frac 0.1205518427763333 0.8262235086873333 0.6316671052608333 Zr
atom_frac 0.2872185094430000 0.8262235086873333 0.6316671052608333 Zr
atom_frac 0.4538851761096666 0.8262235086873333 0.6316671052608333 Zr
atom_frac 0.6205518427763332 0.8262235086873333 0.6316671052608333 Zr
atom_frac 0.7872185094429999 0.8262235086873333 0.6316671052608333 Zr
atom_frac 0.9538851761096665 0.8262235086873333 0.6316671052608333 Zr
atom_frac 0.1205518427763333 0.9928901753539999 0.6316671052608333 Zr
atom_frac 0.2872185094430000 0.9928901753539999 0.6316671052608333 Zr
atom_frac 0.4538851761096666 0.9928901753539999 0.6316671052608333 Zr
atom_frac 0.6205518427763332 0.9928901753539999 0.6316671052608333 Zr
atom_frac 0.7872185094429999 0.9928901753539999 0.6316671052608333 Zr
atom_frac 0.9538851761096665 0.9928901753539999 0.6316671052608333 Zr
atom_frac 0.1205518427763333 0.1595568420206667 0.7983337719274999 Zr
atom_frac 0.2872185094430000 0.1595568420206667 0.7983337719274999 Zr
atom_frac 0.4538851761096666 0.1595568420206667 0.7983337719274999 Zr
atom_frac 0.6205518427763332 0.1595568420206667 0.7983337719274999 Zr
atom_frac 0.7872185094429999 0.1595568420206667 0.7983337719274999 Zr
atom_frac 0.9538851761096665 0.1595568420206667 0.7983337719274999 Zr
atom_frac 0.1205518427763333 0.3262235086873334 0.7983337719274999 Zr
atom_frac 0.2872185094430000 0.3262235086873334 0.7983337719274999 Zr
atom_frac 0.4538851761096666 0.3262235086873334 0.7983337719274999 Zr
atom_frac 0.6205518427763332 0.3262235086873334 0.7983337719274999 Zr
atom_frac 0.7872185094429999 0.3262235086873334 0.7983337719274999 Zr
atom_frac 0.9538851761096665 0.3262235086873334 0.7983337719274999 Zr
atom_frac 0.1205518427763333 0.4928901753540000 0.7983337719274999 Zr
atom_frac 0.2872185094430000 0.4928901753540000 0.7983337719274999 Zr
atom_frac 0.4538851761096666 0.4928901753540000 0.7983337719274999 Zr
atom_frac 0.6205518427763332 0.4928901753540000 0.7983337719274999 Zr
atom_frac 0.7872185094429999 0.4928901753540000 0.7983337719274999 Zr
atom_frac 0.9538851761096665 0.4928901753540000 0.7983337719274999 Zr
atom_frac 0.1205518427763333 0.6595568420206667 0.7983337719274999 Zr
atom_frac 0.2872185094430000 0.6595568420206667 0.7983337719274999 Zr
atom_frac 0.4538851761096666 0.6595568420206667 0.7983337719274999 Zr
atom_frac 0.6205518427763332 0.6595568420206667 0.7983337719274999 Zr
atom_frac 0.7872185094429999 0.6595568420206667 0.7983337719274999 Zr
atom_frac 0.9538851761096665 0.6595568420206667 0.7983337719274999 Zr
atom_frac 0.1205518427763333 0.8262235086873333 0.7983337719274999 Zr
atom_frac 0.2872185094430000 0.8262235086873333 0.7983337719274999 Zr
atom_frac 0.4538851761096666 0.8262235086873333 0.7983337719274999 Zr
atom_frac 0.6205518427763332 0.8262235086873333 0.7983337719274999 Zr
atom_frac 0.7872185094429999 0.8262235086873333 0.7983337719274999 Zr
atom_frac 0.9538851761096665 0.8262235086873333 0.7983337719274999 Zr
atom_frac 0.1205518427763333 0.9928901753539999 0.7983337719274999 Zr
atom_frac 0.2872185094430000 0.9928901753539999 0.7983337719274999 Zr
atom_frac 0.4538851761096666 0.9928901753539999 0.7983337719274999 Zr
atom_frac 0.6205518427763332 0.9928901753539999 0.7983337719274999 Zr
atom_frac 0.7872185094429999 0.9928901753539999 0.7983337719274999 Zr
atom_frac 0.9538851761096665 0.9928901753539999 0.7983337719274999 Zr
atom_frac 0.1205518427763333 0.1595568420206667 0.9650004385941666 Zr
atom_frac 0.2872185094430000 0.1595568420206667 0.9650004385941666 Zr
atom_frac 0.4538851761096666 0.1595568420206667 0.9650004385941666 Zr
atom_frac 0.6205518427763332 0.1595568420206667 0.9650004385941666 Zr
atom_frac 0.7872185094429998 0.1595568420206667 0.9650004385941666 Zr
atom_frac 0.9538851761096664 0.1595568420206667 0.9650004385941666 Zr
atom_frac 0.1205518427763333 0.3262235086873334 0.9650004385941666 Zr
atom_frac 0.2872185094430000 0.3262235086873334 0.9650004385941666 Zr
atom_frac 0.4538851761096666 0.3262235086873334 0.9650004385941666 Zr
atom_frac 0.6205518427763332 0.3262235086873334 0.9650004385941666 Zr
atom_frac 0.7872185094429998 0.3262235086873334 0.9650004385941666 Zr
atom_frac 0.9538851761096664 0.3262235086873334 0.9650004385941666 Zr
atom_frac 0.1205518427763333 0.4928901753540000 0.9650004385941666 Zr
atom_frac 0.2872185094430000 0.4928901753540000 0.9650004385941666 Zr
atom_frac 0.4538851761096666 0.4928901753540000 0.9650004385941666 Zr
atom_frac 0.6205518427763332 0.4928901753540000 0.9650004385941666 Zr
atom_frac 0.7872185094429998 0.4928901753540000 0.9650004385941666 Zr
atom_frac 0.9538851761096664 0.4928901753540000 0.9650004385941666 Zr
atom_frac 0.1205518427763333 0.6595568420206667 0.9650004385941666 Zr
atom_frac 0.2872185094430000 0.6595568420206667 0.9650004385941666 Zr
atom_frac 0.4538851761096666 0.6595568420206667 0.9650004385941666 Zr
atom_frac 0.6205518427763332 0.6595568420206667 0.9650004385941666 Zr